Molecule,Atom,x_coord,y_coord,z_coord,sigma_iso,sigma_xx,sigma_yy,sigma_zz,dia_sigma_xx,dia_sigma_yy,dia_sigma_zz,para_sigma_xx,para_sigma_yy,para_sigma_zz,sigma_11,sigma_22,sigma_33,s_tot_symmetry,span,skew
df_cut_4_n1_opt.xyz,Nucleus 7H :,1.004732,0.618235,0.399603,28.71,34.44,26.2,25.5,45.09,24.36,20.37,-12.17,3.32,5.17,25.5,26.2,34.44,0,8.94,-0.84
df_cut_4_n1_opt.xyz,Nucleus 8H :,-0.479139,0.82372,0.426466,28.66,33.2,27.9,24.88,24.68,36.46,34.5,-8.86,-2.88,2.09,24.88,27.9,33.2,0,8.32,-0.27
df_cut_4_n1_opt.xyz,Nucleus 9H :,-1.139424,1.29359,-0.715278,25.8,29.45,26.15,21.81,45.32,29.24,30.01,-19.56,0.18,-7.79,21.81,26.15,29.45,0,7.64,0.14
df_cut_4_n1_opt.xyz,Nucleus 10H :,-2.52968,1.410024,-0.731269,25.71,21.87,27.98,27.28,45.53,32.43,18.25,-18.92,-4.64,4.48,21.87,27.28,27.98,0,6.11,0.77
df_cut_4_n1_opt.xyz,Nucleus 11H :,-3.272787,1.055261,0.391918,23.23,22.2,23.28,24.21,12.13,42.96,40.98,10.96,-20.55,-16.79,22.2,23.28,24.21,0,2.01,0.07
df_cut_4_n1_opt.xyz,Nucleus 12H :,-2.626124,0.579825,1.530644,25.8,21.81,28.17,27.42,45.81,32.78,16.52,-19.08,-4.78,6.15,21.81,27.42,28.17,0,6.36,0.76
df_cut_4_n1_opt.xyz,Nucleus 13H :,-1.23522,0.460846,1.547455,25.57,29.22,25.82,21.67,45.27,29.92,27.78,-19.88,-0.62,-5.76,21.67,25.82,29.22,0,7.55,0.1
df_cut_4_n1_opt.xyz,Nucleus 14H :,1.55352,1.498202,0.765691,28.84,33.28,28.23,25.01,24.29,37.33,34.72,2.95,-8.94,-3.82,25.01,28.23,33.28,0,8.27,-0.22
df_cut_4_n1_opt.xyz,Nucleus 19H :,1.284892,-0.237829,1.022092,30.04,34.52,30.56,25.04,39.22,30.92,22.11,-4.83,-0.33,3.03,25.04,30.56,34.52,0,9.48,0.16
df_cut_4_n1_opt.xyz,Nucleus 20H :,-0.561879,1.500165,-1.613817,30.01,34.81,30.26,24.97,41.3,24.71,25.3,-6.83,5.68,-0.13,24.97,30.26,34.81,0,9.84,0.08
df_cut_4_n1_opt.xyz,Nucleus 21H :,-3.040816,1.720907,-1.638839,30.13,33.74,28.64,28.02,38.46,25.86,28.28,2.89,0.21,-5.29,28.02,28.64,33.74,0,5.72,-0.78
df_cut_4_n1_opt.xyz,Nucleus 0C :,-4.355684,1.123424,0.370599,155.17,184.07,134.17,147.28,253.89,239.59,229.57,-112.39,-62.83,-82.3,134.17,147.28,184.07,0,49.9,-0.47
df_cut_4_n1_opt.xyz,Nucleus 1C :,-3.211788,0.241502,2.381456,39.3,172.19,-70.88,16.6,235.18,260.37,256.53,-63.48,-330.55,-240.15,-70.88,16.6,172.19,0,243.07,-0.28
df_cut_4_n1_opt.xyz,Nucleus 2C :,-0.733449,0.01944,2.405791,60.59,-42.23,69.57,154.44,266.33,257.24,241.84,-299.01,-196.23,-88.38,-42.23,69.57,154.44,0,196.67,0.14
df_cut_4_n1_opt.xyz,Nucleus 3C :,1.343908,0.40828,-0.61975,67.64,-35.2,68.96,169.15,270.13,257.64,234.46,-293.72,-199.42,-66.19,-35.2,68.96,169.15,0,204.35,0.02
df_cut_4_n1_opt.xyz,Nucleus 4C :,-2.252423,-2.845262,-1.000057,50.7,-62.78,44.33,170.54,231.94,255.89,279.16,-317.83,-234.82,-62.25,-62.78,44.33,170.54,0,233.32,-0.08
df_cut_4_n1_opt.xyz,Nucleus 5C :,-2.119497,-1.440579,-0.434821,67.24,-35.27,67.53,169.45,269.72,258.38,233.52,-294.19,-200.59,-65.14,-35.27,67.53,169.45,0,204.72,0.0
df_cut_4_n1_opt.xyz,Nucleus 6C :,-0.933706,-1.06116,-0.216238,59.34,-45.29,66.76,156.55,267.39,257.19,240.72,-301.74,-199.99,-85.55,-45.29,66.76,156.55,0,201.84,0.11
df_cut_4_n1_opt.xyz,Nucleus 15C :,-3.209874,-0.819015,-0.293313,155.31,191.58,157.04,117.31,253.91,236.42,233.38,-116.33,-81.02,-60.43,117.31,157.04,191.58,0,74.27,0.07
df_cut_4_n1_opt.xyz,Nucleus 16C :,-1.428034,-3.492117,-0.679744,9.68,-96.41,22.27,103.17,216.44,271.19,262.37,-359.7,-247.99,-113.27,-96.41,22.27,103.17,0,199.58,0.19
df_cut_4_n1_opt.xyz,Nucleus 17O :,-3.213046,-3.301478,-0.736404,-191.33,-641.54,141.01,-73.47,445.69,399.96,421.77,-1085.24,-280.39,-475.79,-641.54,-73.47,141.01,0,782.55,0.45
df_cut_4_n1_opt.xyz,Nucleus 18O :,-2.210609,-2.779859,-2.095317,-205.6,-647.23,-52.74,83.17,449.21,390.79,412.57,-1092.88,-447.46,-329.03,-647.23,-52.74,83.17,0,730.4,0.63
df_cut_4_n1_opt_disp_struct_0.xyz,Nucleus 7H :,1.004732,0.618235,0.399603,28.95,34.77,26.11,25.98,45.23,25.03,20.89,-12.23,2.82,5.11,25.98,26.11,34.77,0,8.79,-0.97
df_cut_4_n1_opt_disp_struct_0.xyz,Nucleus 8H :,-0.479139,0.82372,0.426466,28.77,33.33,28.07,24.92,25.31,36.83,34.78,-8.75,-3.51,1.64,24.92,28.07,33.33,0,8.41,-0.25
df_cut_4_n1_opt_disp_struct_0.xyz,Nucleus 9H :,-1.139424,1.29359,-0.715278,25.1,28.97,24.68,21.64,45.19,29.15,30.75,-20.86,-0.25,-8.7,21.64,24.68,28.97,0,7.33,-0.17
df_cut_4_n1_opt_disp_struct_0.xyz,Nucleus 10H :,-2.52968,1.410024,-0.731269,25.03,21.78,27.46,25.84,45.39,32.02,17.22,-20.03,-4.66,5.15,21.78,25.84,27.46,0,5.68,0.43
df_cut_4_n1_opt_disp_struct_0.xyz,Nucleus 11H :,-3.272787,1.055261,0.391918,23.56,25.42,22.69,22.56,10.44,43.17,38.83,12.18,-20.54,-13.42,22.56,22.69,25.42,0,2.86,-0.91
df_cut_4_n1_opt_disp_struct_0.xyz,Nucleus 12H :,-2.626124,0.579825,1.530644,25.07,21.72,27.56,25.92,45.68,32.22,15.54,-20.28,-4.73,6.77,21.72,25.92,27.56,0,5.84,0.44
df_cut_4_n1_opt_disp_struct_0.xyz,Nucleus 13H :,-1.23522,0.460846,1.547455,24.94,28.79,24.47,21.56,45.04,29.72,28.65,-20.95,-0.93,-6.71,21.56,24.47,28.79,0,7.23,-0.2
df_cut_4_n1_opt_disp_struct_0.xyz,Nucleus 14H :,1.55352,1.498202,0.765691,28.92,33.41,28.33,25.02,25.0,37.72,35.01,2.37,-4.31,-9.03,25.02,28.33,33.41,0,8.39,-0.21
df_cut_4_n1_opt_disp_struct_0.xyz,Nucleus 19H :,1.284892,-0.237829,1.022092,30.27,34.62,30.52,25.67,39.09,30.48,21.83,-4.56,0.05,3.92,25.67,30.52,34.62,0,8.95,0.08
df_cut_4_n1_opt_disp_struct_0.xyz,Nucleus 20H :,-0.561879,1.500165,-1.613817,30.27,34.84,30.26,25.7,41.23,23.82,24.51,-6.64,6.25,1.62,25.7,30.26,34.84,0,9.14,-0.0
df_cut_4_n1_opt_disp_struct_0.xyz,Nucleus 21H :,-3.040816,1.720907,-1.638839,30.09,33.53,28.28,28.47,38.46,25.56,27.54,-5.31,0.96,3.08,28.28,28.47,33.53,0,5.25,-0.93
df_cut_4_n1_opt_disp_struct_0.xyz,Nucleus 0C :,-4.355684,1.123424,0.370599,156.96,184.99,135.41,150.47,253.49,240.92,229.81,-112.59,-61.4,-79.36,135.41,150.47,184.99,0,49.58,-0.39
df_cut_4_n1_opt_disp_struct_0.xyz,Nucleus 1C :,-3.211788,0.241502,2.381456,34.69,173.61,-78.48,8.94,236.89,260.5,257.88,-63.56,-338.52,-249.12,-78.48,8.94,173.61,0,252.09,-0.31
df_cut_4_n1_opt_disp_struct_0.xyz,Nucleus 2C :,-0.733449,0.01944,2.405791,51.8,-55.89,55.74,155.54,264.28,256.84,243.4,-312.37,-207.92,-88.83,-55.89,55.74,155.54,0,211.43,0.06
df_cut_4_n1_opt_disp_struct_0.xyz,Nucleus 3C :,1.343908,0.40828,-0.61975,56.67,-51.97,52.29,169.68,268.31,257.03,234.72,-308.81,-215.04,-66.21,-51.97,52.29,169.68,0,221.65,-0.06
df_cut_4_n1_opt_disp_struct_0.xyz,Nucleus 4C :,-2.270767,-3.079382,-1.085798,45.22,-71.65,172.75,34.56,254.48,275.06,232.79,-326.12,-60.04,-240.5,-71.65,34.56,172.75,0,244.4,-0.13
df_cut_4_n1_opt_disp_struct_0.xyz,Nucleus 5C :,-2.13784,-1.674699,-0.520561,56.34,-52.11,51.26,169.88,234.23,268.12,257.73,-309.44,-215.93,-65.68,-52.11,51.26,169.88,0,221.99,-0.07
df_cut_4_n1_opt_disp_struct_0.xyz,Nucleus 6C :,-0.95205,-1.29528,-0.301978,51.12,-57.38,53.21,157.54,265.3,256.38,242.25,-313.23,-211.39,-85.94,-57.38,53.21,157.54,0,214.92,0.03
df_cut_4_n1_opt_disp_struct_0.xyz,Nucleus 15C :,-3.228218,-1.053135,-0.379054,157.5,161.72,191.82,118.96,253.67,235.19,232.39,-113.71,-75.49,-59.57,118.96,161.72,191.82,0,72.86,0.17
df_cut_4_n1_opt_disp_struct_0.xyz,Nucleus 16C :,-1.446378,-3.726236,-0.765484,8.1,-86.05,22.69,87.67,212.44,269.11,261.02,-348.11,-245.38,-124.77,-86.05,22.69,87.67,0,173.72,0.25
df_cut_4_n1_opt_disp_struct_0.xyz,Nucleus 17O :,-3.23139,-3.535598,-0.822144,-128.4,-488.64,177.86,-74.42,439.13,400.67,422.01,-923.27,-243.94,-479.8,-488.64,-74.42,177.86,0,666.5,0.24
df_cut_4_n1_opt_disp_struct_0.xyz,Nucleus 18O :,-2.228953,-3.013979,-2.181057,-143.96,-505.01,134.66,-61.52,439.57,393.55,418.21,-940.69,-458.85,-283.64,-505.01,-61.52,134.66,0,639.67,0.39
df_cut_4_n1_opt_disp_struct_1.xyz,Nucleus 7H :,1.004732,0.618235,0.399603,29.07,34.96,26.01,26.24,45.28,25.5,21.55,-12.28,2.48,4.68,26.01,26.24,34.96,0,8.95,-0.95
df_cut_4_n1_opt_disp_struct_1.xyz,Nucleus 8H :,-0.479139,0.82372,0.426466,28.85,33.45,28.19,24.91,26.03,34.62,37.51,1.08,-3.97,-8.71,24.91,28.19,33.45,0,8.54,-0.23
df_cut_4_n1_opt_disp_struct_1.xyz,Nucleus 9H :,-1.139424,1.29359,-0.715278,24.68,28.69,23.82,21.52,45.29,29.47,31.21,-21.78,-0.85,-9.31,21.52,23.82,28.69,0,7.17,-0.36
df_cut_4_n1_opt_disp_struct_1.xyz,Nucleus 10H :,-2.52968,1.410024,-0.731269,24.62,21.68,27.25,24.94,45.5,31.39,16.61,-20.88,-4.27,5.51,21.68,24.94,27.25,0,5.57,0.17
df_cut_4_n1_opt_disp_struct_1.xyz,Nucleus 11H :,-3.272787,1.055261,0.391918,23.8,23.04,22.31,26.06,9.31,43.46,36.39,13.02,-20.43,-10.33,22.31,23.04,26.06,0,3.75,-0.61
df_cut_4_n1_opt_disp_struct_1.xyz,Nucleus 12H :,-2.626124,0.579825,1.530644,24.63,21.63,27.29,24.96,45.8,31.4,14.93,-21.18,-4.19,7.13,21.63,24.96,27.29,0,5.66,0.17
df_cut_4_n1_opt_disp_struct_1.xyz,Nucleus 13H :,-1.23522,0.460846,1.547455,24.58,28.56,23.69,21.48,45.12,29.88,29.12,-21.74,-1.3,-7.36,21.48,23.69,28.56,0,7.08,-0.38
df_cut_4_n1_opt_disp_struct_1.xyz,Nucleus 14H :,1.55352,1.498202,0.765691,28.98,33.53,28.42,25.0,25.8,34.96,38.31,1.68,-4.67,-9.12,25.0,28.42,33.53,0,8.53,-0.2
df_cut_4_n1_opt_disp_struct_1.xyz,Nucleus 19H :,1.284892,-0.237829,1.022092,30.34,34.63,30.44,25.96,38.98,29.86,21.39,-4.41,0.58,4.63,25.96,30.44,34.63,0,8.67,0.03
df_cut_4_n1_opt_disp_struct_1.xyz,Nucleus 20H :,-0.561879,1.500165,-1.613817,30.34,34.8,30.21,26.02,41.08,23.8,22.57,-6.46,6.73,3.3,26.02,30.21,34.8,0,8.78,-0.04
df_cut_4_n1_opt_disp_struct_1.xyz,Nucleus 21H :,-3.040816,1.720907,-1.638839,30.02,33.34,28.06,28.67,38.36,26.65,25.17,-5.3,1.74,3.46,28.06,28.67,33.34,0,5.28,-0.77
df_cut_4_n1_opt_disp_struct_1.xyz,Nucleus 0C :,-4.355684,1.123424,0.370599,158.13,185.7,136.25,152.43,253.23,241.74,230.55,-112.57,-60.43,-78.14,136.25,152.43,185.7,0,49.45,-0.35
df_cut_4_n1_opt_disp_struct_1.xyz,Nucleus 1C :,-3.211788,0.241502,2.381456,33.86,174.2,-79.57,6.96,238.25,260.21,258.6,-64.23,-339.44,-251.81,-79.57,6.96,174.2,0,253.77,-0.32
df_cut_4_n1_opt_disp_struct_1.xyz,Nucleus 2C :,-0.733449,0.01944,2.405791,47.65,-62.52,49.06,156.41,263.72,257.03,243.87,-319.52,-213.54,-88.62,-62.52,49.06,156.41,0,218.93,0.02
df_cut_4_n1_opt_disp_struct_1.xyz,Nucleus 3C :,1.343908,0.40828,-0.61975,51.37,-60.89,44.51,170.49,233.68,266.67,257.57,-317.54,-221.42,-64.84,-60.89,44.51,170.49,0,231.38,-0.09
df_cut_4_n1_opt_disp_struct_1.xyz,Nucleus 4C :,-2.289111,-3.313502,-1.171538,44.61,-72.35,173.95,32.23,230.88,254.8,271.66,-326.39,-57.69,-239.43,-72.35,32.23,173.95,0,246.3,-0.15
df_cut_4_n1_opt_disp_struct_1.xyz,Nucleus 5C :,-2.156184,-1.908819,-0.606302,51.04,-61.17,43.62,170.66,233.49,266.46,258.21,-318.34,-222.14,-64.56,-61.17,43.62,170.66,0,231.83,-0.1
df_cut_4_n1_opt_disp_struct_1.xyz,Nucleus 6C :,-0.970394,-1.5294,-0.387718,47.33,-63.14,46.75,158.37,264.57,256.37,242.63,-319.4,-216.53,-85.67,-63.14,46.75,158.37,0,221.51,-0.01
df_cut_4_n1_opt_disp_struct_1.xyz,Nucleus 15C :,-3.246562,-1.287255,-0.464794,158.55,164.17,191.81,119.68,253.32,233.42,230.6,-111.17,-71.64,-58.86,119.68,164.17,191.81,0,72.13,0.23
df_cut_4_n1_opt_disp_struct_1.xyz,Nucleus 16C :,-1.464722,-3.960356,-0.851224,5.86,-83.45,23.17,77.85,210.26,267.76,260.16,-344.67,-243.51,-132.41,-83.45,23.17,77.85,0,161.3,0.32
df_cut_4_n1_opt_disp_struct_1.xyz,Nucleus 17O :,-3.249734,-3.769717,-0.907885,-83.62,-382.68,-70.98,202.79,400.6,433.63,420.99,-807.76,-480.17,-218.16,-382.68,-70.98,202.79,0,585.47,0.06
df_cut_4_n1_opt_disp_struct_1.xyz,Nucleus 18O :,-2.247297,-3.248099,-2.266798,-98.31,-401.44,171.99,-65.49,395.96,431.91,417.94,-828.19,-246.5,-466.06,-401.44,-65.49,171.99,0,573.43,0.17
df_cut_4_n1_opt_disp_struct_10.xyz,Nucleus 7H :,1.004732,0.618235,0.399603,28.99,34.81,25.69,26.46,44.75,25.71,23.13,-11.79,1.84,3.32,25.69,26.46,34.81,0,9.12,-0.83
df_cut_4_n1_opt_disp_struct_10.xyz,Nucleus 8H :,-0.479139,0.82372,0.426466,28.92,33.89,28.42,24.45,39.82,33.02,27.84,-0.18,-5.36,-8.38,24.45,28.42,33.89,0,9.44,-0.16
df_cut_4_n1_opt_disp_struct_10.xyz,Nucleus 9H :,-1.139424,1.29359,-0.715278,23.95,28.5,22.18,21.18,45.89,31.29,30.68,-23.69,-2.64,-9.67,21.18,22.18,28.5,0,7.32,-0.73
df_cut_4_n1_opt_disp_struct_10.xyz,Nucleus 10H :,-2.52968,1.410024,-0.731269,23.94,27.13,23.47,21.21,45.78,30.02,16.18,-22.31,-2.92,5.05,21.21,23.47,27.13,0,5.92,-0.24
df_cut_4_n1_opt_disp_struct_10.xyz,Nucleus 11H :,-3.272787,1.055261,0.391918,24.04,21.42,23.69,27.02,8.33,43.86,31.44,-20.18,13.09,-4.42,21.42,23.69,27.02,0,5.6,-0.19
df_cut_4_n1_opt_disp_struct_10.xyz,Nucleus 12H :,-2.626124,0.579825,1.530644,23.91,27.11,23.43,21.2,45.98,29.76,14.53,-22.55,-2.66,6.68,21.2,23.43,27.11,0,5.91,-0.24
df_cut_4_n1_opt_disp_struct_10.xyz,Nucleus 13H :,-1.23522,0.460846,1.547455,23.94,28.43,22.22,21.17,45.75,31.04,29.09,-23.49,-2.59,-7.97,21.17,22.22,28.43,0,7.26,-0.71
df_cut_4_n1_opt_disp_struct_10.xyz,Nucleus 14H :,1.55352,1.498202,0.765691,28.98,33.88,28.58,24.48,40.19,33.43,27.86,-0.04,-5.72,-8.79,24.48,28.58,33.88,0,9.4,-0.13
df_cut_4_n1_opt_disp_struct_10.xyz,Nucleus 19H :,1.284892,-0.237829,1.022092,30.21,34.08,30.12,26.44,38.98,26.57,18.41,-4.99,3.56,8.11,26.44,30.12,34.08,0,7.64,-0.04
df_cut_4_n1_opt_disp_struct_10.xyz,Nucleus 20H :,-0.561879,1.500165,-1.613817,30.21,34.13,30.03,26.46,40.06,22.42,16.2,-5.94,7.6,10.29,26.46,30.03,34.13,0,7.67,-0.07
df_cut_4_n1_opt_disp_struct_10.xyz,Nucleus 21H :,-3.040816,1.720907,-1.638839,29.76,32.4,27.97,28.91,37.56,26.1,20.65,-5.33,2.0,8.3,27.97,28.91,32.4,0,4.43,-0.58
df_cut_4_n1_opt_disp_struct_10.xyz,Nucleus 0C :,-4.355684,1.123424,0.370599,160.21,187.12,137.8,155.72,251.91,244.04,234.99,-109.03,-61.97,-79.29,137.8,155.72,187.12,0,49.32,-0.27
df_cut_4_n1_opt_disp_struct_10.xyz,Nucleus 1C :,-3.211788,0.241502,2.381456,35.44,174.71,-75.25,6.87,238.21,261.05,264.71,-63.59,-336.22,-257.82,-75.25,6.87,174.71,0,249.96,-0.34
df_cut_4_n1_opt_disp_struct_10.xyz,Nucleus 2C :,-0.733449,0.01944,2.405791,44.5,-66.72,41.41,158.82,267.44,259.73,243.89,-326.38,-225.65,-85.53,-66.72,41.41,158.82,0,225.54,-0.04
df_cut_4_n1_opt_disp_struct_10.xyz,Nucleus 3C :,1.343908,0.40828,-0.61975,46.38,-69.41,35.54,173.0,231.92,267.12,258.77,-327.54,-231.35,-59.79,-69.41,35.54,173.0,0,242.41,-0.13
df_cut_4_n1_opt_disp_struct_10.xyz,Nucleus 4C :,-2.454205,-5.42058,-1.943202,49.24,-65.09,175.85,36.96,224.18,257.33,267.35,-50.58,-320.18,-230.38,-65.09,36.96,175.85,0,240.94,-0.15
df_cut_4_n1_opt_disp_struct_10.xyz,Nucleus 5C :,-2.321278,-4.015897,-1.377966,46.21,-69.67,35.15,173.15,231.63,266.82,259.13,-328.22,-231.45,-59.29,-69.67,35.15,173.15,0,242.82,-0.14
df_cut_4_n1_opt_disp_struct_10.xyz,Nucleus 6C :,-1.135488,-3.636478,-1.159382,44.99,-65.9,40.29,160.57,267.55,259.24,242.93,-325.05,-226.76,-82.96,-65.9,40.29,160.57,0,226.47,-0.06
df_cut_4_n1_opt_disp_struct_10.xyz,Nucleus 15C :,-3.411656,-3.394333,-1.236458,159.44,120.92,167.01,190.38,251.19,229.92,224.14,-103.67,-65.3,-57.97,120.92,167.01,190.38,0,69.46,0.33
df_cut_4_n1_opt_disp_struct_10.xyz,Nucleus 16C :,-1.629816,-6.067434,-1.622888,2.8,-86.71,27.88,67.23,206.28,267.28,255.73,-342.45,-239.39,-139.07,-86.71,27.88,67.23,0,153.94,0.49
df_cut_4_n1_opt_disp_struct_10.xyz,Nucleus 17O :,-3.414828,-5.876796,-1.679549,-26.89,-261.86,-37.08,218.26,399.7,426.18,431.89,-676.24,-451.03,-211.18,-261.86,-37.08,218.26,0,480.12,-0.06
df_cut_4_n1_opt_disp_struct_10.xyz,Nucleus 18O :,-2.412391,-5.355177,-3.038461,-29.94,-267.03,-40.62,217.83,428.43,396.07,403.56,-682.38,-449.16,-186.35,-267.03,-40.62,217.83,0,484.86,-0.07
df_cut_4_n1_opt_disp_struct_11.xyz,Nucleus 7H :,1.004732,0.618235,0.399603,28.97,34.78,25.67,26.46,44.68,25.66,23.1,-11.72,1.83,3.35,25.67,26.46,34.78,0,9.11,-0.83
df_cut_4_n1_opt_disp_struct_11.xyz,Nucleus 8H :,-0.479139,0.82372,0.426466,28.92,33.92,28.44,24.4,39.86,32.93,27.85,-0.17,-5.37,-8.34,24.4,28.44,33.92,0,9.52,-0.15
df_cut_4_n1_opt_disp_struct_11.xyz,Nucleus 9H :,-1.139424,1.29359,-0.715278,23.94,28.51,22.17,21.13,45.84,31.27,30.6,-23.65,-2.63,-9.61,21.13,22.17,28.51,0,7.38,-0.72
df_cut_4_n1_opt_disp_struct_11.xyz,Nucleus 10H :,-2.52968,1.410024,-0.731269,23.92,27.13,23.46,21.17,45.72,30.05,16.21,-22.27,-2.93,4.98,21.17,23.46,27.13,0,5.96,-0.23
df_cut_4_n1_opt_disp_struct_11.xyz,Nucleus 11H :,-3.272787,1.055261,0.391918,24.04,23.7,21.37,27.04,8.45,43.86,31.48,-20.18,12.93,-4.45,21.37,23.7,27.04,0,5.67,-0.18
df_cut_4_n1_opt_disp_struct_11.xyz,Nucleus 12H :,-2.626124,0.579825,1.530644,23.9,27.12,23.42,21.16,45.92,29.81,14.58,-22.5,-2.7,6.59,21.16,23.42,27.12,0,5.96,-0.24
df_cut_4_n1_opt_disp_struct_11.xyz,Nucleus 13H :,-1.23522,0.460846,1.547455,23.93,28.44,22.22,21.12,45.7,31.05,29.01,-23.45,-2.59,-7.94,21.12,22.22,28.44,0,7.32,-0.7
df_cut_4_n1_opt_disp_struct_11.xyz,Nucleus 14H :,1.55352,1.498202,0.765691,28.98,33.91,28.6,24.44,40.21,33.34,27.89,-0.05,-5.72,-8.72,24.44,28.6,33.91,0,9.47,-0.12
df_cut_4_n1_opt_disp_struct_11.xyz,Nucleus 19H :,1.284892,-0.237829,1.022092,30.2,34.05,30.1,26.46,39.04,26.39,18.15,-5.09,3.72,8.39,26.46,30.1,34.05,0,7.59,-0.04
df_cut_4_n1_opt_disp_struct_11.xyz,Nucleus 20H :,-0.561879,1.500165,-1.613817,30.2,34.09,30.02,26.48,40.03,22.38,15.8,-5.96,7.63,10.7,26.48,30.02,34.09,0,7.61,-0.07
df_cut_4_n1_opt_disp_struct_11.xyz,Nucleus 21H :,-3.040816,1.720907,-1.638839,29.75,32.35,27.99,28.9,37.54,26.3,20.24,-5.37,1.82,8.7,27.99,28.9,32.35,0,4.36,-0.58
df_cut_4_n1_opt_disp_struct_11.xyz,Nucleus 0C :,-4.355684,1.123424,0.370599,160.24,187.16,137.79,155.78,251.98,244.0,235.21,-108.74,-62.27,-79.46,137.79,155.78,187.16,0,49.37,-0.27
df_cut_4_n1_opt_disp_struct_11.xyz,Nucleus 1C :,-3.211788,0.241502,2.381456,35.38,174.73,-75.2,6.61,238.07,261.29,265.08,-63.45,-336.4,-258.45,-75.2,6.61,174.73,0,249.93,-0.35
df_cut_4_n1_opt_disp_struct_11.xyz,Nucleus 2C :,-0.733449,0.01944,2.405791,44.5,-66.66,41.25,158.91,267.77,259.7,243.76,-326.29,-226.18,-85.27,-66.66,41.25,158.91,0,225.57,-0.04
df_cut_4_n1_opt_disp_struct_11.xyz,Nucleus 3C :,1.343908,0.40828,-0.61975,46.33,-69.42,35.34,173.08,231.89,267.45,258.69,-327.56,-231.91,-59.56,-69.42,35.34,173.08,0,242.5,-0.14
df_cut_4_n1_opt_disp_struct_11.xyz,Nucleus 4C :,-2.472549,-5.6547,-2.028942,49.32,-64.95,175.9,37.02,224.59,257.26,267.78,-50.6,-320.31,-230.76,-64.95,37.02,175.9,0,240.85,-0.15
df_cut_4_n1_opt_disp_struct_11.xyz,Nucleus 5C :,-2.339622,-4.250017,-1.463706,46.18,-69.66,34.97,173.23,231.59,267.18,259.04,-328.21,-232.01,-59.04,-69.66,34.97,173.23,0,242.89,-0.14
df_cut_4_n1_opt_disp_struct_11.xyz,Nucleus 6C :,-1.153832,-3.870598,-1.245123,45.0,-65.82,40.18,160.65,267.89,259.26,242.84,-324.98,-227.28,-82.73,-65.82,40.18,160.65,0,226.47,-0.06
df_cut_4_n1_opt_disp_struct_11.xyz,Nucleus 15C :,-3.429999,-3.628453,-1.322199,159.43,120.89,167.1,190.29,251.14,230.36,224.35,-103.99,-65.42,-58.16,120.89,167.1,190.29,0,69.4,0.33
df_cut_4_n1_opt_disp_struct_11.xyz,Nucleus 16C :,-1.64816,-6.301554,-1.708629,2.75,-86.91,27.98,67.19,205.58,267.32,255.43,-342.33,-239.34,-138.4,-86.91,27.98,67.19,0,154.1,0.49
df_cut_4_n1_opt_disp_struct_11.xyz,Nucleus 17O :,-3.433171,-6.110916,-1.765289,-27.3,-262.84,-37.49,218.44,399.67,426.68,433.05,-678.1,-451.07,-212.12,-262.84,-37.49,218.44,0,481.28,-0.06
df_cut_4_n1_opt_disp_struct_11.xyz,Nucleus 18O :,-2.430734,-5.589297,-3.124202,-29.82,-267.11,-40.59,218.25,429.27,395.91,403.13,-683.05,-449.25,-185.47,-267.11,-40.59,218.25,0,485.36,-0.07
df_cut_4_n1_opt_disp_struct_12.xyz,Nucleus 7H :,1.004732,0.618235,0.399603,28.95,34.74,25.65,26.45,44.61,25.62,23.06,-11.65,1.83,3.38,25.65,26.45,34.74,0,9.09,-0.83
df_cut_4_n1_opt_disp_struct_12.xyz,Nucleus 8H :,-0.479139,0.82372,0.426466,28.93,33.95,28.46,24.37,39.89,32.86,27.85,-0.15,-5.38,-8.29,24.37,28.46,33.95,0,9.58,-0.15
df_cut_4_n1_opt_disp_struct_12.xyz,Nucleus 9H :,-1.139424,1.29359,-0.715278,23.92,28.52,22.16,21.09,45.78,31.24,30.53,-23.61,-2.61,-9.56,21.09,22.16,28.52,0,7.43,-0.71
df_cut_4_n1_opt_disp_struct_12.xyz,Nucleus 10H :,-2.52968,1.410024,-0.731269,23.91,27.14,23.45,21.13,45.67,30.07,16.23,-22.22,-2.94,4.91,21.13,23.45,27.14,0,6.01,-0.23
df_cut_4_n1_opt_disp_struct_12.xyz,Nucleus 11H :,-3.272787,1.055261,0.391918,24.03,23.7,21.33,27.05,8.54,43.86,31.51,-20.17,12.8,-4.46,21.33,23.7,27.05,0,5.72,-0.17
df_cut_4_n1_opt_disp_struct_12.xyz,Nucleus 12H :,-2.626124,0.579825,1.530644,23.89,27.13,23.42,21.12,45.86,29.84,14.61,-22.44,-2.72,6.51,21.12,23.42,27.13,0,6.01,-0.23
df_cut_4_n1_opt_disp_struct_12.xyz,Nucleus 13H :,-1.23522,0.460846,1.547455,23.91,28.45,22.21,21.08,45.65,31.05,28.95,-23.41,-2.58,-7.91,21.08,22.21,28.45,0,7.37,-0.69
df_cut_4_n1_opt_disp_struct_12.xyz,Nucleus 14H :,1.55352,1.498202,0.765691,28.98,33.93,28.61,24.4,40.21,33.25,27.9,-0.04,-5.72,-8.65,24.4,28.61,33.93,0,9.53,-0.12
df_cut_4_n1_opt_disp_struct_12.xyz,Nucleus 19H :,1.284892,-0.237829,1.022092,30.19,34.01,30.08,26.47,39.09,26.2,17.82,-5.18,3.91,8.74,26.47,30.08,34.01,0,7.54,-0.04
df_cut_4_n1_opt_disp_struct_12.xyz,Nucleus 20H :,-0.561879,1.500165,-1.613817,30.18,34.05,30.01,26.49,39.99,22.31,15.37,-5.96,7.69,11.14,26.49,30.01,34.05,0,7.56,-0.07
df_cut_4_n1_opt_disp_struct_12.xyz,Nucleus 21H :,-3.040816,1.720907,-1.638839,29.73,28.01,28.89,32.3,37.51,26.46,19.8,-5.4,1.67,9.15,28.01,28.89,32.3,0,4.29,-0.59
df_cut_4_n1_opt_disp_struct_12.xyz,Nucleus 0C :,-4.355684,1.123424,0.370599,160.26,187.19,137.77,155.82,252.07,243.94,235.39,-108.47,-62.55,-79.59,137.77,155.82,187.19,0,49.42,-0.27
df_cut_4_n1_opt_disp_struct_12.xyz,Nucleus 1C :,-3.211788,0.241502,2.381456,35.31,174.73,-75.17,6.36,237.95,261.45,265.39,-63.33,-336.54,-259.01,-75.17,6.36,174.73,0,249.9,-0.35
df_cut_4_n1_opt_disp_struct_12.xyz,Nucleus 2C :,-0.733449,0.01944,2.405791,44.49,-66.62,41.11,158.99,268.05,259.67,243.64,-326.23,-226.62,-85.04,-66.62,41.11,158.99,0,225.61,-0.04
df_cut_4_n1_opt_disp_struct_12.xyz,Nucleus 3C :,1.343908,0.40828,-0.61975,46.31,-69.42,35.17,173.17,231.86,267.73,258.61,-327.56,-232.38,-59.35,-69.42,35.17,173.17,0,242.59,-0.14
df_cut_4_n1_opt_disp_struct_12.xyz,Nucleus 4C :,-2.490892,-5.88882,-2.114683,49.39,-64.85,175.96,37.05,224.91,257.21,268.12,-50.6,-320.43,-231.08,-64.85,37.05,175.96,0,240.81,-0.15
df_cut_4_n1_opt_disp_struct_12.xyz,Nucleus 5C :,-2.357965,-4.484137,-1.549446,46.15,-69.66,34.81,173.31,231.53,267.48,258.96,-328.2,-232.48,-58.82,-69.66,34.81,173.31,0,242.97,-0.14
df_cut_4_n1_opt_disp_struct_12.xyz,Nucleus 6C :,-1.172175,-4.104718,-1.330863,45.01,-65.76,40.08,160.71,268.18,259.26,242.76,-324.93,-227.71,-82.53,-65.76,40.08,160.71,0,226.47,-0.07
df_cut_4_n1_opt_disp_struct_12.xyz,Nucleus 15C :,-3.448343,-3.862573,-1.407939,159.42,120.86,167.19,190.22,251.11,230.56,224.33,-104.08,-65.39,-58.27,120.86,167.19,190.22,0,69.36,0.34
df_cut_4_n1_opt_disp_struct_12.xyz,Nucleus 16C :,-1.666503,-6.535674,-1.794369,2.7,-87.09,28.04,67.14,204.99,267.43,255.18,-342.26,-239.39,-137.87,-87.09,28.04,67.14,0,154.23,0.49
df_cut_4_n1_opt_disp_struct_12.xyz,Nucleus 17O :,-3.451515,-6.345035,-1.85103,-27.65,-263.79,-37.9,218.75,399.61,427.11,434.19,-679.8,-451.15,-212.91,-263.79,-37.9,218.75,0,482.54,-0.06
df_cut_4_n1_opt_disp_struct_12.xyz,Nucleus 18O :,-2.449078,-5.823417,-3.209942,-29.77,-267.33,-40.67,218.69,430.0,395.77,402.94,-683.77,-449.39,-184.86,-267.33,-40.67,218.69,0,486.02,-0.07
df_cut_4_n1_opt_disp_struct_13.xyz,Nucleus 7H :,1.004732,0.618235,0.399603,28.93,34.71,25.63,26.44,44.55,25.58,23.02,-11.59,1.82,3.41,25.63,26.44,34.71,0,9.08,-0.82
df_cut_4_n1_opt_disp_struct_13.xyz,Nucleus 8H :,-0.479139,0.82372,0.426466,28.93,33.98,28.48,24.34,39.92,32.79,27.84,-0.13,-5.38,-8.25,24.34,28.48,33.98,0,9.64,-0.14
df_cut_4_n1_opt_disp_struct_13.xyz,Nucleus 9H :,-1.139424,1.29359,-0.715278,23.91,28.53,22.16,21.05,45.74,31.2,30.47,-23.57,-2.59,-9.52,21.05,22.16,28.53,0,7.48,-0.7
df_cut_4_n1_opt_disp_struct_13.xyz,Nucleus 10H :,-2.52968,1.410024,-0.731269,23.9,27.15,23.45,21.09,45.62,30.09,16.25,-22.17,-2.95,4.86,21.09,23.45,27.15,0,6.06,-0.22
df_cut_4_n1_opt_disp_struct_13.xyz,Nucleus 11H :,-3.272787,1.055261,0.391918,24.02,23.71,21.29,27.06,8.61,43.86,31.52,-20.17,12.69,-4.46,21.29,23.71,27.06,0,5.77,-0.16
df_cut_4_n1_opt_disp_struct_13.xyz,Nucleus 12H :,-2.626124,0.579825,1.530644,23.88,27.14,23.42,21.08,45.81,29.87,14.64,-22.39,-2.74,6.44,21.08,23.42,27.14,0,6.06,-0.23
df_cut_4_n1_opt_disp_struct_13.xyz,Nucleus 13H :,-1.23522,0.460846,1.547455,23.91,28.46,22.22,21.04,45.61,31.04,28.89,-23.38,-2.57,-7.89,21.04,22.22,28.46,0,7.42,-0.68
df_cut_4_n1_opt_disp_struct_13.xyz,Nucleus 14H :,1.55352,1.498202,0.765691,28.99,33.96,28.63,24.37,40.21,33.17,27.91,-0.04,-5.71,-8.59,24.37,28.63,33.96,0,9.59,-0.11
df_cut_4_n1_opt_disp_struct_13.xyz,Nucleus 19H :,1.284892,-0.237829,1.022092,30.18,33.98,30.07,26.49,39.12,25.98,17.41,-5.25,4.11,9.16,26.49,30.07,33.98,0,7.49,-0.04
df_cut_4_n1_opt_disp_struct_13.xyz,Nucleus 20H :,-0.561879,1.500165,-1.613817,30.17,34.01,30.0,26.5,39.94,22.22,14.92,-5.95,7.78,11.61,26.5,30.0,34.01,0,7.51,-0.07
df_cut_4_n1_opt_disp_struct_13.xyz,Nucleus 21H :,-3.040816,1.720907,-1.638839,29.72,28.02,28.88,32.26,37.47,26.59,19.31,9.65,1.56,-5.41,28.02,28.88,32.26,0,4.24,-0.59
df_cut_4_n1_opt_disp_struct_13.xyz,Nucleus 0C :,-4.355684,1.123424,0.370599,160.27,187.22,137.75,155.85,252.17,243.86,235.55,-108.24,-62.8,-79.72,137.75,155.85,187.22,0,49.47,-0.27
df_cut_4_n1_opt_disp_struct_13.xyz,Nucleus 1C :,-3.211788,0.241502,2.381456,35.23,174.73,-75.16,6.13,237.84,261.56,265.65,-63.22,-336.63,-259.5,-75.16,6.13,174.73,0,249.89,-0.35
df_cut_4_n1_opt_disp_struct_13.xyz,Nucleus 2C :,-0.733449,0.01944,2.405791,44.49,-66.58,40.99,159.05,268.29,259.65,243.54,-326.18,-227.0,-84.85,-66.58,40.99,159.05,0,225.63,-0.05
df_cut_4_n1_opt_disp_struct_13.xyz,Nucleus 3C :,1.343908,0.40828,-0.61975,46.27,-69.43,35.02,173.23,231.82,267.96,258.55,-327.56,-232.78,-59.16,-69.43,35.02,173.23,0,242.66,-0.14
df_cut_4_n1_opt_disp_struct_13.xyz,Nucleus 4C :,-2.509236,-6.12294,-2.200423,49.43,-64.77,176.0,37.06,225.16,257.19,268.41,-50.6,-320.52,-231.34,-64.77,37.06,176.0,0,240.77,-0.15
df_cut_4_n1_opt_disp_struct_13.xyz,Nucleus 5C :,-2.376309,-4.718256,-1.635187,46.13,-69.65,34.68,173.37,231.48,267.73,258.89,-328.18,-232.88,-58.62,-69.65,34.68,173.37,0,243.02,-0.14
df_cut_4_n1_opt_disp_struct_13.xyz,Nucleus 6C :,-1.190519,-4.338837,-1.416603,45.02,-65.71,39.99,160.77,268.42,259.27,242.69,-324.89,-228.07,-82.36,-65.71,39.99,160.77,0,226.48,-0.07
df_cut_4_n1_opt_disp_struct_13.xyz,Nucleus 15C :,-3.466687,-4.096693,-1.493679,159.41,120.82,167.26,190.15,251.07,230.52,224.04,-103.88,-65.2,-58.31,120.82,167.26,190.15,0,69.33,0.34
df_cut_4_n1_opt_disp_struct_13.xyz,Nucleus 16C :,-1.684847,-6.769794,-1.88011,2.64,-87.24,28.07,67.1,204.52,267.6,254.98,-342.21,-239.53,-137.44,-87.24,28.07,67.1,0,154.34,0.49
df_cut_4_n1_opt_disp_struct_13.xyz,Nucleus 17O :,-3.469859,-6.579155,-1.93677,-27.89,-264.54,-38.25,219.11,399.53,427.47,435.28,-681.14,-451.19,-213.63,-264.54,-38.25,219.11,0,483.65,-0.06
df_cut_4_n1_opt_disp_struct_13.xyz,Nucleus 18O :,-2.467422,-6.057537,-3.295683,-29.72,-267.54,-40.76,219.14,430.62,395.67,403.08,-684.39,-449.53,-184.61,-267.54,-40.76,219.14,0,486.68,-0.07
df_cut_4_n1_opt_disp_struct_14.xyz,Nucleus 7H :,1.004732,0.618235,0.399603,28.91,34.69,25.61,26.44,44.49,25.55,22.99,-11.53,1.81,3.44,25.61,26.44,34.69,0,9.08,-0.82
df_cut_4_n1_opt_disp_struct_14.xyz,Nucleus 8H :,-0.479139,0.82372,0.426466,28.94,34.01,28.5,24.31,39.94,32.73,27.83,-0.11,-5.37,-8.21,24.31,28.5,34.01,0,9.7,-0.14
df_cut_4_n1_opt_disp_struct_14.xyz,Nucleus 9H :,-1.139424,1.29359,-0.715278,23.9,28.54,22.16,21.01,45.69,31.18,30.42,-23.53,-2.57,-9.48,21.01,22.16,28.54,0,7.53,-0.69
df_cut_4_n1_opt_disp_struct_14.xyz,Nucleus 10H :,-2.52968,1.410024,-0.731269,23.89,27.16,23.45,21.06,45.58,30.1,16.26,-22.13,-2.95,4.81,21.06,23.45,27.16,0,6.1,-0.22
df_cut_4_n1_opt_disp_struct_14.xyz,Nucleus 11H :,-3.272787,1.055261,0.391918,24.01,23.71,21.25,27.08,8.67,43.87,31.52,-20.17,12.6,-4.45,21.25,23.71,27.08,0,5.83,-0.15
df_cut_4_n1_opt_disp_struct_14.xyz,Nucleus 12H :,-2.626124,0.579825,1.530644,23.87,27.14,23.42,21.05,45.76,29.89,14.67,-22.34,-2.75,6.38,21.05,23.42,27.14,0,6.09,-0.22
df_cut_4_n1_opt_disp_struct_14.xyz,Nucleus 13H :,-1.23522,0.460846,1.547455,23.9,28.47,22.22,21.0,45.57,31.03,28.85,-23.34,-2.55,-7.87,21.0,22.22,28.47,0,7.47,-0.67
df_cut_4_n1_opt_disp_struct_14.xyz,Nucleus 14H :,1.55352,1.498202,0.765691,28.99,33.98,28.64,24.34,40.21,33.1,27.91,-0.03,-5.7,-8.53,24.34,28.64,33.98,0,9.64,-0.11
df_cut_4_n1_opt_disp_struct_14.xyz,Nucleus 19H :,1.284892,-0.237829,1.022092,30.17,33.96,30.05,26.5,39.13,25.76,16.95,-5.3,4.34,9.64,26.5,30.05,33.96,0,7.46,-0.05
df_cut_4_n1_opt_disp_struct_14.xyz,Nucleus 20H :,-0.561879,1.500165,-1.613817,30.16,33.98,29.99,26.51,39.88,22.1,14.43,-5.92,7.89,12.11,26.51,29.99,33.98,0,7.47,-0.07
df_cut_4_n1_opt_disp_struct_14.xyz,Nucleus 21H :,-3.040816,1.720907,-1.638839,29.71,28.04,28.88,32.22,37.43,26.66,18.78,10.2,1.49,-5.42,28.04,28.88,32.22,0,4.18,-0.6
df_cut_4_n1_opt_disp_struct_14.xyz,Nucleus 0C :,-4.355684,1.123424,0.370599,160.28,187.24,137.73,155.87,252.26,243.77,235.68,-108.02,-63.03,-79.82,137.73,155.87,187.24,0,49.51,-0.27
df_cut_4_n1_opt_disp_struct_14.xyz,Nucleus 1C :,-3.211788,0.241502,2.381456,35.17,174.73,-75.15,5.92,237.73,261.62,265.86,-63.11,-336.68,-259.93,-75.15,5.92,174.73,0,249.88,-0.35
df_cut_4_n1_opt_disp_struct_14.xyz,Nucleus 2C :,-0.733449,0.01944,2.405791,44.48,-66.55,40.89,159.1,268.49,259.65,243.46,-326.15,-227.31,-84.69,-66.55,40.89,159.1,0,225.65,-0.05
df_cut_4_n1_opt_disp_struct_14.xyz,Nucleus 3C :,1.343908,0.40828,-0.61975,46.25,-69.43,34.9,173.29,231.78,268.16,258.5,-327.56,-233.11,-59.0,-69.43,34.9,173.29,0,242.72,-0.14
df_cut_4_n1_opt_disp_struct_14.xyz,Nucleus 4C :,-2.52758,-6.35706,-2.286164,49.47,-64.71,176.04,37.07,225.36,257.18,268.64,-50.6,-320.61,-231.57,-64.71,37.07,176.04,0,240.75,-0.15
df_cut_4_n1_opt_disp_struct_14.xyz,Nucleus 5C :,-2.394653,-4.952376,-1.720927,46.12,-69.64,34.58,173.43,231.42,267.95,258.83,-328.17,-233.22,-58.45,-69.64,34.58,173.43,0,243.07,-0.14
df_cut_4_n1_opt_disp_struct_14.xyz,Nucleus 6C :,-1.208863,-4.572957,-1.502344,45.02,-65.66,39.92,160.81,268.63,259.28,242.62,-324.87,-228.37,-82.22,-65.66,39.92,160.81,0,226.47,-0.07
df_cut_4_n1_opt_disp_struct_14.xyz,Nucleus 15C :,-3.485031,-4.330813,-1.57942,159.39,120.79,167.3,190.09,251.03,230.25,223.49,-103.41,-64.88,-58.29,120.79,167.3,190.09,0,69.3,0.34
df_cut_4_n1_opt_disp_struct_14.xyz,Nucleus 16C :,-1.703191,-7.003914,-1.96585,2.59,-87.38,28.08,67.07,204.13,267.84,254.82,-342.19,-239.75,-137.07,-87.38,28.08,67.07,0,154.45,0.5
df_cut_4_n1_opt_disp_struct_14.xyz,Nucleus 17O :,-3.488203,-6.813275,-2.02251,-28.05,-265.08,-38.54,219.47,399.44,427.75,436.36,-682.13,-451.22,-214.36,-265.08,-38.54,219.47,0,484.55,-0.06
df_cut_4_n1_opt_disp_struct_14.xyz,Nucleus 18O :,-2.485766,-6.291656,-3.381423,-29.67,-267.71,-40.86,219.56,431.12,395.6,403.57,-684.86,-449.66,-184.78,-267.71,-40.86,219.56,0,487.27,-0.07
df_cut_4_n1_opt_disp_struct_15.xyz,Nucleus 7H :,1.004732,0.618235,0.399603,28.91,34.67,25.62,26.44,44.44,25.53,22.96,-11.47,1.8,3.47,25.62,26.44,34.67,0,9.05,-0.82
df_cut_4_n1_opt_disp_struct_15.xyz,Nucleus 8H :,-0.479139,0.82372,0.426466,28.94,34.02,28.51,24.3,39.95,32.68,27.82,-0.09,-5.36,-8.17,24.3,28.51,34.02,0,9.72,-0.13
df_cut_4_n1_opt_disp_struct_15.xyz,Nucleus 9H :,-1.139424,1.29359,-0.715278,23.9,28.54,22.17,20.99,45.65,31.16,30.38,-23.5,-2.55,-9.44,20.99,22.17,28.54,0,7.55,-0.69
df_cut_4_n1_opt_disp_struct_15.xyz,Nucleus 10H :,-2.52968,1.410024,-0.731269,23.87,27.16,23.45,21.01,45.53,30.1,16.25,-22.08,-2.95,4.76,21.01,23.45,27.16,0,6.15,-0.2
df_cut_4_n1_opt_disp_struct_15.xyz,Nucleus 11H :,-3.272787,1.055261,0.391918,24.0,23.72,21.19,27.08,8.69,43.86,31.51,-20.16,12.52,-4.44,21.19,23.72,27.08,0,5.89,-0.14
df_cut_4_n1_opt_disp_struct_15.xyz,Nucleus 12H :,-2.626124,0.579825,1.530644,23.86,27.15,23.42,21.0,45.71,29.9,14.67,-22.29,-2.76,6.33,21.0,23.42,27.15,0,6.15,-0.21
df_cut_4_n1_opt_disp_struct_15.xyz,Nucleus 13H :,-1.23522,0.460846,1.547455,23.89,28.48,22.22,20.98,45.53,31.02,28.81,-23.3,-2.54,-7.84,20.98,22.22,28.48,0,7.5,-0.67
df_cut_4_n1_opt_disp_struct_15.xyz,Nucleus 14H :,1.55352,1.498202,0.765691,28.99,34.0,28.65,24.33,40.21,33.05,27.92,-0.03,-5.69,-8.48,24.33,28.65,34.0,0,9.67,-0.11
df_cut_4_n1_opt_disp_struct_15.xyz,Nucleus 19H :,1.284892,-0.237829,1.022092,30.15,33.93,30.03,26.5,39.13,25.52,16.43,-5.35,4.57,10.16,26.5,30.03,33.93,0,7.43,-0.05
df_cut_4_n1_opt_disp_struct_15.xyz,Nucleus 20H :,-0.561879,1.500165,-1.613817,30.15,33.96,29.98,26.51,39.82,21.96,13.91,-5.89,8.02,12.63,26.51,29.98,33.96,0,7.45,-0.07
df_cut_4_n1_opt_disp_struct_15.xyz,Nucleus 21H :,-3.040816,1.720907,-1.638839,29.69,28.03,28.86,32.19,18.19,26.68,37.39,10.79,1.46,-5.42,28.03,28.86,32.19,0,4.16,-0.6
df_cut_4_n1_opt_disp_struct_15.xyz,Nucleus 0C :,-4.355684,1.123424,0.370599,160.28,187.2,137.79,155.85,252.32,243.71,235.75,-107.82,-63.21,-79.91,137.79,155.85,187.2,0,49.41,-0.27
df_cut_4_n1_opt_disp_struct_15.xyz,Nucleus 1C :,-3.211788,0.241502,2.381456,35.07,174.73,-75.13,5.61,237.64,261.65,265.95,-63.01,-336.68,-260.33,-75.13,5.61,174.73,0,249.86,-0.35
df_cut_4_n1_opt_disp_struct_15.xyz,Nucleus 2C :,-0.733449,0.01944,2.405791,44.46,-66.54,40.73,159.18,268.59,259.64,243.39,-326.13,-227.6,-84.53,-66.54,40.73,159.18,0,225.72,-0.05
df_cut_4_n1_opt_disp_struct_15.xyz,Nucleus 3C :,1.343908,0.40828,-0.61975,46.22,-69.43,34.71,173.37,231.73,268.27,258.46,-327.55,-233.42,-58.84,-69.43,34.71,173.37,0,242.8,-0.14
df_cut_4_n1_opt_disp_struct_15.xyz,Nucleus 4C :,-2.545924,-6.591179,-2.371904,49.45,-64.69,176.06,36.97,225.46,257.19,268.74,-50.6,-320.68,-231.77,-64.69,36.97,176.06,0,240.75,-0.16
df_cut_4_n1_opt_disp_struct_15.xyz,Nucleus 5C :,-2.412997,-5.186496,-1.806668,46.09,-69.64,34.4,173.51,268.07,258.79,231.36,-328.14,-233.53,-58.28,-69.64,34.4,173.51,0,243.15,-0.14
df_cut_4_n1_opt_disp_struct_15.xyz,Nucleus 6C :,-1.227207,-4.807077,-1.588084,45.01,-65.64,39.78,160.88,268.74,259.3,242.58,-324.87,-228.65,-82.08,-65.64,39.78,160.88,0,226.52,-0.07
df_cut_4_n1_opt_disp_struct_15.xyz,Nucleus 15C :,-3.503374,-4.564932,-1.66516,159.34,120.72,167.28,190.02,250.97,229.79,222.68,-102.69,-64.49,-58.24,120.72,167.28,190.02,0,69.3,0.34
df_cut_4_n1_opt_disp_struct_15.xyz,Nucleus 16C :,-1.721535,-7.238034,-2.05159,2.55,-87.49,28.07,67.06,203.78,268.13,254.7,-342.18,-240.05,-136.73,-87.49,28.07,67.06,0,154.55,0.5
df_cut_4_n1_opt_disp_struct_15.xyz,Nucleus 17O :,-3.506547,-7.047395,-2.108251,-28.15,-265.43,-38.8,219.79,399.35,427.97,437.42,-682.79,-451.23,-215.16,-265.43,-38.8,219.79,0,485.22,-0.07
df_cut_4_n1_opt_disp_struct_15.xyz,Nucleus 18O :,-2.504109,-6.525776,-3.467164,-29.56,-267.74,-40.92,219.98,431.53,395.56,404.45,-685.09,-449.74,-185.39,-267.74,-40.92,219.98,0,487.72,-0.07
df_cut_4_n1_opt_disp_struct_16.xyz,Nucleus 7H :,1.004732,0.618235,0.399603,28.89,34.64,25.6,26.42,44.39,25.5,22.92,-11.42,1.79,3.5,25.6,26.42,34.64,0,9.04,-0.82
df_cut_4_n1_opt_disp_struct_16.xyz,Nucleus 8H :,-0.479139,0.82372,0.426466,28.95,34.04,28.52,24.28,39.96,32.63,27.81,-0.07,-5.36,-8.13,24.28,28.52,34.04,0,9.76,-0.13
df_cut_4_n1_opt_disp_struct_16.xyz,Nucleus 9H :,-1.139424,1.29359,-0.715278,23.89,28.55,22.17,20.96,45.62,31.13,30.33,-23.47,-2.53,-9.41,20.96,22.17,28.55,0,7.59,-0.68
df_cut_4_n1_opt_disp_struct_16.xyz,Nucleus 10H :,-2.52968,1.410024,-0.731269,23.87,27.17,23.45,20.99,45.49,30.11,16.26,-22.04,-2.95,4.73,20.99,23.45,27.17,0,6.18,-0.2
df_cut_4_n1_opt_disp_struct_16.xyz,Nucleus 11H :,-3.272787,1.055261,0.391918,23.99,23.72,21.17,27.09,8.73,43.87,31.5,-20.16,12.46,-4.41,21.17,23.72,27.09,0,5.92,-0.14
df_cut_4_n1_opt_disp_struct_16.xyz,Nucleus 12H :,-2.626124,0.579825,1.530644,23.85,27.15,23.42,20.97,45.66,29.92,14.69,-22.24,-2.76,6.28,20.97,23.42,27.15,0,6.18,-0.21
df_cut_4_n1_opt_disp_struct_16.xyz,Nucleus 13H :,-1.23522,0.460846,1.547455,23.89,28.48,22.23,20.95,45.5,31.01,28.77,-23.27,-2.53,-7.83,20.95,22.23,28.48,0,7.53,-0.66
df_cut_4_n1_opt_disp_struct_16.xyz,Nucleus 14H :,1.55352,1.498202,0.765691,28.99,34.02,28.66,24.3,40.2,32.99,27.92,-0.02,-5.67,-8.44,24.3,28.66,34.02,0,9.72,-0.1
df_cut_4_n1_opt_disp_struct_16.xyz,Nucleus 19H :,1.284892,-0.237829,1.022092,30.15,33.92,30.02,26.52,39.14,25.28,15.9,-5.38,4.81,10.71,26.52,30.02,33.92,0,7.4,-0.05
df_cut_4_n1_opt_disp_struct_16.xyz,Nucleus 20H :,-0.561879,1.500165,-1.613817,30.14,33.94,29.97,26.52,39.76,21.82,13.38,-5.85,8.16,13.17,26.52,29.97,33.94,0,7.42,-0.07
df_cut_4_n1_opt_disp_struct_16.xyz,Nucleus 21H :,-3.040816,1.720907,-1.638839,29.69,28.05,28.86,32.17,17.59,26.7,37.35,11.4,1.44,-5.41,28.05,28.86,32.17,0,4.12,-0.6
df_cut_4_n1_opt_disp_struct_16.xyz,Nucleus 0C :,-4.355684,1.123424,0.370599,160.28,187.22,137.75,155.87,252.42,243.62,235.85,-107.65,-63.4,-79.99,137.75,155.87,187.22,0,49.47,-0.27
df_cut_4_n1_opt_disp_struct_16.xyz,Nucleus 1C :,-3.211788,0.241502,2.381456,35.02,174.73,-75.13,5.45,237.54,261.67,266.13,-62.92,-336.7,-260.66,-75.13,5.45,174.73,0,249.86,-0.36
df_cut_4_n1_opt_disp_struct_16.xyz,Nucleus 2C :,-0.733449,0.01944,2.405791,44.46,-66.51,40.67,159.21,268.75,259.65,243.32,-326.12,-227.82,-84.41,-66.51,40.67,159.21,0,225.72,-0.05
df_cut_4_n1_opt_disp_struct_16.xyz,Nucleus 3C :,1.343908,0.40828,-0.61975,46.21,-69.43,34.64,173.41,231.69,268.43,258.42,-327.54,-233.66,-58.72,-69.43,34.64,173.41,0,242.84,-0.14
df_cut_4_n1_opt_disp_struct_16.xyz,Nucleus 4C :,-2.564267,-6.825299,-2.457644,49.48,-64.65,176.09,36.99,225.61,257.19,268.91,-50.61,-320.74,-231.92,-64.65,36.99,176.09,0,240.74,-0.16
df_cut_4_n1_opt_disp_struct_16.xyz,Nucleus 5C :,-2.43134,-5.420616,-1.892408,46.08,-69.63,34.34,173.54,268.25,258.75,231.31,-328.12,-233.77,-58.15,-69.63,34.34,173.54,0,243.17,-0.14
df_cut_4_n1_opt_disp_struct_16.xyz,Nucleus 6C :,-1.24555,-5.041197,-1.673825,45.02,-65.61,39.75,160.91,268.9,259.32,242.53,-324.87,-228.86,-81.97,-65.61,39.75,160.91,0,226.52,-0.07
df_cut_4_n1_opt_disp_struct_16.xyz,Nucleus 15C :,-3.521718,-4.799052,-1.750901,159.35,120.75,167.33,189.97,250.92,229.3,221.85,-101.85,-64.04,-58.12,120.75,167.33,189.97,0,69.22,0.35
df_cut_4_n1_opt_disp_struct_16.xyz,Nucleus 16C :,-1.739878,-7.472153,-2.137331,2.5,-87.6,28.06,67.05,203.44,268.42,254.59,-342.18,-240.35,-136.41,-87.6,28.06,67.05,0,154.65,0.5
df_cut_4_n1_opt_disp_struct_16.xyz,Nucleus 17O :,-3.52489,-7.281515,-2.193991,-28.21,-265.67,-38.98,220.03,399.27,428.17,438.54,-683.32,-451.2,-216.08,-265.67,-38.98,220.03,0,485.7,-0.07
df_cut_4_n1_opt_disp_struct_16.xyz,Nucleus 18O :,-2.522453,-6.759896,-3.552904,-29.52,-267.79,-40.98,220.21,431.94,395.53,405.36,-685.33,-449.81,-186.24,-267.79,-40.98,220.21,0,488.0,-0.07
df_cut_4_n1_opt_disp_struct_17.xyz,Nucleus 7H :,1.004732,0.618235,0.399603,28.87,34.62,25.57,26.41,44.33,25.47,22.87,-11.38,1.79,3.52,25.57,26.41,34.62,0,9.05,-0.82
df_cut_4_n1_opt_disp_struct_17.xyz,Nucleus 8H :,-0.479139,0.82372,0.426466,28.95,34.07,28.54,24.24,39.97,32.59,27.8,-0.05,-5.35,-8.11,24.24,28.54,34.07,0,9.83,-0.13
df_cut_4_n1_opt_disp_struct_17.xyz,Nucleus 9H :,-1.139424,1.29359,-0.715278,23.88,28.55,22.17,20.92,45.59,31.1,30.29,-23.43,-2.51,-9.39,20.92,22.17,28.55,0,7.63,-0.67
df_cut_4_n1_opt_disp_struct_17.xyz,Nucleus 10H :,-2.52968,1.410024,-0.731269,23.87,27.18,23.45,20.98,45.45,30.11,16.28,-22.01,-2.94,4.7,20.98,23.45,27.18,0,6.2,-0.2
df_cut_4_n1_opt_disp_struct_17.xyz,Nucleus 11H :,-3.272787,1.055261,0.391918,24.0,23.73,21.17,27.1,8.78,43.87,31.48,-20.15,12.41,-4.38,21.17,23.73,27.1,0,5.93,-0.14
df_cut_4_n1_opt_disp_struct_17.xyz,Nucleus 12H :,-2.626124,0.579825,1.530644,23.85,27.16,23.42,20.97,45.62,29.92,14.72,-22.2,-2.76,6.25,20.97,23.42,27.16,0,6.19,-0.21
df_cut_4_n1_opt_disp_struct_17.xyz,Nucleus 13H :,-1.23522,0.460846,1.547455,23.88,28.49,22.23,20.91,45.47,31.0,28.74,-23.24,-2.51,-7.82,20.91,22.23,28.49,0,7.58,-0.65
df_cut_4_n1_opt_disp_struct_17.xyz,Nucleus 14H :,1.55352,1.498202,0.765691,28.99,34.03,28.68,24.27,40.19,32.94,27.92,-0.01,-5.66,-8.4,24.27,28.68,34.03,0,9.76,-0.1
df_cut_4_n1_opt_disp_struct_17.xyz,Nucleus 19H :,1.284892,-0.237829,1.022092,30.15,33.9,30.01,26.53,39.14,25.04,15.35,-5.41,5.04,11.28,26.53,30.01,33.9,0,7.37,-0.06
df_cut_4_n1_opt_disp_struct_17.xyz,Nucleus 20H :,-0.561879,1.500165,-1.613817,30.14,33.92,29.97,26.54,39.7,21.67,12.85,-5.82,8.31,13.72,26.54,29.97,33.92,0,7.38,-0.07
df_cut_4_n1_opt_disp_struct_17.xyz,Nucleus 21H :,-3.040816,1.720907,-1.638839,29.69,28.07,28.85,32.14,16.98,26.7,37.31,12.04,1.44,-5.42,28.07,28.85,32.14,0,4.07,-0.62
df_cut_4_n1_opt_disp_struct_17.xyz,Nucleus 0C :,-4.355684,1.123424,0.370599,160.29,187.3,137.65,155.91,252.55,243.5,235.96,-107.51,-63.58,-80.07,137.65,155.91,187.3,0,49.65,-0.26
df_cut_4_n1_opt_disp_struct_17.xyz,Nucleus 1C :,-3.211788,0.241502,2.381456,34.99,174.73,-75.16,5.4,237.46,261.66,266.35,-62.84,-336.71,-260.94,-75.16,5.4,174.73,0,249.89,-0.36
df_cut_4_n1_opt_disp_struct_17.xyz,Nucleus 2C :,-0.733449,0.01944,2.405791,44.48,-66.48,40.69,159.22,268.93,259.66,243.26,-326.12,-227.99,-84.32,-66.48,40.69,159.22,0,225.7,-0.05
df_cut_4_n1_opt_disp_struct_17.xyz,Nucleus 3C :,1.343908,0.40828,-0.61975,46.21,-69.43,34.63,173.42,268.61,258.38,231.67,-327.54,-233.86,-58.64,-69.43,34.63,173.42,0,242.85,-0.14
df_cut_4_n1_opt_disp_struct_17.xyz,Nucleus 4C :,-2.582611,-7.059419,-2.543385,49.54,-64.59,176.13,37.07,225.78,257.2,269.1,-50.63,-320.8,-232.04,-64.59,37.07,176.13,0,240.72,-0.16
df_cut_4_n1_opt_disp_struct_17.xyz,Nucleus 5C :,-2.449684,-5.654736,-1.978149,46.09,-69.62,34.35,173.55,268.44,258.7,231.27,-328.11,-233.97,-58.07,-69.62,34.35,173.55,0,243.17,-0.14
df_cut_4_n1_opt_disp_struct_17.xyz,Nucleus 6C :,-1.263894,-5.275317,-1.759565,45.04,-65.57,39.78,160.91,269.09,259.33,242.48,-324.87,-229.02,-81.89,-65.57,39.78,160.91,0,226.48,-0.07
df_cut_4_n1_opt_disp_struct_17.xyz,Nucleus 15C :,-3.540062,-5.033172,-1.836641,159.35,120.75,167.36,189.93,250.87,228.74,220.91,-100.93,-63.59,-57.96,120.75,167.36,189.93,0,69.18,0.35
df_cut_4_n1_opt_disp_struct_17.xyz,Nucleus 16C :,-1.758222,-7.706273,-2.223071,2.48,-87.69,28.07,67.06,203.14,268.74,254.5,-342.19,-240.67,-136.09,-87.69,28.07,67.06,0,154.75,0.5
df_cut_4_n1_opt_disp_struct_17.xyz,Nucleus 17O :,-3.543234,-7.515634,-2.279732,-28.24,-265.85,-39.12,220.26,399.2,428.36,439.73,-683.75,-451.16,-217.08,-265.85,-39.12,220.26,0,486.11,-0.07
df_cut_4_n1_opt_disp_struct_17.xyz,Nucleus 18O :,-2.540797,-6.994016,-3.638644,-29.49,-267.87,-41.03,220.43,432.33,395.51,406.4,-685.57,-449.88,-187.27,-267.87,-41.03,220.43,0,488.3,-0.07
df_cut_4_n1_opt_disp_struct_18.xyz,Nucleus 7H :,1.004732,0.618235,0.399603,28.85,34.61,25.55,26.4,44.29,25.45,22.84,-11.34,1.78,3.55,25.55,26.4,34.61,0,9.06,-0.81
df_cut_4_n1_opt_disp_struct_18.xyz,Nucleus 8H :,-0.479139,0.82372,0.426466,28.95,34.08,28.55,24.23,39.98,32.55,27.78,-0.03,-5.34,-8.08,24.23,28.55,34.08,0,9.85,-0.12
df_cut_4_n1_opt_disp_struct_18.xyz,Nucleus 9H :,-1.139424,1.29359,-0.715278,23.88,28.56,22.18,20.9,45.56,31.08,30.26,-23.4,-2.5,-9.37,20.9,22.18,28.56,0,7.66,-0.67
df_cut_4_n1_opt_disp_struct_18.xyz,Nucleus 10H :,-2.52968,1.410024,-0.731269,23.86,27.18,23.45,20.96,45.42,30.1,16.29,-21.97,-2.93,4.67,20.96,23.45,27.18,0,6.22,-0.2
df_cut_4_n1_opt_disp_struct_18.xyz,Nucleus 11H :,-3.272787,1.055261,0.391918,24.0,23.74,21.15,27.1,8.8,43.87,31.46,-20.15,12.36,-4.35,21.15,23.74,27.1,0,5.95,-0.13
df_cut_4_n1_opt_disp_struct_18.xyz,Nucleus 12H :,-2.626124,0.579825,1.530644,23.85,27.17,23.43,20.94,45.58,29.93,14.74,-22.15,-2.76,6.21,20.94,23.43,27.17,0,6.23,-0.2
df_cut_4_n1_opt_disp_struct_18.xyz,Nucleus 13H :,-1.23522,0.460846,1.547455,23.87,28.49,22.24,20.89,45.44,30.98,28.71,-23.21,-2.49,-7.81,20.89,22.24,28.49,0,7.6,-0.64
df_cut_4_n1_opt_disp_struct_18.xyz,Nucleus 14H :,1.55352,1.498202,0.765691,29.0,34.05,28.69,24.25,40.18,32.9,27.92,0.0,-5.65,-8.36,24.25,28.69,34.05,0,9.8,-0.09
df_cut_4_n1_opt_disp_struct_18.xyz,Nucleus 19H :,1.284892,-0.237829,1.022092,30.14,33.89,30.0,26.54,39.15,24.81,14.8,-5.45,5.28,11.84,26.54,30.0,33.89,0,7.35,-0.06
df_cut_4_n1_opt_disp_struct_18.xyz,Nucleus 20H :,-0.561879,1.500165,-1.613817,30.14,33.9,29.96,26.55,39.64,21.52,12.31,-5.79,8.46,14.27,26.55,29.96,33.9,0,7.35,-0.07
df_cut_4_n1_opt_disp_struct_18.xyz,Nucleus 21H :,-3.040816,1.720907,-1.638839,29.68,28.07,28.85,32.13,16.36,26.7,37.29,12.67,1.45,-5.42,28.07,28.85,32.13,0,4.06,-0.61
df_cut_4_n1_opt_disp_struct_18.xyz,Nucleus 0C :,-4.355684,1.123424,0.370599,160.28,187.31,137.63,155.91,252.64,243.41,236.03,-107.37,-63.73,-80.13,137.63,155.91,187.31,0,49.68,-0.26
df_cut_4_n1_opt_disp_struct_18.xyz,Nucleus 1C :,-3.211788,0.241502,2.381456,34.94,174.73,-75.17,5.25,237.38,261.65,266.47,-62.77,-336.71,-261.2,-75.17,5.25,174.73,0,249.9,-0.36
df_cut_4_n1_opt_disp_struct_18.xyz,Nucleus 2C :,-0.733449,0.01944,2.405791,44.47,-66.47,40.64,159.25,269.05,259.66,243.22,-326.12,-228.16,-84.23,-66.47,40.64,159.25,0,225.72,-0.05
df_cut_4_n1_opt_disp_struct_18.xyz,Nucleus 3C :,1.343908,0.40828,-0.61975,46.2,-69.43,34.57,173.45,268.73,258.35,231.63,-327.53,-234.04,-58.54,-69.43,34.57,173.45,0,242.88,-0.14
df_cut_4_n1_opt_disp_struct_18.xyz,Nucleus 4C :,-2.600955,-7.293539,-2.629125,49.55,-64.56,176.16,37.06,225.88,257.21,269.21,-50.64,-320.85,-232.15,-64.56,37.06,176.16,0,240.72,-0.16
df_cut_4_n1_opt_disp_struct_18.xyz,Nucleus 5C :,-2.468028,-5.888855,-2.063889,46.09,-69.62,34.3,173.58,268.56,258.67,231.22,-328.09,-234.15,-57.96,-69.62,34.3,173.58,0,243.2,-0.15
df_cut_4_n1_opt_disp_struct_18.xyz,Nucleus 6C :,-1.282238,-5.509437,-1.845306,45.04,-65.55,39.74,160.94,269.2,259.35,242.45,-324.88,-229.18,-81.81,-65.55,39.74,160.94,0,226.49,-0.07
df_cut_4_n1_opt_disp_struct_18.xyz,Nucleus 15C :,-3.558406,-5.267292,-1.922381,159.33,120.75,167.36,189.89,250.83,228.18,219.98,-100.01,-63.18,-57.79,120.75,167.36,189.89,0,69.14,0.35
df_cut_4_n1_opt_disp_struct_18.xyz,Nucleus 16C :,-1.776566,-7.940393,-2.308812,2.45,-87.78,28.06,67.07,202.82,269.07,254.42,-342.19,-240.99,-135.76,-87.78,28.06,67.07,0,154.85,0.5
df_cut_4_n1_opt_disp_struct_18.xyz,Nucleus 17O :,-3.561578,-7.749754,-2.365472,-28.28,-265.96,-39.23,220.36,399.14,428.52,440.88,-684.1,-451.1,-218.16,-265.96,-39.23,220.36,0,486.32,-0.07
df_cut_4_n1_opt_disp_struct_18.xyz,Nucleus 18O :,-2.559141,-7.228136,-3.724385,-29.44,-267.83,-41.04,220.54,432.73,395.5,407.45,-685.7,-449.9,-188.4,-267.83,-41.04,220.54,0,488.37,-0.07
df_cut_4_n1_opt_disp_struct_19.xyz,Nucleus 7H :,1.004732,0.618235,0.399603,28.84,34.59,25.54,26.39,44.24,25.42,22.8,-11.3,1.78,3.58,25.54,26.39,34.59,0,9.05,-0.81
df_cut_4_n1_opt_disp_struct_19.xyz,Nucleus 8H :,-0.479139,0.82372,0.426466,28.96,34.1,28.56,24.21,39.98,32.52,27.77,-0.01,-5.33,-8.05,24.21,28.56,34.1,0,9.89,-0.12
df_cut_4_n1_opt_disp_struct_19.xyz,Nucleus 9H :,-1.139424,1.29359,-0.715278,23.87,28.56,22.18,20.88,45.52,31.06,30.23,-23.37,-2.48,-9.35,20.88,22.18,28.56,0,7.68,-0.66
df_cut_4_n1_opt_disp_struct_19.xyz,Nucleus 10H :,-2.52968,1.410024,-0.731269,23.85,27.18,23.45,20.93,45.38,30.1,16.29,-21.93,-2.92,4.65,20.93,23.45,27.18,0,6.25,-0.19
df_cut_4_n1_opt_disp_struct_19.xyz,Nucleus 11H :,-3.272787,1.055261,0.391918,23.99,23.74,21.13,27.11,8.82,43.87,31.43,-20.15,12.32,-4.32,21.13,23.74,27.11,0,5.98,-0.13
df_cut_4_n1_opt_disp_struct_19.xyz,Nucleus 12H :,-2.626124,0.579825,1.530644,23.84,27.17,23.43,20.92,45.54,29.93,14.75,-22.11,-2.76,6.18,20.92,23.43,27.17,0,6.25,-0.2
df_cut_4_n1_opt_disp_struct_19.xyz,Nucleus 13H :,-1.23522,0.460846,1.547455,23.87,28.5,22.24,20.87,45.41,30.97,28.69,-23.18,-2.48,-7.8,20.87,22.24,28.5,0,7.63,-0.64
df_cut_4_n1_opt_disp_struct_19.xyz,Nucleus 14H :,1.55352,1.498202,0.765691,29.0,34.06,28.7,24.23,40.16,32.86,27.91,0.01,-5.63,-8.32,24.23,28.7,34.06,0,9.83,-0.09
df_cut_4_n1_opt_disp_struct_19.xyz,Nucleus 19H :,1.284892,-0.237829,1.022092,30.14,33.88,29.99,26.54,39.15,24.58,14.25,-5.48,5.51,12.4,26.54,29.99,33.88,0,7.34,-0.06
df_cut_4_n1_opt_disp_struct_19.xyz,Nucleus 20H :,-0.561879,1.500165,-1.613817,30.13,33.89,29.95,26.55,39.6,21.37,11.77,-5.77,8.61,14.82,26.55,29.95,33.89,0,7.34,-0.07
df_cut_4_n1_opt_disp_struct_19.xyz,Nucleus 21H :,-3.040816,1.720907,-1.638839,29.68,28.08,28.84,32.11,15.74,26.69,37.26,13.3,1.46,-5.44,28.08,28.84,32.11,0,4.03,-0.63
df_cut_4_n1_opt_disp_struct_19.xyz,Nucleus 0C :,-4.355684,1.123424,0.370599,160.28,187.33,137.6,155.92,252.72,243.32,236.09,-107.24,-63.86,-80.19,137.6,155.92,187.33,0,49.73,-0.26
df_cut_4_n1_opt_disp_struct_19.xyz,Nucleus 1C :,-3.211788,0.241502,2.381456,34.9,174.73,-75.17,5.13,237.32,261.64,266.57,-62.71,-336.71,-261.43,-75.17,5.13,174.73,0,249.9,-0.36
df_cut_4_n1_opt_disp_struct_19.xyz,Nucleus 2C :,-0.733449,0.01944,2.405791,44.48,-66.45,40.6,159.28,269.14,259.67,243.18,-326.12,-228.31,-84.15,-66.45,40.6,159.28,0,225.73,-0.05
df_cut_4_n1_opt_disp_struct_19.xyz,Nucleus 3C :,1.343908,0.40828,-0.61975,46.19,-69.43,34.52,173.47,268.82,258.32,231.6,-327.52,-234.2,-58.46,-69.43,34.52,173.47,0,242.9,-0.14
df_cut_4_n1_opt_disp_struct_19.xyz,Nucleus 4C :,-2.619299,-7.527659,-2.714866,49.56,-64.54,176.18,37.05,225.97,257.22,269.3,-50.65,-320.9,-232.24,-64.54,37.05,176.18,0,240.72,-0.16
df_cut_4_n1_opt_disp_struct_19.xyz,Nucleus 5C :,-2.486372,-6.122975,-2.149629,46.08,-69.62,34.25,173.6,268.67,258.64,231.18,-328.06,-234.31,-57.87,-69.62,34.25,173.6,0,243.22,-0.15
df_cut_4_n1_opt_disp_struct_19.xyz,Nucleus 6C :,-1.300582,-5.743556,-1.931046,45.05,-65.53,39.72,160.96,269.3,259.36,242.42,-324.88,-229.32,-81.74,-65.53,39.72,160.96,0,226.49,-0.07
df_cut_4_n1_opt_disp_struct_19.xyz,Nucleus 15C :,-3.576749,-5.501412,-2.008122,159.33,120.76,167.37,189.86,250.79,227.63,219.04,-99.08,-62.8,-57.6,120.76,167.37,189.86,0,69.1,0.35
df_cut_4_n1_opt_disp_struct_19.xyz,Nucleus 16C :,-1.79491,-8.174513,-2.394552,2.43,-87.85,28.06,67.08,202.5,269.39,254.35,-342.2,-241.31,-135.43,-87.85,28.06,67.08,0,154.93,0.5
df_cut_4_n1_opt_disp_struct_19.xyz,Nucleus 17O :,-3.579922,-7.983874,-2.451212,-28.31,-266.02,-39.33,220.42,399.09,428.68,442.05,-684.41,-451.05,-219.27,-266.02,-39.33,220.42,0,486.44,-0.07
df_cut_4_n1_opt_disp_struct_19.xyz,Nucleus 18O :,-2.577484,-7.462255,-3.810125,-29.4,-267.77,-41.04,220.61,433.14,395.49,408.48,-685.82,-449.9,-189.58,-267.77,-41.04,220.61,0,488.38,-0.07
df_cut_4_n1_opt_disp_struct_2.xyz,Nucleus 7H :,1.004732,0.618235,0.399603,29.11,35.05,25.94,26.35,45.25,25.77,22.15,-12.28,2.27,4.2,25.94,26.35,35.05,0,9.11,-0.91
df_cut_4_n1_opt_disp_struct_2.xyz,Nucleus 8H :,-0.479139,0.82372,0.426466,28.89,33.53,28.26,24.88,26.66,34.39,38.15,0.58,-4.37,-8.72,24.88,28.26,33.53,0,8.65,-0.22
df_cut_4_n1_opt_disp_struct_2.xyz,Nucleus 9H :,-1.139424,1.29359,-0.715278,24.43,28.55,23.29,21.46,45.49,29.89,31.49,-22.44,-1.42,-9.72,21.46,23.29,28.55,0,7.09,-0.48
df_cut_4_n1_opt_disp_struct_2.xyz,Nucleus 10H :,-2.52968,1.410024,-0.731269,24.39,27.14,24.41,21.61,45.68,30.75,16.25,-21.48,-3.72,5.69,21.61,24.41,27.14,0,5.53,0.01
df_cut_4_n1_opt_disp_struct_2.xyz,Nucleus 11H :,-3.272787,1.055261,0.391918,23.96,22.11,23.36,26.42,8.43,43.68,34.29,13.7,-20.34,-7.86,22.11,23.36,26.42,0,4.31,-0.42
df_cut_4_n1_opt_disp_struct_2.xyz,Nucleus 12H :,-2.626124,0.579825,1.530644,24.37,27.15,24.39,21.57,45.96,30.6,14.54,-21.81,-3.52,7.34,21.57,24.39,27.15,0,5.58,0.01
df_cut_4_n1_opt_disp_struct_2.xyz,Nucleus 13H :,-1.23522,0.460846,1.547455,24.36,28.43,23.21,21.43,45.34,30.12,29.39,-22.35,-1.64,-7.78,21.43,23.21,28.43,0,7.0,-0.49
df_cut_4_n1_opt_disp_struct_2.xyz,Nucleus 14H :,1.55352,1.498202,0.765691,29.01,33.6,28.47,24.96,26.48,34.79,38.88,1.06,-4.97,-9.22,24.96,28.47,33.6,0,8.64,-0.19
df_cut_4_n1_opt_disp_struct_2.xyz,Nucleus 19H :,1.284892,-0.237829,1.022092,30.35,34.57,30.37,26.12,38.89,29.26,20.96,-4.36,1.1,5.21,26.12,30.37,34.57,0,8.45,0.01
df_cut_4_n1_opt_disp_struct_2.xyz,Nucleus 20H :,-0.561879,1.500165,-1.613817,30.35,34.72,30.16,26.18,40.92,23.33,21.42,-6.33,7.08,4.63,26.18,30.16,34.72,0,8.54,-0.07
df_cut_4_n1_opt_disp_struct_2.xyz,Nucleus 21H :,-3.040816,1.720907,-1.638839,29.97,33.17,27.94,28.79,38.23,25.94,24.81,-5.29,2.27,3.93,27.94,28.79,33.17,0,5.23,-0.68
df_cut_4_n1_opt_disp_struct_2.xyz,Nucleus 0C :,-4.355684,1.123424,0.370599,158.86,186.17,136.8,153.6,252.95,242.26,231.31,-112.29,-59.92,-77.74,136.8,153.6,186.17,0,49.37,-0.32
df_cut_4_n1_opt_disp_struct_2.xyz,Nucleus 1C :,-3.211788,0.241502,2.381456,34.23,174.49,-78.77,6.97,239.09,260.01,259.24,-64.71,-338.43,-252.52,-78.77,6.97,174.49,0,253.26,-0.32
df_cut_4_n1_opt_disp_struct_2.xyz,Nucleus 2C :,-0.733449,0.01944,2.405791,45.81,-65.45,45.84,157.03,263.98,257.35,244.06,-323.04,-216.58,-88.36,-65.45,45.84,157.03,0,222.48,0.0
df_cut_4_n1_opt_disp_struct_2.xyz,Nucleus 3C :,1.343908,0.40828,-0.61975,48.86,-65.36,40.81,171.12,232.67,265.42,258.29,-322.26,-223.9,-63.66,-65.36,40.81,171.12,0,236.48,-0.1
df_cut_4_n1_opt_disp_struct_2.xyz,Nucleus 4C :,-2.307455,-3.547622,-1.257279,45.45,-70.88,174.59,32.65,227.66,255.97,268.67,-55.32,-324.61,-236.01,-70.88,32.65,174.59,0,245.47,-0.16
df_cut_4_n1_opt_disp_struct_2.xyz,Nucleus 5C :,-2.174528,-2.142938,-0.692042,48.53,-65.71,40.03,171.27,232.59,265.07,258.91,-323.14,-224.41,-63.42,-65.71,40.03,171.27,0,236.98,-0.11
df_cut_4_n1_opt_disp_struct_2.xyz,Nucleus 6C :,-0.988738,-1.76352,-0.473459,45.72,-65.56,43.75,158.96,264.63,256.57,242.7,-322.36,-219.02,-85.37,-65.56,43.75,158.96,0,224.52,-0.03
df_cut_4_n1_opt_disp_struct_2.xyz,Nucleus 15C :,-3.264906,-1.521375,-0.550535,159.05,120.07,165.41,191.68,252.96,231.79,228.85,-69.15,-58.26,-109.03,120.07,165.41,191.68,0,71.61,0.27
df_cut_4_n1_opt_disp_struct_2.xyz,Nucleus 16C :,-1.483066,-4.194476,-0.936965,4.4,-83.14,24.0,72.35,209.65,266.97,259.53,-343.58,-242.05,-137.31,-83.14,24.0,72.35,0,155.49,0.38
df_cut_4_n1_opt_disp_struct_2.xyz,Nucleus 17O :,-3.268078,-4.003837,-0.993625,-55.64,-321.37,-61.41,215.87,400.36,430.2,420.1,-739.2,-474.06,-204.31,-321.37,-61.41,215.87,0,537.24,-0.03
df_cut_4_n1_opt_disp_struct_2.xyz,Nucleus 18O :,-2.265641,-3.482219,-2.352538,-68.42,-337.94,-61.79,194.48,427.16,397.46,413.36,-758.73,-219.63,-464.86,-337.94,-61.79,194.48,0,532.42,0.04
df_cut_4_n1_opt_disp_struct_3.xyz,Nucleus 7H :,1.004732,0.618235,0.399603,29.13,35.08,25.89,26.41,45.2,25.9,22.6,-12.25,2.13,3.8,25.89,26.41,35.08,0,9.19,-0.89
df_cut_4_n1_opt_disp_struct_3.xyz,Nucleus 8H :,-0.479139,0.82372,0.426466,28.91,33.59,28.3,24.83,27.12,34.17,38.66,0.22,-4.7,-8.75,24.83,28.3,33.59,0,8.76,-0.21
df_cut_4_n1_opt_disp_struct_3.xyz,Nucleus 9H :,-1.139424,1.29359,-0.715278,24.28,28.48,22.94,21.42,45.68,30.27,31.61,-22.91,-1.85,-9.96,21.42,22.94,28.48,0,7.06,-0.57
df_cut_4_n1_opt_disp_struct_3.xyz,Nucleus 10H :,-2.52968,1.410024,-0.731269,24.25,27.08,24.1,21.56,45.82,30.24,16.06,-21.86,-3.26,5.75,21.56,24.1,27.08,0,5.52,-0.08
df_cut_4_n1_opt_disp_struct_3.xyz,Nucleus 11H :,-3.272787,1.055261,0.391918,24.05,21.98,23.55,26.61,7.82,43.81,32.77,-20.27,14.17,-6.16,21.98,23.55,26.61,0,4.63,-0.32
df_cut_4_n1_opt_disp_struct_3.xyz,Nucleus 12H :,-2.626124,0.579825,1.530644,24.22,27.08,24.06,21.52,46.09,30.0,14.32,-22.18,-2.98,7.43,21.52,24.06,27.08,0,5.56,-0.09
df_cut_4_n1_opt_disp_struct_3.xyz,Nucleus 13H :,-1.23522,0.460846,1.547455,24.23,28.38,22.9,21.41,45.55,30.3,29.56,-22.78,-1.92,-8.02,21.41,22.9,28.38,0,6.97,-0.57
df_cut_4_n1_opt_disp_struct_3.xyz,Nucleus 14H :,1.55352,1.498202,0.765691,29.02,33.65,28.5,24.9,26.99,34.6,39.33,0.62,-5.21,-9.28,24.9,28.5,33.65,0,8.75,-0.18
df_cut_4_n1_opt_disp_struct_3.xyz,Nucleus 19H :,1.284892,-0.237829,1.022092,30.34,34.5,30.31,26.2,38.82,28.75,20.56,-4.36,1.56,5.68,26.2,30.31,34.5,0,8.3,-0.01
df_cut_4_n1_opt_disp_struct_3.xyz,Nucleus 20H :,-0.561879,1.500165,-1.613817,30.34,34.63,30.13,26.26,40.77,23.03,20.46,-6.22,7.32,5.67,26.26,30.13,34.63,0,8.37,-0.08
df_cut_4_n1_opt_disp_struct_3.xyz,Nucleus 21H :,-3.040816,1.720907,-1.638839,29.92,33.02,27.88,28.85,38.1,25.55,24.37,-5.27,2.53,4.47,27.88,28.85,33.02,0,5.14,-0.62
df_cut_4_n1_opt_disp_struct_3.xyz,Nucleus 0C :,-4.355684,1.123424,0.370599,159.32,186.47,137.16,154.33,252.65,242.7,232.03,-111.89,-59.79,-77.73,137.16,154.33,186.47,0,49.31,-0.3
df_cut_4_n1_opt_disp_struct_3.xyz,Nucleus 1C :,-3.211788,0.241502,2.381456,34.78,174.59,-77.67,7.43,239.46,259.47,260.32,-64.95,-337.15,-252.8,-77.67,7.43,174.59,0,252.26,-0.33
df_cut_4_n1_opt_disp_struct_3.xyz,Nucleus 2C :,-0.733449,0.01944,2.405791,45.07,-66.58,44.3,157.48,264.47,257.75,244.23,-324.69,-218.46,-88.1,-66.58,44.3,157.48,0,224.06,-0.01
df_cut_4_n1_opt_disp_struct_3.xyz,Nucleus 3C :,1.343908,0.40828,-0.61975,47.71,-67.47,39.04,171.57,232.09,264.77,258.79,-324.7,-224.97,-62.83,-67.47,39.04,171.57,0,239.04,-0.11
df_cut_4_n1_opt_disp_struct_3.xyz,Nucleus 4C :,-2.325799,-3.781742,-1.343019,46.52,-69.16,174.94,33.79,224.73,257.01,266.47,-53.31,-322.65,-232.67,-69.16,33.79,174.94,0,244.1,-0.16
df_cut_4_n1_opt_disp_struct_3.xyz,Nucleus 5C :,-2.192872,-2.377058,-0.777783,47.41,-67.84,38.35,171.73,232.0,264.28,259.39,-325.6,-225.29,-62.54,-67.84,38.35,171.73,0,239.57,-0.11
df_cut_4_n1_opt_disp_struct_3.xyz,Nucleus 6C :,-1.007081,-1.997639,-0.559199,45.14,-66.36,42.41,159.38,264.97,256.91,242.78,-323.68,-220.43,-85.12,-66.36,42.41,159.38,0,225.74,-0.04
df_cut_4_n1_opt_disp_struct_3.xyz,Nucleus 15C :,-3.283249,-1.755495,-0.636275,159.28,120.33,166.01,191.49,252.61,230.54,227.41,-57.79,-67.61,-107.33,120.33,166.01,191.49,0,71.16,0.28
df_cut_4_n1_opt_disp_struct_3.xyz,Nucleus 16C :,-1.501409,-4.428596,-1.022705,3.68,-83.56,24.94,69.66,209.86,266.62,258.98,-343.2,-241.0,-140.21,-83.56,24.94,69.66,0,153.22,0.42
df_cut_4_n1_opt_disp_struct_3.xyz,Nucleus 17O :,-3.286421,-4.237957,-1.079366,-40.1,-289.67,-51.4,220.77,400.19,428.44,419.99,-703.44,-466.09,-199.39,-289.67,-51.4,220.77,0,510.44,-0.07
df_cut_4_n1_opt_disp_struct_3.xyz,Nucleus 18O :,-2.283984,-3.716338,-2.438279,-50.89,-303.96,-55.51,206.79,424.9,397.97,408.0,-721.55,-460.12,-201.88,-303.96,-55.51,206.79,0,510.75,-0.03
df_cut_4_n1_opt_disp_struct_4.xyz,Nucleus 7H :,1.004732,0.618235,0.399603,29.12,35.06,25.85,26.44,45.15,25.96,22.89,-12.21,2.03,3.54,25.85,26.44,35.06,0,9.21,-0.87
df_cut_4_n1_opt_disp_struct_4.xyz,Nucleus 8H :,-0.479139,0.82372,0.426466,28.92,33.64,28.33,24.78,27.43,33.95,39.03,0.01,-4.94,-8.73,24.78,28.33,33.64,0,8.86,-0.2
df_cut_4_n1_opt_disp_struct_4.xyz,Nucleus 9H :,-1.139424,1.29359,-0.715278,24.18,28.45,22.69,21.4,45.83,30.55,31.59,-23.24,-2.14,-10.04,21.4,22.69,28.45,0,7.05,-0.63
df_cut_4_n1_opt_disp_struct_4.xyz,Nucleus 10H :,-2.52968,1.410024,-0.731269,24.15,27.07,23.88,21.51,45.89,29.95,15.98,-22.1,-2.97,5.71,21.51,23.88,27.07,0,5.56,-0.15
df_cut_4_n1_opt_disp_struct_4.xyz,Nucleus 11H :,-3.272787,1.055261,0.391918,24.08,21.87,23.63,26.74,7.53,43.87,31.87,-20.24,14.34,-5.14,21.87,23.63,26.74,0,4.87,-0.28
df_cut_4_n1_opt_disp_struct_4.xyz,Nucleus 12H :,-2.626124,0.579825,1.530644,24.13,27.06,23.84,21.48,46.15,29.66,14.23,-22.42,-2.65,7.41,21.48,23.84,27.06,0,5.58,-0.16
df_cut_4_n1_opt_disp_struct_4.xyz,Nucleus 13H :,-1.23522,0.460846,1.547455,24.14,28.36,22.67,21.4,45.7,30.45,29.62,-23.09,-2.12,-8.13,21.4,22.67,28.36,0,6.96,-0.63
df_cut_4_n1_opt_disp_struct_4.xyz,Nucleus 14H :,1.55352,1.498202,0.765691,29.01,33.68,28.51,24.84,27.32,34.39,39.65,0.34,-5.39,-9.28,24.84,28.51,33.68,0,8.84,-0.17
df_cut_4_n1_opt_disp_struct_4.xyz,Nucleus 19H :,1.284892,-0.237829,1.022092,30.32,34.42,30.27,26.26,38.77,28.29,20.17,-4.4,1.99,6.14,26.26,30.27,34.42,0,8.16,-0.02
df_cut_4_n1_opt_disp_struct_4.xyz,Nucleus 20H :,-0.561879,1.500165,-1.613817,30.32,34.54,30.11,26.31,40.6,22.82,19.63,-6.12,7.51,6.51,26.31,30.11,34.54,0,8.23,-0.08
df_cut_4_n1_opt_disp_struct_4.xyz,Nucleus 21H :,-3.040816,1.720907,-1.638839,29.89,32.9,27.87,28.89,37.97,25.41,23.82,-5.24,2.62,5.07,27.87,28.89,32.9,0,5.03,-0.6
df_cut_4_n1_opt_disp_struct_4.xyz,Nucleus 0C :,-4.355684,1.123424,0.370599,159.62,186.66,137.41,154.78,252.36,243.13,232.68,-111.44,-59.95,-77.93,137.41,154.78,186.66,0,49.25,-0.29
df_cut_4_n1_opt_disp_struct_4.xyz,Nucleus 1C :,-3.211788,0.241502,2.381456,35.19,174.64,-76.82,7.74,239.47,259.47,261.01,-64.9,-336.25,-253.24,-76.82,7.74,174.64,0,251.46,-0.33
df_cut_4_n1_opt_disp_struct_4.xyz,Nucleus 2C :,-0.733449,0.01944,2.405791,44.75,-66.97,43.41,157.81,264.92,258.25,244.36,-325.57,-219.92,-87.79,-66.97,43.41,157.81,0,224.78,-0.02
df_cut_4_n1_opt_disp_struct_4.xyz,Nucleus 3C :,1.343908,0.40828,-0.61975,47.14,-68.49,38.0,171.92,231.87,264.66,259.01,-326.02,-225.9,-62.2,-68.49,38.0,171.92,0,240.41,-0.11
df_cut_4_n1_opt_disp_struct_4.xyz,Nucleus 4C :,-2.344142,-4.015862,-1.428759,47.38,-67.86,175.19,34.82,222.76,257.67,265.31,-51.84,-321.27,-230.48,-67.86,34.82,175.19,0,243.05,-0.16
df_cut_4_n1_opt_disp_struct_4.xyz,Nucleus 5C :,-2.211215,-2.611178,-0.863523,46.87,-68.85,37.39,172.08,231.75,264.11,259.6,-326.9,-226.11,-61.83,-68.85,37.39,172.08,0,240.93,-0.12
df_cut_4_n1_opt_disp_struct_4.xyz,Nucleus 6C :,-1.025425,-2.231759,-0.64494,44.95,-66.55,41.71,159.68,265.3,257.41,242.93,-324.37,-221.57,-84.86,-66.55,41.71,159.68,0,226.23,-0.04
df_cut_4_n1_opt_disp_struct_4.xyz,Nucleus 15C :,-3.301593,-1.989614,-0.722016,159.38,120.53,166.35,191.26,252.29,229.56,226.18,-57.44,-66.55,-105.9,120.53,166.35,191.26,0,70.73,0.3
df_cut_4_n1_opt_disp_struct_4.xyz,Nucleus 16C :,-1.519753,-4.662716,-1.108446,3.25,-84.21,25.74,68.23,209.98,266.58,258.44,-343.1,-240.39,-141.75,-84.21,25.74,68.23,0,152.44,0.44
df_cut_4_n1_opt_disp_struct_4.xyz,Nucleus 17O :,-3.304765,-4.472077,-1.165106,-31.75,-273.59,-43.82,222.16,400.02,427.69,420.65,-685.46,-459.37,-198.77,-273.59,-43.82,222.16,0,495.75,-0.07
df_cut_4_n1_opt_disp_struct_4.xyz,Nucleus 18O :,-2.302328,-3.950458,-2.524019,-41.0,-286.1,-49.6,212.7,424.23,397.8,404.58,-701.92,-455.29,-192.39,-286.1,-49.6,212.7,0,498.8,-0.05
df_cut_4_n1_opt_disp_struct_5.xyz,Nucleus 7H :,1.004732,0.618235,0.399603,29.1,35.03,25.81,26.46,45.09,25.98,23.06,-12.16,1.94,3.39,25.81,26.46,35.03,0,9.22,-0.86
df_cut_4_n1_opt_disp_struct_5.xyz,Nucleus 8H :,-0.479139,0.82372,0.426466,28.91,33.68,28.34,24.71,27.6,33.74,39.3,-0.1,-5.11,-8.69,24.71,28.34,33.68,0,8.97,-0.19
df_cut_4_n1_opt_disp_struct_5.xyz,Nucleus 9H :,-1.139424,1.29359,-0.715278,24.11,28.44,22.52,21.38,45.93,30.75,31.49,-23.46,-2.33,-10.03,21.38,22.52,28.44,0,7.06,-0.68
df_cut_4_n1_opt_disp_struct_5.xyz,Nucleus 10H :,-2.52968,1.410024,-0.731269,24.09,27.07,23.74,21.47,45.92,29.84,15.98,-22.24,-2.84,5.62,21.47,23.74,27.07,0,5.6,-0.19
df_cut_4_n1_opt_disp_struct_5.xyz,Nucleus 11H :,-3.272787,1.055261,0.391918,24.09,21.77,23.67,26.82,7.53,43.89,31.45,-20.22,14.25,-4.62,21.77,23.67,26.82,0,5.05,-0.25
df_cut_4_n1_opt_disp_struct_5.xyz,Nucleus 12H :,-2.626124,0.579825,1.530644,24.06,27.05,23.69,21.45,46.16,29.54,14.23,-22.54,-2.52,7.32,21.45,23.69,27.05,0,5.6,-0.2
df_cut_4_n1_opt_disp_struct_5.xyz,Nucleus 13H :,-1.23522,0.460846,1.547455,24.08,28.35,22.52,21.38,45.8,30.59,29.59,-23.29,-2.28,-8.15,21.38,22.52,28.35,0,6.97,-0.67
df_cut_4_n1_opt_disp_struct_5.xyz,Nucleus 14H :,1.55352,1.498202,0.765691,29.0,33.71,28.53,24.77,27.52,34.18,39.86,0.19,-5.52,-9.22,24.77,28.53,33.71,0,8.94,-0.16
df_cut_4_n1_opt_disp_struct_5.xyz,Nucleus 19H :,1.284892,-0.237829,1.022092,30.3,34.35,30.24,26.3,38.74,27.86,19.78,-4.45,2.4,6.57,26.3,30.24,34.35,0,8.05,-0.02
df_cut_4_n1_opt_disp_struct_5.xyz,Nucleus 20H :,-0.561879,1.500165,-1.613817,30.3,34.45,30.09,26.35,40.44,22.66,18.89,-6.03,7.79,7.15,26.35,30.09,34.45,0,8.1,-0.08
df_cut_4_n1_opt_disp_struct_5.xyz,Nucleus 21H :,-3.040816,1.720907,-1.638839,29.86,32.79,27.87,28.91,37.84,25.4,23.2,-5.2,2.63,5.71,27.87,28.91,32.79,0,4.92,-0.58
df_cut_4_n1_opt_disp_struct_5.xyz,Nucleus 0C :,-4.355684,1.123424,0.370599,159.81,186.79,137.56,155.08,252.14,243.49,233.23,-111.0,-60.25,-78.18,137.56,155.08,186.79,0,49.23,-0.29
df_cut_4_n1_opt_disp_struct_5.xyz,Nucleus 1C :,-3.211788,0.241502,2.381456,35.47,174.7,-76.19,7.89,239.26,259.61,261.76,-64.63,-335.75,-253.86,-76.19,7.89,174.7,0,250.89,-0.33
df_cut_4_n1_opt_disp_struct_5.xyz,Nucleus 2C :,-0.733449,0.01944,2.405791,44.63,-67.03,42.87,158.05,265.32,258.73,244.41,-326.03,-221.13,-87.42,-67.03,42.87,158.05,0,225.08,-0.02
df_cut_4_n1_opt_disp_struct_5.xyz,Nucleus 3C :,1.343908,0.40828,-0.61975,46.86,-68.96,37.34,172.19,231.84,264.88,259.1,-326.7,-226.89,-61.67,-68.96,37.34,172.19,0,241.15,-0.12
df_cut_4_n1_opt_disp_struct_5.xyz,Nucleus 4C :,-2.362486,-4.249981,-1.5145,48.03,-66.89,175.37,35.62,221.98,257.92,265.03,-51.0,-320.44,-229.39,-66.89,35.62,175.37,0,242.26,-0.15
df_cut_4_n1_opt_disp_struct_5.xyz,Nucleus 5C :,-2.229559,-2.845298,-0.949264,46.6,-69.31,36.78,172.34,231.67,264.35,259.63,-327.54,-227.05,-61.25,-69.31,36.78,172.34,0,241.65,-0.12
df_cut_4_n1_opt_disp_struct_5.xyz,Nucleus 6C :,-1.043769,-2.465879,-0.73068,44.92,-66.47,41.32,159.9,265.6,257.97,243.07,-324.74,-222.59,-84.57,-66.47,41.32,159.9,0,226.37,-0.05
df_cut_4_n1_opt_disp_struct_5.xyz,Nucleus 15C :,-3.319937,-2.223734,-0.807756,159.41,120.65,166.53,191.06,251.99,228.78,225.07,-57.16,-65.77,-104.67,120.65,166.53,191.06,0,70.41,0.3
df_cut_4_n1_opt_disp_struct_5.xyz,Nucleus 16C :,-1.538097,-4.896835,-1.194186,3.05,-84.83,26.38,67.61,209.75,266.73,257.92,-343.02,-240.08,-142.14,-84.83,26.38,67.61,0,152.44,0.46
df_cut_4_n1_opt_disp_struct_5.xyz,Nucleus 17O :,-3.323109,-4.706197,-1.250847,-27.7,-265.56,-39.33,221.79,399.88,427.5,421.63,-676.8,-455.03,-200.3,-265.56,-39.33,221.79,0,487.35,-0.07
df_cut_4_n1_opt_disp_struct_5.xyz,Nucleus 18O :,-2.320672,-4.184578,-2.609759,-35.71,-276.92,-45.66,215.46,424.38,397.36,403.26,-691.72,-452.16,-188.23,-276.92,-45.66,215.46,0,492.38,-0.06
df_cut_4_n1_opt_disp_struct_6.xyz,Nucleus 7H :,1.004732,0.618235,0.399603,29.08,34.99,25.78,26.47,45.02,25.95,23.14,-12.09,1.89,3.31,25.78,26.47,34.99,0,9.21,-0.85
df_cut_4_n1_opt_disp_struct_6.xyz,Nucleus 8H :,-0.479139,0.82372,0.426466,28.91,33.72,28.36,24.65,27.7,33.55,39.47,-0.15,-5.22,-8.62,24.65,28.36,33.72,0,9.07,-0.18
df_cut_4_n1_opt_disp_struct_6.xyz,Nucleus 9H :,-1.139424,1.29359,-0.715278,24.06,28.45,22.39,21.35,45.98,30.89,31.36,-23.6,-2.47,-9.97,21.35,22.39,28.45,0,7.1,-0.71
df_cut_4_n1_opt_disp_struct_6.xyz,Nucleus 10H :,-2.52968,1.410024,-0.731269,24.05,27.08,23.64,21.42,45.92,29.84,16.01,-22.32,-2.81,5.49,21.42,23.64,27.08,0,5.66,-0.22
df_cut_4_n1_opt_disp_struct_6.xyz,Nucleus 11H :,-3.272787,1.055261,0.391918,24.08,21.68,23.69,26.88,7.66,43.89,31.29,-20.2,14.02,-4.41,21.68,23.69,26.88,0,5.2,-0.22
df_cut_4_n1_opt_disp_struct_6.xyz,Nucleus 12H :,-2.626124,0.579825,1.530644,24.02,27.06,23.59,21.4,46.15,29.53,14.28,-22.6,-2.51,7.19,21.4,23.59,27.06,0,5.66,-0.23
df_cut_4_n1_opt_disp_struct_6.xyz,Nucleus 13H :,-1.23522,0.460846,1.547455,24.04,28.37,22.4,21.35,45.85,30.73,29.5,-23.43,-2.41,-8.13,21.35,22.4,28.37,0,7.02,-0.7
df_cut_4_n1_opt_disp_struct_6.xyz,Nucleus 14H :,1.55352,1.498202,0.765691,28.99,33.74,28.53,24.7,27.64,33.99,40.0,0.09,-5.6,-9.14,24.7,28.53,33.74,0,9.04,-0.15
df_cut_4_n1_opt_disp_struct_6.xyz,Nucleus 19H :,1.284892,-0.237829,1.022092,30.28,34.29,30.21,26.34,38.74,27.48,19.41,-4.52,2.75,6.97,26.34,30.21,34.29,0,7.95,-0.03
df_cut_4_n1_opt_disp_struct_6.xyz,Nucleus 20H :,-0.561879,1.500165,-1.613817,30.28,34.37,30.08,26.39,40.29,22.54,18.2,-5.95,7.46,8.29,26.39,30.08,34.37,0,7.98,-0.08
df_cut_4_n1_opt_disp_struct_6.xyz,Nucleus 21H :,-3.040816,1.720907,-1.638839,29.83,32.69,27.89,28.92,37.73,25.44,22.57,-5.19,2.6,6.35,27.89,28.92,32.69,0,4.8,-0.57
df_cut_4_n1_opt_disp_struct_6.xyz,Nucleus 0C :,-4.355684,1.123424,0.370599,159.95,186.89,137.66,155.29,251.98,243.76,233.7,-110.55,-60.6,-78.44,137.66,155.29,186.89,0,49.23,-0.28
df_cut_4_n1_opt_disp_struct_6.xyz,Nucleus 1C :,-3.211788,0.241502,2.381456,35.57,174.72,-75.82,7.81,238.98,259.81,262.48,-64.34,-335.56,-254.65,-75.82,7.81,174.72,0,250.54,-0.33
df_cut_4_n1_opt_disp_struct_6.xyz,Nucleus 2C :,-0.733449,0.01944,2.405791,44.58,-66.99,42.46,158.26,265.72,259.17,244.39,-326.32,-222.25,-86.99,-66.99,42.46,158.26,0,225.25,-0.03
df_cut_4_n1_opt_disp_struct_6.xyz,Nucleus 3C :,1.343908,0.40828,-0.61975,46.68,-69.2,36.83,172.41,231.87,265.3,259.09,-327.08,-227.94,-61.2,-69.2,36.83,172.41,0,241.61,-0.12
df_cut_4_n1_opt_disp_struct_6.xyz,Nucleus 4C :,-2.38083,-4.484101,-1.60024,48.47,-66.25,175.5,36.16,222.02,257.91,265.26,-50.65,-320.05,-229.09,-66.25,36.16,175.5,0,241.75,-0.15
df_cut_4_n1_opt_disp_struct_6.xyz,Nucleus 5C :,-2.247903,-3.079418,-1.035004,46.45,-69.52,36.32,172.56,231.66,264.82,259.58,-327.88,-228.07,-60.75,-69.52,36.32,172.56,0,242.08,-0.13
df_cut_4_n1_opt_disp_struct_6.xyz,Nucleus 6C :,-1.062113,-2.699999,-0.816421,44.92,-66.35,41.04,160.08,265.93,258.47,243.15,-324.99,-223.57,-84.22,-66.35,41.04,160.08,0,226.43,-0.05
df_cut_4_n1_opt_disp_struct_6.xyz,Nucleus 15C :,-3.338281,-2.457854,-0.893496,159.41,120.72,166.63,190.89,251.74,228.3,224.17,-57.03,-65.23,-103.71,120.72,166.63,190.89,0,70.17,0.31
df_cut_4_n1_opt_disp_struct_6.xyz,Nucleus 16C :,-1.556441,-5.130955,-1.279927,2.97,-85.34,26.86,67.39,209.3,266.96,257.42,-342.92,-239.94,-141.92,-85.34,26.86,67.39,0,152.73,0.47
df_cut_4_n1_opt_disp_struct_6.xyz,Nucleus 17O :,-3.341453,-4.940317,-1.336587,-26.02,-261.79,-37.13,220.86,399.78,427.71,422.67,-673.06,-452.62,-202.55,-261.79,-37.13,220.86,0,482.65,-0.07
df_cut_4_n1_opt_disp_struct_6.xyz,Nucleus 18O :,-2.339016,-4.418698,-2.6955,-32.77,-271.89,-43.17,216.74,424.9,396.95,403.19,-686.13,-450.34,-186.88,-271.89,-43.17,216.74,0,488.63,-0.06
df_cut_4_n1_opt_disp_struct_7.xyz,Nucleus 7H :,1.004732,0.618235,0.399603,29.05,34.94,25.75,26.47,44.96,25.9,23.18,-12.02,1.86,3.28,25.75,26.47,34.94,0,9.19,-0.84
df_cut_4_n1_opt_disp_struct_7.xyz,Nucleus 8H :,-0.479139,0.82372,0.426466,28.91,33.77,28.37,24.59,27.77,33.38,39.6,-0.17,-5.29,-8.56,24.59,28.37,33.77,0,9.18,-0.18
df_cut_4_n1_opt_disp_struct_7.xyz,Nucleus 9H :,-1.139424,1.29359,-0.715278,24.02,28.46,22.3,21.31,45.99,30.93,31.28,-23.68,-2.56,-9.89,21.31,22.3,28.46,0,7.15,-0.72
df_cut_4_n1_opt_disp_struct_7.xyz,Nucleus 10H :,-2.52968,1.410024,-0.731269,24.01,27.09,23.57,21.36,45.9,29.88,16.06,-22.35,-2.83,5.37,21.36,23.57,27.09,0,5.73,-0.23
df_cut_4_n1_opt_disp_struct_7.xyz,Nucleus 11H :,-3.272787,1.055261,0.391918,24.08,21.61,23.69,26.93,7.86,43.88,31.29,-20.19,13.75,-4.36,21.61,23.69,26.93,0,5.32,-0.22
df_cut_4_n1_opt_disp_struct_7.xyz,Nucleus 12H :,-2.626124,0.579825,1.530644,23.98,27.07,23.52,21.35,46.12,29.58,14.35,-22.62,-2.53,7.05,21.35,23.52,27.07,0,5.72,-0.24
df_cut_4_n1_opt_disp_struct_7.xyz,Nucleus 13H :,-1.23522,0.460846,1.547455,24.0,28.38,22.32,21.31,45.85,30.85,29.38,-23.5,-2.49,-8.08,21.31,22.32,28.38,0,7.07,-0.71
df_cut_4_n1_opt_disp_struct_7.xyz,Nucleus 14H :,1.55352,1.498202,0.765691,28.99,33.78,28.54,24.64,27.73,33.82,40.08,0.04,-5.66,-9.05,24.64,28.54,33.78,0,9.14,-0.15
df_cut_4_n1_opt_disp_struct_7.xyz,Nucleus 19H :,1.284892,-0.237829,1.022092,30.26,34.23,30.18,26.37,38.77,27.17,19.09,-4.62,3.03,7.34,26.37,30.18,34.23,0,7.86,-0.03
df_cut_4_n1_opt_disp_struct_7.xyz,Nucleus 20H :,-0.561879,1.500165,-1.613817,30.26,34.3,30.06,26.41,40.19,22.47,17.58,-5.91,7.57,8.87,26.41,30.06,34.3,0,7.89,-0.08
df_cut_4_n1_opt_disp_struct_7.xyz,Nucleus 21H :,-3.040816,1.720907,-1.638839,29.81,32.6,27.91,28.93,37.65,25.54,21.99,-5.19,2.51,6.95,27.91,28.93,32.6,0,4.69,-0.56
df_cut_4_n1_opt_disp_struct_7.xyz,Nucleus 0C :,-4.355684,1.123424,0.370599,160.05,186.97,137.73,155.44,251.89,243.92,234.1,-110.12,-60.96,-78.68,137.73,155.44,186.97,0,49.24,-0.28
df_cut_4_n1_opt_disp_struct_7.xyz,Nucleus 1C :,-3.211788,0.241502,2.381456,35.59,174.71,-75.57,7.63,238.73,260.14,263.16,-64.11,-335.64,-255.51,-75.57,7.63,174.71,0,250.28,-0.34
df_cut_4_n1_opt_disp_struct_7.xyz,Nucleus 2C :,-0.733449,0.01944,2.405791,44.55,-66.92,42.12,158.44,266.16,259.45,244.29,-326.42,-223.28,-86.56,-66.92,42.12,158.44,0,225.36,-0.03
df_cut_4_n1_opt_disp_struct_7.xyz,Nucleus 3C :,1.343908,0.40828,-0.61975,46.57,-69.32,36.43,172.59,231.89,265.78,259.02,-327.27,-228.95,-60.77,-69.32,36.43,172.59,0,241.91,-0.13
df_cut_4_n1_opt_disp_struct_7.xyz,Nucleus 4C :,-2.399174,-4.718221,-1.685981,48.78,-65.8,175.61,36.52,222.55,257.76,265.74,-50.57,-319.95,-229.21,-65.8,36.52,175.61,0,241.41,-0.15
df_cut_4_n1_opt_disp_struct_7.xyz,Nucleus 5C :,-2.266247,-3.313538,-1.120744,46.36,-69.62,35.95,172.75,231.65,265.36,259.46,-328.03,-229.07,-60.3,-69.62,35.95,172.75,0,242.37,-0.13
df_cut_4_n1_opt_disp_struct_7.xyz,Nucleus 6C :,-1.080456,-2.934119,-0.902161,44.94,-66.21,40.8,160.24,266.32,258.81,243.15,-325.08,-224.51,-83.86,-66.21,40.8,160.24,0,226.45,-0.05
df_cut_4_n1_opt_disp_struct_7.xyz,Nucleus 15C :,-3.356624,-2.691974,-0.979237,159.41,120.8,166.71,190.73,251.53,228.25,223.63,-57.1,-64.95,-103.1,120.8,166.71,190.73,0,69.93,0.31
df_cut_4_n1_opt_disp_struct_7.xyz,Nucleus 16C :,-1.574785,-5.365075,-1.365667,2.91,-85.79,27.22,67.29,208.69,267.14,256.94,-342.82,-239.83,-141.41,-85.79,27.22,67.29,0,153.08,0.48
df_cut_4_n1_opt_disp_struct_7.xyz,Nucleus 17O :,-3.359796,-5.174436,-1.422327,-25.64,-260.41,-36.39,219.87,399.72,428.33,423.76,-672.14,-451.53,-205.08,-260.41,-36.39,219.87,0,480.28,-0.07
df_cut_4_n1_opt_disp_struct_7.xyz,Nucleus 18O :,-2.357359,-4.652818,-2.78124,-31.22,-269.16,-41.77,217.27,425.65,396.65,403.7,-683.24,-449.47,-186.94,-269.16,-41.77,217.27,0,486.43,-0.07
df_cut_4_n1_opt_disp_struct_8.xyz,Nucleus 7H :,1.004732,0.618235,0.399603,29.03,34.89,25.73,26.47,44.89,25.84,23.18,-11.94,1.85,3.28,25.73,26.47,34.89,0,9.16,-0.84
df_cut_4_n1_opt_disp_struct_8.xyz,Nucleus 8H :,-0.479139,0.82372,0.426466,28.91,33.81,28.39,24.54,27.8,33.24,39.69,-0.18,-5.32,-8.49,24.54,28.39,33.81,0,9.27,-0.17
df_cut_4_n1_opt_disp_struct_8.xyz,Nucleus 9H :,-1.139424,1.29359,-0.715278,24.0,28.48,22.24,21.27,45.98,30.86,31.29,-23.72,-2.62,-9.81,21.27,22.24,28.48,0,7.21,-0.73
df_cut_4_n1_opt_disp_struct_8.xyz,Nucleus 10H :,-2.52968,1.410024,-0.731269,23.98,27.1,23.52,21.31,45.87,29.94,16.11,-22.36,-2.86,5.25,21.31,23.52,27.1,0,5.79,-0.24
df_cut_4_n1_opt_disp_struct_8.xyz,Nucleus 11H :,-3.272787,1.055261,0.391918,24.07,21.54,23.69,26.97,8.03,43.87,31.32,-20.19,13.51,-4.36,21.54,23.69,26.97,0,5.43,-0.21
df_cut_4_n1_opt_disp_struct_8.xyz,Nucleus 12H :,-2.626124,0.579825,1.530644,23.95,27.08,23.48,21.3,46.08,29.65,14.42,-22.62,-2.58,6.91,21.3,23.48,27.08,0,5.78,-0.24
df_cut_4_n1_opt_disp_struct_8.xyz,Nucleus 13H :,-1.23522,0.460846,1.547455,23.98,28.4,22.27,21.26,45.84,30.95,29.28,-23.52,-2.55,-8.05,21.26,22.27,28.4,0,7.14,-0.72
df_cut_4_n1_opt_disp_struct_8.xyz,Nucleus 14H :,1.55352,1.498202,0.765691,28.98,33.81,28.56,24.58,40.13,33.67,27.79,-0.0,-5.69,-8.95,24.58,28.56,33.81,0,9.23,-0.14
df_cut_4_n1_opt_disp_struct_8.xyz,Nucleus 19H :,1.284892,-0.237829,1.022092,30.24,34.17,30.16,26.4,38.83,26.93,18.83,-4.73,3.25,7.63,26.4,30.16,34.17,0,7.77,-0.03
df_cut_4_n1_opt_disp_struct_8.xyz,Nucleus 20H :,-0.561879,1.500165,-1.613817,30.24,34.24,30.05,26.43,40.12,22.44,17.05,-5.9,7.6,9.41,26.43,30.05,34.24,0,7.81,-0.07
df_cut_4_n1_opt_disp_struct_8.xyz,Nucleus 21H :,-3.040816,1.720907,-1.638839,29.79,32.53,27.93,28.92,37.61,25.69,21.47,-5.23,2.38,7.47,27.93,28.92,32.53,0,4.6,-0.57
df_cut_4_n1_opt_disp_struct_8.xyz,Nucleus 0C :,-4.355684,1.123424,0.370599,160.12,187.03,137.77,155.56,251.85,244.01,234.43,-109.72,-61.31,-78.9,137.77,155.56,187.03,0,49.26,-0.28
df_cut_4_n1_opt_disp_struct_8.xyz,Nucleus 1C :,-3.211788,0.241502,2.381456,35.57,174.72,-75.42,7.4,238.52,260.42,263.75,-63.9,-335.76,-256.33,-75.42,7.4,174.72,0,250.14,-0.34
df_cut_4_n1_opt_disp_struct_8.xyz,Nucleus 2C :,-0.733449,0.01944,2.405791,44.53,-66.84,41.85,158.59,266.62,259.65,244.18,-326.48,-224.19,-86.18,-66.84,41.85,158.59,0,225.43,-0.04
df_cut_4_n1_opt_disp_struct_8.xyz,Nucleus 3C :,1.343908,0.40828,-0.61975,46.49,-69.37,36.09,172.75,231.92,266.28,258.95,-327.42,-229.87,-60.4,-69.37,36.09,172.75,0,242.12,-0.13
df_cut_4_n1_opt_disp_struct_8.xyz,Nucleus 4C :,-2.417517,-4.952341,-1.771721,48.98,-65.49,175.69,36.74,223.08,257.61,266.29,-50.57,-319.93,-229.54,-65.49,36.74,175.69,0,241.18,-0.15
df_cut_4_n1_opt_disp_struct_8.xyz,Nucleus 5C :,-2.28459,-3.547657,-1.206485,46.3,-69.65,35.64,172.9,231.67,265.9,259.36,-328.15,-229.97,-59.92,-69.65,35.64,172.9,0,242.55,-0.13
df_cut_4_n1_opt_disp_struct_8.xyz,Nucleus 6C :,-1.0988,-3.168238,-0.987901,44.97,-66.08,40.61,160.37,266.74,259.06,243.11,-325.13,-225.36,-83.53,-66.08,40.61,160.37,0,226.45,-0.06
df_cut_4_n1_opt_disp_struct_8.xyz,Nucleus 15C :,-3.374968,-2.926094,-1.064977,159.42,120.86,166.79,190.6,251.37,228.62,223.52,-57.35,-64.93,-102.97,120.86,166.79,190.6,0,69.74,0.32
df_cut_4_n1_opt_disp_struct_8.xyz,Nucleus 16C :,-1.593128,-5.599195,-1.451407,2.88,-86.15,27.5,67.28,207.93,267.24,256.49,-342.69,-239.68,-140.66,-86.15,27.5,67.28,0,153.43,0.48
df_cut_4_n1_opt_disp_struct_8.xyz,Nucleus 17O :,-3.37814,-5.408556,-1.508068,-25.84,-260.25,-36.35,219.07,399.71,429.32,424.71,-672.71,-451.1,-207.47,-260.25,-36.35,219.07,0,479.32,-0.07
df_cut_4_n1_opt_disp_struct_8.xyz,Nucleus 18O :,-2.375703,-4.886937,-2.866981,-30.43,-267.76,-41.06,217.53,426.52,396.43,404.1,-682.03,-449.15,-187.16,-267.76,-41.06,217.53,0,485.29,-0.07
df_cut_4_n1_opt_disp_struct_9.xyz,Nucleus 7H :,1.004732,0.618235,0.399603,29.01,34.85,25.71,26.47,44.82,25.77,23.16,-11.86,1.84,3.29,25.71,26.47,34.85,0,9.14,-0.83
df_cut_4_n1_opt_disp_struct_9.xyz,Nucleus 8H :,-0.479139,0.82372,0.426466,28.92,33.85,28.41,24.49,39.76,33.12,27.83,-0.18,-5.35,-8.44,24.49,28.41,33.85,0,9.36,-0.16
df_cut_4_n1_opt_disp_struct_9.xyz,Nucleus 9H :,-1.139424,1.29359,-0.715278,23.98,28.49,22.21,21.23,45.94,31.3,30.77,-23.71,-2.63,-9.74,21.23,22.21,28.49,0,7.26,-0.73
df_cut_4_n1_opt_disp_struct_9.xyz,Nucleus 10H :,-2.52968,1.410024,-0.731269,23.95,27.11,23.49,21.26,45.83,29.98,16.15,-22.34,-2.89,5.14,21.26,23.49,27.11,0,5.85,-0.24
df_cut_4_n1_opt_disp_struct_9.xyz,Nucleus 11H :,-3.272787,1.055261,0.391918,24.05,21.47,23.69,26.99,8.2,43.87,31.38,-20.18,13.29,-4.39,21.47,23.69,26.99,0,5.52,-0.2
df_cut_4_n1_opt_disp_struct_9.xyz,Nucleus 12H :,-2.626124,0.579825,1.530644,23.93,27.1,23.45,21.25,46.03,29.71,14.48,-22.59,-2.63,6.79,21.25,23.45,27.1,0,5.85,-0.25
df_cut_4_n1_opt_disp_struct_9.xyz,Nucleus 13H :,-1.23522,0.460846,1.547455,23.96,28.42,22.24,21.22,45.8,31.01,29.18,-23.52,-2.59,-8.01,21.22,22.24,28.42,0,7.2,-0.72
df_cut_4_n1_opt_disp_struct_9.xyz,Nucleus 14H :,1.55352,1.498202,0.765691,28.98,33.84,28.57,24.53,40.17,33.54,27.83,-0.03,-5.71,-8.87,24.53,28.57,33.84,0,9.31,-0.13
df_cut_4_n1_opt_disp_struct_9.xyz,Nucleus 19H :,1.284892,-0.237829,1.022092,30.23,34.13,30.13,26.42,38.91,26.74,18.62,-4.86,3.41,7.87,26.42,30.13,34.13,0,7.71,-0.04
df_cut_4_n1_opt_disp_struct_9.xyz,Nucleus 20H :,-0.561879,1.500165,-1.613817,30.22,34.18,30.04,26.45,40.09,22.43,16.61,-5.92,7.6,9.87,26.45,30.04,34.18,0,7.73,-0.07
df_cut_4_n1_opt_disp_struct_9.xyz,Nucleus 21H :,-3.040816,1.720907,-1.638839,29.78,32.46,27.95,28.92,37.58,25.89,21.04,-5.28,2.2,7.9,27.95,28.92,32.46,0,4.51,-0.57
df_cut_4_n1_opt_disp_struct_9.xyz,Nucleus 0C :,-4.355684,1.123424,0.370599,160.17,187.08,137.79,155.65,251.86,244.05,234.74,-109.36,-61.65,-79.11,137.79,155.65,187.08,0,49.29,-0.28
df_cut_4_n1_opt_disp_struct_9.xyz,Nucleus 1C :,-3.211788,0.241502,2.381456,35.52,174.72,-75.31,7.14,238.35,260.77,264.27,-63.73,-335.99,-257.12,-75.31,7.14,174.72,0,250.03,-0.34
df_cut_4_n1_opt_disp_struct_9.xyz,Nucleus 2C :,-0.733449,0.01944,2.405791,44.52,-66.77,41.62,158.71,267.05,259.71,244.03,-326.43,-224.98,-85.83,-66.77,41.62,158.71,0,225.48,-0.04
df_cut_4_n1_opt_disp_struct_9.xyz,Nucleus 3C :,1.343908,0.40828,-0.61975,46.43,-69.4,35.8,172.88,231.93,266.73,258.86,-327.5,-230.67,-60.08,-69.4,35.8,172.88,0,242.28,-0.13
df_cut_4_n1_opt_disp_struct_9.xyz,Nucleus 4C :,-2.435861,-5.186461,-1.857462,49.13,-65.26,175.77,36.88,223.68,257.45,266.85,-50.58,-320.03,-229.96,-65.26,36.88,175.77,0,241.03,-0.15
df_cut_4_n1_opt_disp_struct_9.xyz,Nucleus 5C :,-2.302934,-3.781777,-1.292225,46.25,-69.67,35.38,173.03,231.66,266.39,259.24,-328.2,-230.77,-59.59,-69.67,35.38,173.03,0,242.7,-0.13
df_cut_4_n1_opt_disp_struct_9.xyz,Nucleus 6C :,-1.117144,-3.402358,-1.073642,44.98,-65.98,40.45,160.48,267.17,259.18,243.02,-325.1,-226.11,-83.22,-65.98,40.45,160.48,0,226.46,-0.06
df_cut_4_n1_opt_disp_struct_9.xyz,Nucleus 15C :,-3.393312,-3.160214,-1.150718,159.42,120.9,166.89,190.48,251.26,229.25,223.77,-103.24,-65.09,-57.67,120.9,166.89,190.48,0,69.58,0.32
df_cut_4_n1_opt_disp_struct_9.xyz,Nucleus 16C :,-1.611472,-5.833315,-1.537148,2.85,-86.45,27.72,67.27,207.1,267.27,256.09,-342.56,-239.52,-139.84,-86.45,27.72,67.27,0,153.72,0.49
df_cut_4_n1_opt_disp_struct_9.xyz,Nucleus 17O :,-3.396484,-5.642676,-1.593808,-26.32,-260.85,-36.62,218.5,399.72,425.53,430.59,-674.24,-450.97,-209.59,-260.85,-36.62,218.5,0,479.35,-0.06
df_cut_4_n1_opt_disp_struct_9.xyz,Nucleus 18O :,-2.394047,-5.121057,-2.952721,-30.07,-267.16,-40.7,217.64,427.48,396.24,403.99,-681.9,-449.07,-186.97,-267.16,-40.7,217.64,0,484.8,-0.07
dw_cut_4_n1_1f_opt.xyz,Nucleus 1H :,0.968697,-0.048796,-1.316757,29.37,34.97,24.12,29.01,39.72,25.25,27.48,3.09,-4.91,-2.52,24.12,29.01,34.97,0,10.85,-0.1
dw_cut_4_n1_1f_opt.xyz,Nucleus 2H :,1.717455,0.636891,-1.730257,28.21,33.97,24.0,26.66,41.98,20.51,27.72,-9.47,4.89,-1.01,24.0,26.66,33.97,0,9.97,-0.47
dw_cut_4_n1_1f_opt.xyz,Nucleus 6H :,1.24425,-1.070153,-1.616042,25.88,17.66,26.68,33.31,16.48,32.13,46.28,-13.75,-5.23,1.76,17.66,26.68,33.31,0,15.65,0.15
dw_cut_4_n1_1f_opt.xyz,Nucleus 12H :,0.894166,0.081254,0.161887,25.91,21.62,27.54,28.57,46.61,20.86,32.42,-20.46,2.16,-3.85,21.62,27.54,28.57,0,6.95,0.7
dw_cut_4_n1_1f_opt.xyz,Nucleus 14H :,1.681204,0.896116,0.952223,23.69,21.97,25.09,24.0,8.71,42.01,40.78,13.27,-17.08,-16.63,21.97,24.0,25.09,0,3.12,0.3
dw_cut_4_n1_1f_opt.xyz,Nucleus 16H :,1.299822,0.732245,2.256423,25.83,21.1,28.85,27.53,12.65,34.98,47.11,9.65,-6.18,-20.72,21.1,27.53,28.85,0,7.75,0.66
dw_cut_4_n1_1f_opt.xyz,Nucleus 17H :,1.670119,1.237253,3.038951,25.33,22.18,26.53,27.27,44.7,28.04,29.98,-18.17,-6.3,-2.28,22.18,26.53,27.27,0,5.09,0.71
dw_cut_4_n1_1f_opt.xyz,Nucleus 18H :,0.270312,-0.175535,2.34071,28.42,34.6,27.41,23.25,40.73,25.31,30.23,-8.99,1.41,-3.44,23.25,27.41,34.6,0,11.35,-0.27
dw_cut_4_n1_1f_opt.xyz,Nucleus 23H :,-0.009343,-0.600735,1.039563,30.17,34.3,27.9,28.32,38.05,22.07,23.6,-3.94,6.38,4.36,27.9,28.32,34.3,0,6.4,-0.87
dw_cut_4_n1_1f_opt.xyz,Nucleus 24H :,-1.042849,-1.541695,0.862145,30.46,25.05,35.32,31.0,39.11,15.9,29.1,-3.89,9.25,1.9,25.05,31.0,35.32,0,10.27,0.16
dw_cut_4_n1_1f_opt.xyz,Nucleus 25H :,-1.360604,-1.98594,-0.362953,30.24,35.32,30.08,25.32,40.77,21.59,20.58,-5.54,8.98,4.34,25.32,30.08,35.32,0,10.0,-0.05
dw_cut_4_n1_1f_opt.xyz,Nucleus 0C :,-1.753658,-2.027756,1.960702,168.7,185.38,161.45,159.27,252.38,233.9,236.92,-76.89,-73.82,-66.38,159.27,161.45,185.38,0,26.11,-0.83
dw_cut_4_n1_1f_opt.xyz,Nucleus 3C :,-2.506487,-2.792931,1.797383,68.98,151.81,62.94,-7.8,239.44,261.71,271.29,-89.09,-205.67,-270.74,-7.8,62.94,151.81,0,159.61,-0.11
dw_cut_4_n1_1f_opt.xyz,Nucleus 4C :,-1.448346,-1.584534,3.245059,68.9,-7.97,125.04,89.64,250.06,271.58,265.58,-273.49,-131.27,-175.76,-7.97,89.64,125.04,0,133.01,0.47
dw_cut_4_n1_1f_opt.xyz,Nucleus 7C :,-1.96903,-2.010158,4.095453,52.53,136.5,-20.57,41.65,257.63,270.49,265.42,-129.42,-283.18,-223.37,-20.57,41.65,136.5,0,157.07,-0.21
dw_cut_4_n1_1f_opt.xyz,Nucleus 8C :,-0.430174,-0.648507,3.459174,54.04,161.39,12.39,-11.66,228.72,254.03,240.71,-71.2,-231.96,-258.18,-11.66,12.39,161.39,0,173.05,-0.72
dw_cut_4_n1_1f_opt.xyz,Nucleus 9C :,-0.145898,-0.359562,4.466886,28.09,-42.33,31.8,94.8,228.53,255.59,260.41,-142.48,-216.87,-300.92,-42.33,31.8,94.8,0,137.13,0.08
dw_cut_4_n1_1f_opt.xyz,Nucleus 11C :,2.482154,1.566707,0.672443,79.17,-4.23,161.56,80.17,244.98,258.1,272.2,-83.98,-267.51,-186.29,-4.23,80.17,161.56,0,165.79,0.02
dw_cut_4_n1_1f_opt.xyz,Nucleus 13C :,0.006875,0.170933,-1.795896,58.47,168.77,57.56,-50.92,279.57,221.02,250.43,-55.34,-221.6,-298.67,-50.92,57.56,168.77,0,219.69,-0.01
dw_cut_4_n1_1f_opt.xyz,Nucleus 15C :,2.103497,-3.860183,2.318659,83.52,169.88,81.34,-0.65,242.42,268.11,264.01,-73.16,-186.35,-264.45,-0.65,81.34,169.88,0,170.53,-0.04
dw_cut_4_n1_1f_opt.xyz,Nucleus 19C :,1.024735,-2.794591,2.235232,156.62,118.41,193.4,158.04,255.69,230.68,226.21,-107.91,-58.3,-76.52,118.41,158.04,193.4,0,74.99,0.06
dw_cut_4_n1_1f_opt.xyz,Nucleus 20C :,0.1151,-2.894351,3.108196,10.19,-95.41,108.5,17.47,205.3,261.67,269.75,-97.3,-361.02,-247.85,-95.41,17.47,108.5,0,203.91,0.11
dw_cut_4_n1_1f_opt.xyz,Nucleus 5N :,1.170436,-1.936656,1.320808,136.77,89.95,167.09,153.26,296.95,335.36,325.24,-234.9,-131.59,-180.78,89.95,153.26,167.09,0,77.14,0.64
dw_cut_4_n1_1f_opt.xyz,Nucleus 21O :,1.754477,-4.751627,1.78117,-183.67,-622.17,-64.67,135.83,449.36,392.66,418.85,-1067.75,-461.1,-283.02,-622.17,-64.67,135.83,0,758.0,0.47
dw_cut_4_n1_1f_opt.xyz,Nucleus 22O :,3.043314,-3.540052,1.853975,-174.43,-579.66,-46.3,102.66,444.0,413.04,399.69,-1019.75,-454.45,-305.83,-579.66,-46.3,102.66,0,682.32,0.56
dw_cut_4_n1_1f_opt.xyz,Nucleus 10F :,2.279286,-4.156206,3.358042,348.33,401.91,308.05,335.03,489.61,458.08,469.67,-68.5,-141.99,-161.89,308.05,335.03,401.91,0,93.86,-0.43
dw_cut_4_n1_1f_opt_disp_struct_0.xyz,Nucleus 1H :,0.968697,-0.048796,-1.316757,29.43,35.2,23.98,29.1,39.98,25.81,28.08,2.61,-5.34,-2.87,23.98,29.1,35.2,0,11.22,-0.09
dw_cut_4_n1_1f_opt_disp_struct_0.xyz,Nucleus 2H :,1.717455,0.636891,-1.730257,28.29,33.89,24.02,26.95,43.1,21.21,27.56,-10.71,4.49,-0.79,24.02,26.95,33.89,0,9.87,-0.41
dw_cut_4_n1_1f_opt_disp_struct_0.xyz,Nucleus 6H :,1.24425,-1.070153,-1.616042,25.37,17.43,26.07,32.61,16.49,32.07,47.1,-15.16,1.37,-5.76,17.43,26.07,32.61,0,15.18,0.14
dw_cut_4_n1_1f_opt_disp_struct_0.xyz,Nucleus 12H :,0.894166,0.081254,0.161887,25.43,21.59,26.46,28.23,47.2,19.68,32.68,-21.61,2.8,-4.47,21.59,26.46,28.23,0,6.64,0.47
dw_cut_4_n1_1f_opt_disp_struct_0.xyz,Nucleus 14H :,1.681204,0.896116,0.952223,23.79,21.49,25.79,24.1,6.37,42.03,40.17,15.19,-14.56,-17.81,21.49,24.1,25.79,0,4.3,0.22
dw_cut_4_n1_1f_opt_disp_struct_0.xyz,Nucleus 16H :,1.299822,0.732245,2.256423,25.28,20.87,28.45,26.51,11.26,35.0,47.6,10.33,-6.62,-21.73,20.87,26.51,28.45,0,7.58,0.49
dw_cut_4_n1_1f_opt_disp_struct_0.xyz,Nucleus 17H :,1.670119,1.237253,3.038951,25.13,21.91,26.27,27.2,44.83,28.5,30.63,-18.55,-7.11,-2.91,21.91,26.27,27.2,0,5.29,0.65
dw_cut_4_n1_1f_opt_disp_struct_0.xyz,Nucleus 18H :,0.270312,-0.175535,2.34071,28.61,34.73,27.65,23.46,41.16,25.92,31.25,-9.67,1.09,-3.91,23.46,27.65,34.73,0,11.27,-0.26
dw_cut_4_n1_1f_opt_disp_struct_0.xyz,Nucleus 23H :,-0.009343,-0.600735,1.039563,30.18,34.16,28.32,28.05,38.2,21.9,22.41,-4.28,6.47,5.84,28.05,28.32,34.16,0,6.11,-0.91
dw_cut_4_n1_1f_opt_disp_struct_0.xyz,Nucleus 24H :,-1.042849,-1.541695,0.862145,30.63,35.26,25.64,30.98,38.95,15.44,28.73,10.27,-3.79,2.28,25.64,30.98,35.26,0,9.62,0.11
dw_cut_4_n1_1f_opt_disp_struct_0.xyz,Nucleus 25H :,-1.360604,-1.98594,-0.362953,30.42,35.3,30.08,25.87,40.84,20.81,19.29,-5.66,9.54,6.42,25.87,30.08,35.3,0,9.43,-0.11
dw_cut_4_n1_1f_opt_disp_struct_0.xyz,Nucleus 0C :,-1.753658,-2.027756,1.960702,168.83,185.84,161.39,159.26,253.24,235.19,237.97,-77.97,-75.5,-66.44,159.26,161.39,185.84,0,26.58,-0.84
dw_cut_4_n1_1f_opt_disp_struct_0.xyz,Nucleus 3C :,-2.506487,-2.792931,1.797383,63.49,149.93,55.72,-15.18,240.24,261.29,272.08,-91.08,-214.21,-277.85,-15.18,55.72,149.93,0,165.11,-0.14
dw_cut_4_n1_1f_opt_disp_struct_0.xyz,Nucleus 4C :,-1.448346,-1.584534,3.245059,66.05,-13.72,125.42,86.45,252.05,272.7,266.65,-280.46,-132.79,-180.0,-13.72,86.45,125.42,0,139.14,0.44
dw_cut_4_n1_1f_opt_disp_struct_0.xyz,Nucleus 7C :,-1.96903,-2.010158,4.095453,43.43,136.35,-33.17,27.12,257.63,274.68,269.47,-133.7,-300.56,-237.21,-33.17,27.12,136.35,0,169.52,-0.29
dw_cut_4_n1_1f_opt_disp_struct_0.xyz,Nucleus 8C :,-0.430174,-0.648507,3.459174,48.56,163.15,3.44,-20.92,232.59,249.33,258.71,-70.75,-249.36,-274.85,-20.92,3.44,163.15,0,184.07,-0.74
dw_cut_4_n1_1f_opt_disp_struct_0.xyz,Nucleus 9C :,-0.145898,-0.359562,4.466886,17.74,-55.46,29.2,79.49,232.34,257.43,262.93,-154.88,-227.19,-317.39,-55.46,29.2,79.49,0,134.95,0.25
dw_cut_4_n1_1f_opt_disp_struct_0.xyz,Nucleus 11C :,2.482154,1.566707,0.672443,73.88,162.11,-10.55,70.09,244.7,260.83,274.04,-83.48,-276.22,-198.21,-10.55,70.09,162.11,0,172.66,-0.07
dw_cut_4_n1_1f_opt_disp_struct_0.xyz,Nucleus 13C :,0.006875,0.170933,-1.795896,50.71,170.15,45.22,-63.25,278.91,222.06,249.55,-52.21,-233.4,-312.78,-63.25,45.22,170.15,0,233.4,-0.07
dw_cut_4_n1_1f_opt_disp_struct_0.xyz,Nucleus 15C :,2.268825,-4.046011,2.343851,76.08,169.73,68.83,-10.31,243.55,272.11,264.55,-74.67,-202.4,-274.89,-10.31,68.83,169.73,0,180.04,-0.12
dw_cut_4_n1_1f_opt_disp_struct_0.xyz,Nucleus 19C :,1.190063,-2.980418,2.260425,158.43,119.77,193.35,162.17,255.45,230.16,224.47,-104.92,-57.12,-72.74,119.77,162.17,193.35,0,73.58,0.15
dw_cut_4_n1_1f_opt_disp_struct_0.xyz,Nucleus 20C :,0.280428,-3.080178,3.133388,8.47,-83.74,90.62,18.54,201.82,259.39,267.94,-111.5,-347.53,-244.7,-83.74,18.54,90.62,0,174.36,0.17
dw_cut_4_n1_1f_opt_disp_struct_0.xyz,Nucleus 5N :,1.335765,-2.122484,1.346,130.95,78.5,166.46,147.88,298.63,336.49,327.28,-132.79,-188.23,-248.54,78.5,147.88,166.46,0,87.96,0.58
dw_cut_4_n1_1f_opt_disp_struct_0.xyz,Nucleus 21O :,1.919806,-4.937454,1.806363,-125.89,-479.29,-58.26,159.89,394.79,426.84,436.26,-912.54,-455.88,-267.13,-479.29,-58.26,159.89,0,639.18,0.32
dw_cut_4_n1_1f_opt_disp_struct_0.xyz,Nucleus 22O :,3.208642,-3.72588,1.879167,-122.83,-454.0,-59.94,145.46,402.11,420.62,442.16,-888.24,-470.21,-274.92,-454.0,-59.94,145.46,0,599.46,0.31
dw_cut_4_n1_1f_opt_disp_struct_0.xyz,Nucleus 10F :,2.444615,-4.342034,3.383235,329.66,398.37,273.96,316.65,459.12,470.74,489.6,-72.28,-185.67,-172.53,273.96,316.65,398.37,0,124.41,-0.31
dw_cut_4_n1_1f_opt_disp_struct_1.xyz,Nucleus 1H :,0.968697,-0.048796,-1.316757,29.46,35.33,23.93,29.12,40.24,26.43,28.53,1.94,-5.88,-2.9,23.93,29.12,35.33,0,11.4,-0.09
dw_cut_4_n1_1f_opt_disp_struct_1.xyz,Nucleus 2H :,1.717455,0.636891,-1.730257,28.33,33.9,23.98,27.12,43.91,22.23,27.44,-11.51,3.62,-0.7,23.98,27.12,33.9,0,9.92,-0.37
dw_cut_4_n1_1f_opt_disp_struct_1.xyz,Nucleus 6H :,1.24425,-1.070153,-1.616042,25.06,17.24,25.74,32.19,47.92,16.48,31.82,-16.36,1.18,-5.86,17.24,25.74,32.19,0,14.95,0.14
dw_cut_4_n1_1f_opt_disp_struct_1.xyz,Nucleus 12H :,0.894166,0.081254,0.161887,25.1,21.51,25.81,27.99,47.65,18.78,32.7,-22.41,3.36,-4.77,21.51,25.81,27.99,0,6.48,0.33
dw_cut_4_n1_1f_opt_disp_struct_1.xyz,Nucleus 14H :,1.681204,0.896116,0.952223,23.93,21.21,26.24,24.34,4.88,42.72,38.3,16.42,-12.14,-18.41,21.21,24.34,26.24,0,5.03,0.24
dw_cut_4_n1_1f_opt_disp_struct_1.xyz,Nucleus 16H :,1.299822,0.732245,2.256423,24.93,20.67,28.19,25.93,10.27,34.43,47.97,10.87,-6.3,-22.46,20.67,25.93,28.19,0,7.52,0.4
dw_cut_4_n1_1f_opt_disp_struct_1.xyz,Nucleus 17H :,1.670119,1.237253,3.038951,25.0,21.75,26.12,27.13,44.92,28.87,31.13,-18.78,-7.52,-3.63,21.75,26.12,27.13,0,5.38,0.62
dw_cut_4_n1_1f_opt_disp_struct_1.xyz,Nucleus 18H :,0.270312,-0.175535,2.34071,28.74,34.85,27.78,23.6,41.62,26.58,32.04,-10.23,0.57,-4.35,23.6,27.78,34.85,0,11.25,-0.26
dw_cut_4_n1_1f_opt_disp_struct_1.xyz,Nucleus 23H :,-0.009343,-0.600735,1.039563,30.12,33.96,28.51,27.88,38.2,21.13,21.67,-4.51,7.34,6.51,27.88,28.51,33.96,0,6.08,-0.79
dw_cut_4_n1_1f_opt_disp_struct_1.xyz,Nucleus 24H :,-1.042849,-1.541695,0.862145,30.63,35.15,25.87,30.88,38.8,15.08,28.14,10.86,-3.77,2.8,25.87,30.88,35.15,0,9.28,0.08
dw_cut_4_n1_1f_opt_disp_struct_1.xyz,Nucleus 25H :,-1.360604,-1.98594,-0.362953,30.44,35.16,30.04,26.12,40.76,20.2,17.67,-5.69,8.32,10.08,26.12,30.04,35.16,0,9.04,-0.13
dw_cut_4_n1_1f_opt_disp_struct_1.xyz,Nucleus 0C :,-1.753658,-2.027756,1.960702,168.99,186.15,161.54,159.28,254.04,239.14,236.31,-79.01,-77.16,-66.35,159.28,161.54,186.15,0,26.87,-0.83
dw_cut_4_n1_1f_opt_disp_struct_1.xyz,Nucleus 3C :,-2.506487,-2.792931,1.797383,61.68,149.74,52.71,-17.4,240.82,261.39,273.47,-91.65,-218.52,-280.45,-17.4,52.71,149.74,0,167.14,-0.16
dw_cut_4_n1_1f_opt_disp_struct_1.xyz,Nucleus 4C :,-1.448346,-1.584534,3.245059,64.41,-16.82,125.79,84.25,253.93,273.51,266.45,-283.99,-133.42,-183.26,-16.82,84.25,125.79,0,142.61,0.42
dw_cut_4_n1_1f_opt_disp_struct_1.xyz,Nucleus 7C :,-1.96903,-2.010158,4.095453,39.2,136.48,-39.7,20.81,258.75,277.24,272.27,-136.51,-310.57,-243.61,-39.7,20.81,136.48,0,176.18,-0.31
dw_cut_4_n1_1f_opt_disp_struct_1.xyz,Nucleus 8C :,-0.430174,-0.648507,3.459174,49.96,163.57,5.23,-18.92,233.66,256.57,261.39,-70.57,-253.98,-277.18,-18.92,5.23,163.57,0,182.49,-0.74
dw_cut_4_n1_1f_opt_disp_struct_1.xyz,Nucleus 9C :,-0.145898,-0.359562,4.466886,12.98,-63.61,26.96,75.58,234.76,260.53,265.48,-159.6,-233.6,-328.64,-63.61,26.96,75.58,0,139.19,0.3
dw_cut_4_n1_1f_opt_disp_struct_1.xyz,Nucleus 11C :,2.482154,1.566707,0.672443,71.4,162.62,-13.92,65.5,243.0,263.82,274.54,-81.76,-281.3,-204.1,-13.92,65.5,162.62,0,176.54,-0.1
dw_cut_4_n1_1f_opt_disp_struct_1.xyz,Nucleus 13C :,0.006875,0.170933,-1.795896,48.53,170.85,40.47,-65.73,218.41,277.59,251.7,-47.72,-236.92,-317.47,-65.73,40.47,170.85,0,236.58,-0.1
dw_cut_4_n1_1f_opt_disp_struct_1.xyz,Nucleus 15C :,2.434154,-4.231838,2.369043,72.64,170.04,63.22,-15.35,243.11,273.48,266.2,-74.39,-209.08,-281.42,-15.35,63.22,170.04,0,185.39,-0.15
dw_cut_4_n1_1f_opt_disp_struct_1.xyz,Nucleus 19C :,1.355392,-3.166245,2.285617,159.17,120.29,193.01,164.22,255.03,228.69,222.36,-102.31,-56.05,-70.19,120.29,164.22,193.01,0,72.72,0.21
dw_cut_4_n1_1f_opt_disp_struct_1.xyz,Nucleus 20C :,0.445757,-3.266005,3.15858,5.91,-81.47,79.22,19.97,199.74,257.79,266.6,-120.69,-344.02,-241.7,-81.47,19.97,79.22,0,160.69,0.26
dw_cut_4_n1_1f_opt_disp_struct_1.xyz,Nucleus 5N :,1.501094,-2.308311,1.371192,127.53,72.06,166.75,143.77,299.62,337.12,328.79,-133.18,-193.1,-256.67,72.06,143.77,166.75,0,94.69,0.51
dw_cut_4_n1_1f_opt_disp_struct_1.xyz,Nucleus 21O :,2.085135,-5.123282,1.831555,-85.07,184.56,-58.66,-381.1,396.82,423.24,429.03,-804.38,-458.16,-241.74,-381.1,-58.66,184.56,0,565.66,0.14
dw_cut_4_n1_1f_opt_disp_struct_1.xyz,Nucleus 22O :,3.373971,-3.911707,1.904359,-79.77,-359.41,-62.18,182.28,400.83,420.74,436.78,-782.65,-476.29,-238.73,-359.41,-62.18,182.28,0,541.69,0.1
dw_cut_4_n1_1f_opt_disp_struct_1.xyz,Nucleus 10F :,2.609943,-4.527861,3.408427,319.73,398.03,254.31,306.85,460.14,471.48,489.5,-73.25,-206.05,-182.61,254.31,306.85,398.03,0,143.72,-0.27
dw_cut_4_n1_1f_opt_disp_struct_10.xyz,Nucleus 1H :,0.968697,-0.048796,-1.316757,29.33,35.24,23.74,29.02,40.47,27.33,29.21,-6.5,0.22,-2.74,23.74,29.02,35.24,0,11.5,-0.08
dw_cut_4_n1_1f_opt_disp_struct_10.xyz,Nucleus 2H :,1.717455,0.636891,-1.730257,28.35,34.28,23.81,26.95,44.94,24.47,26.87,-11.83,2.18,-1.6,23.81,26.95,34.28,0,10.47,-0.4
dw_cut_4_n1_1f_opt_disp_struct_10.xyz,Nucleus 6H :,1.24425,-1.070153,-1.616042,24.34,16.64,25.19,31.2,49.36,15.32,30.6,-18.58,1.57,-5.25,16.64,25.19,31.2,0,14.56,0.18
dw_cut_4_n1_1f_opt_disp_struct_10.xyz,Nucleus 12H :,0.894166,0.081254,0.161887,24.47,20.92,24.75,27.74,47.27,17.82,30.56,-22.46,3.18,-2.96,20.92,24.75,27.74,0,6.82,0.12
dw_cut_4_n1_1f_opt_disp_struct_10.xyz,Nucleus 14H :,1.681204,0.896116,0.952223,24.03,20.4,26.99,24.71,4.74,31.97,43.81,15.7,-5.02,-19.1,20.4,24.71,26.99,0,6.59,0.31
dw_cut_4_n1_1f_opt_disp_struct_10.xyz,Nucleus 16H :,1.299822,0.732245,2.256423,24.34,20.02,27.93,25.07,9.24,31.07,47.49,10.87,-3.17,-22.48,20.02,25.07,27.93,0,7.91,0.28
dw_cut_4_n1_1f_opt_disp_struct_10.xyz,Nucleus 17H :,1.670119,1.237253,3.038951,24.56,21.21,25.5,26.98,44.92,28.74,31.25,-19.28,-7.49,-4.45,21.21,25.5,26.98,0,5.77,0.49
dw_cut_4_n1_1f_opt_disp_struct_10.xyz,Nucleus 18H :,0.270312,-0.175535,2.34071,28.86,34.88,27.91,23.79,42.53,27.73,32.79,-0.31,-10.62,-5.54,23.79,27.91,34.88,0,11.09,-0.26
dw_cut_4_n1_1f_opt_disp_struct_10.xyz,Nucleus 23H :,-0.009343,-0.600735,1.039563,29.81,32.71,28.82,27.9,16.0,23.46,37.47,12.8,4.73,-5.02,27.9,28.82,32.71,0,4.81,-0.62
dw_cut_4_n1_1f_opt_disp_struct_10.xyz,Nucleus 24H :,-1.042849,-1.541695,0.862145,30.33,34.3,26.32,30.36,38.76,13.96,25.54,-4.66,12.41,4.96,26.32,30.36,34.3,0,7.98,0.01
dw_cut_4_n1_1f_opt_disp_struct_10.xyz,Nucleus 25H :,-1.360604,-1.98594,-0.362953,30.16,34.04,30.01,26.44,39.53,20.08,12.33,-5.53,9.91,14.18,26.44,30.01,34.04,0,7.6,-0.06
dw_cut_4_n1_1f_opt_disp_struct_10.xyz,Nucleus 0C :,-1.753658,-2.027756,1.960702,169.9,186.31,163.25,160.13,255.93,241.64,237.31,-67.66,-79.74,-77.79,160.13,163.25,186.31,0,26.18,-0.76
dw_cut_4_n1_1f_opt_disp_struct_10.xyz,Nucleus 3C :,-2.506487,-2.792931,1.797383,62.28,149.24,53.35,-15.76,240.52,273.27,262.4,-91.32,-219.58,-278.47,-15.76,53.35,149.24,0,165.0,-0.16
dw_cut_4_n1_1f_opt_disp_struct_10.xyz,Nucleus 4C :,-1.448346,-1.584534,3.245059,59.27,-24.64,126.96,75.5,255.72,265.03,273.59,-291.36,-132.34,-192.83,-24.64,75.5,126.96,0,151.6,0.32
dw_cut_4_n1_1f_opt_disp_struct_10.xyz,Nucleus 7C :,-1.96903,-2.010158,4.095453,37.38,136.41,-41.35,17.09,262.68,270.51,274.08,-132.5,-313.51,-249.11,-41.35,17.09,136.41,0,177.76,-0.34
dw_cut_4_n1_1f_opt_disp_struct_10.xyz,Nucleus 8C :,-0.430174,-0.648507,3.459174,59.67,162.76,20.36,-4.1,234.38,266.68,265.75,-71.71,-246.11,-269.98,-4.1,20.36,162.76,0,166.86,-0.71
dw_cut_4_n1_1f_opt_disp_struct_10.xyz,Nucleus 9C :,-0.145898,-0.359562,4.466886,11.3,-67.29,74.29,26.91,234.9,267.41,264.81,-333.84,-161.13,-238.24,-67.29,26.91,74.29,0,141.58,0.33
dw_cut_4_n1_1f_opt_disp_struct_10.xyz,Nucleus 11C :,2.482154,1.566707,0.672443,69.53,164.12,-16.23,60.7,239.52,265.74,270.45,-76.24,-282.12,-208.77,-16.23,60.7,164.12,0,180.35,-0.15
dw_cut_4_n1_1f_opt_disp_struct_10.xyz,Nucleus 13C :,0.006875,0.170933,-1.795896,51.57,171.93,41.61,-58.84,216.09,272.32,255.55,-44.26,-230.66,-314.35,-58.84,41.61,171.93,0,230.77,-0.13
dw_cut_4_n1_1f_opt_disp_struct_10.xyz,Nucleus 15C :,3.922112,-5.904284,2.595773,70.23,171.53,58.12,-18.97,243.45,271.31,265.88,-72.48,-211.94,-285.54,-18.97,58.12,171.53,0,190.5,-0.19
dw_cut_4_n1_1f_opt_disp_struct_10.xyz,Nucleus 19C :,2.84335,-4.838691,2.512347,159.53,121.02,190.85,166.72,252.06,225.4,216.73,-96.03,-54.53,-65.02,121.02,166.72,190.85,0,69.83,0.31
dw_cut_4_n1_1f_opt_disp_struct_10.xyz,Nucleus 20C :,1.933715,-4.938451,3.385311,2.85,-86.09,67.25,27.39,203.45,256.22,265.76,-136.22,-342.36,-238.29,-86.09,27.39,67.25,0,153.34,0.48
dw_cut_4_n1_1f_opt_disp_struct_10.xyz,Nucleus 5N :,2.989051,-3.980757,1.597922,120.34,59.59,168.39,133.04,298.5,337.61,330.25,-130.43,-204.24,-270.67,59.59,133.04,168.39,0,108.8,0.35
dw_cut_4_n1_1f_opt_disp_struct_10.xyz,Nucleus 21O :,3.573092,-6.795728,2.058285,-25.93,219.44,-36.76,-260.46,426.31,404.43,395.49,-185.94,-443.71,-674.36,-260.46,-36.76,219.44,0,479.9,-0.07
dw_cut_4_n1_1f_opt_disp_struct_10.xyz,Nucleus 22O :,4.861929,-5.584153,2.131089,-31.0,215.31,-264.62,-43.69,400.29,437.87,426.21,-221.46,-677.15,-458.75,-264.62,-43.69,215.31,0,479.93,-0.08
dw_cut_4_n1_1f_opt_disp_struct_10.xyz,Nucleus 10F :,4.097901,-6.200307,3.635157,304.82,397.18,226.77,290.52,487.25,469.02,461.46,-71.46,-235.13,-196.67,226.77,290.52,397.18,0,170.41,-0.25
dw_cut_4_n1_1f_opt_disp_struct_11.xyz,Nucleus 1H :,0.968697,-0.048796,-1.316757,29.32,35.23,23.72,29.0,40.43,27.26,29.19,-6.44,0.24,-2.73,23.72,29.0,35.23,0,11.51,-0.08
dw_cut_4_n1_1f_opt_disp_struct_11.xyz,Nucleus 2H :,1.717455,0.636891,-1.730257,28.35,34.33,23.8,26.93,44.9,24.42,26.79,-11.73,2.25,-1.56,23.8,26.93,34.33,0,10.53,-0.4
dw_cut_4_n1_1f_opt_disp_struct_11.xyz,Nucleus 6H :,1.24425,-1.070153,-1.616042,24.32,16.6,25.18,31.17,49.28,15.27,30.56,-18.5,1.54,-5.2,16.6,25.18,31.17,0,14.57,0.18
dw_cut_4_n1_1f_opt_disp_struct_11.xyz,Nucleus 12H :,0.894166,0.081254,0.161887,24.45,20.87,24.75,27.74,47.11,17.84,30.47,-22.3,3.11,-2.88,20.87,24.75,27.74,0,6.87,0.13
dw_cut_4_n1_1f_opt_disp_struct_11.xyz,Nucleus 14H :,1.681204,0.896116,0.952223,24.03,20.36,27.0,24.72,4.87,31.84,43.77,15.52,-4.87,-19.05,20.36,24.72,27.0,0,6.64,0.31
dw_cut_4_n1_1f_opt_disp_struct_11.xyz,Nucleus 16H :,1.299822,0.732245,2.256423,24.33,19.98,27.93,25.08,9.34,31.04,47.33,10.73,-3.14,-22.31,19.98,25.08,27.93,0,7.95,0.28
dw_cut_4_n1_1f_opt_disp_struct_11.xyz,Nucleus 17H :,1.670119,1.237253,3.038951,24.54,21.17,25.47,26.98,44.85,28.69,31.2,-19.23,-7.49,-4.4,21.17,25.47,26.98,0,5.81,0.48
dw_cut_4_n1_1f_opt_disp_struct_11.xyz,Nucleus 18H :,0.270312,-0.175535,2.34071,28.85,34.86,27.91,23.79,42.47,27.67,32.7,-0.26,-10.52,-5.5,23.79,27.91,34.86,0,11.07,-0.25
dw_cut_4_n1_1f_opt_disp_struct_11.xyz,Nucleus 23H :,-0.009343,-0.600735,1.039563,29.79,32.63,28.82,27.92,15.68,23.76,37.47,13.11,4.46,-5.1,27.92,28.82,32.63,0,4.71,-0.62
dw_cut_4_n1_1f_opt_disp_struct_11.xyz,Nucleus 24H :,-1.042849,-1.541695,0.862145,30.3,34.26,26.33,30.32,38.87,13.93,25.47,-4.81,12.47,4.99,26.33,30.32,34.26,0,7.93,0.01
dw_cut_4_n1_1f_opt_disp_struct_11.xyz,Nucleus 25H :,-1.360604,-1.98594,-0.362953,30.14,33.97,30.01,26.45,39.49,20.18,12.05,-5.58,9.82,14.47,26.45,30.01,33.97,0,7.52,-0.05
dw_cut_4_n1_1f_opt_disp_struct_11.xyz,Nucleus 0C :,-1.753658,-2.027756,1.960702,169.94,186.3,163.34,160.17,255.99,241.42,237.23,-67.75,-79.53,-77.57,160.17,163.34,186.3,0,26.13,-0.76
dw_cut_4_n1_1f_opt_disp_struct_11.xyz,Nucleus 3C :,-2.506487,-2.792931,1.797383,62.3,149.2,53.36,-15.65,240.37,272.83,262.37,-91.19,-219.17,-278.29,-15.65,53.36,149.2,0,164.85,-0.16
dw_cut_4_n1_1f_opt_disp_struct_11.xyz,Nucleus 4C :,-1.448346,-1.584534,3.245059,59.0,-25.02,127.0,75.02,255.43,265.16,273.49,-291.67,-132.25,-193.14,-25.02,75.02,127.0,0,152.02,0.32
dw_cut_4_n1_1f_opt_disp_struct_11.xyz,Nucleus 7C :,-1.96903,-2.010158,4.095453,37.47,136.38,-41.12,17.14,262.5,270.4,273.39,-131.98,-312.81,-249.1,-41.12,17.14,136.38,0,177.5,-0.34
dw_cut_4_n1_1f_opt_disp_struct_11.xyz,Nucleus 8C :,-0.430174,-0.648507,3.459174,59.83,162.73,20.68,-3.91,234.48,266.04,265.71,-71.82,-245.28,-269.64,-3.91,20.68,162.73,0,166.64,-0.7
dw_cut_4_n1_1f_opt_disp_struct_11.xyz,Nucleus 9C :,-0.145898,-0.359562,4.466886,11.39,-67.11,74.29,26.99,234.56,267.12,264.63,-333.31,-160.83,-238.01,-67.11,26.99,74.29,0,141.4,0.33
dw_cut_4_n1_1f_opt_disp_struct_11.xyz,Nucleus 11C :,2.482154,1.566707,0.672443,69.53,164.17,-16.17,60.59,239.35,265.29,270.3,-75.96,-281.64,-208.74,-16.17,60.59,164.17,0,180.34,-0.15
dw_cut_4_n1_1f_opt_disp_struct_11.xyz,Nucleus 13C :,0.006875,0.170933,-1.795896,51.67,171.97,41.66,-58.63,216.4,271.99,255.38,-44.47,-230.27,-314.02,-58.63,41.66,171.97,0,230.6,-0.13
dw_cut_4_n1_1f_opt_disp_struct_11.xyz,Nucleus 15C :,4.08744,-6.090111,2.620966,70.23,171.58,58.02,-18.91,243.25,271.3,265.39,-72.18,-211.95,-285.13,-18.91,58.02,171.58,0,190.49,-0.19
dw_cut_4_n1_1f_opt_disp_struct_11.xyz,Nucleus 19C :,3.008678,-5.024519,2.537539,159.51,120.97,190.75,166.82,251.97,226.19,217.33,-96.75,-55.13,-65.08,120.97,166.82,190.75,0,69.78,0.31
dw_cut_4_n1_1f_opt_disp_struct_11.xyz,Nucleus 20C :,2.099043,-5.124279,3.410503,2.81,-86.33,67.22,27.54,203.08,255.89,265.97,-135.88,-342.24,-238.38,-86.33,27.54,67.22,0,153.55,0.48
dw_cut_4_n1_1f_opt_disp_struct_11.xyz,Nucleus 5N :,3.15438,-4.166584,1.623115,120.07,59.18,168.44,132.59,298.46,337.43,330.19,-130.27,-204.56,-271.04,59.18,132.59,168.44,0,109.26,0.34
dw_cut_4_n1_1f_opt_disp_struct_11.xyz,Nucleus 21O :,3.738421,-6.981555,2.083477,-25.9,220.01,-36.89,-260.82,427.31,403.83,395.06,-184.47,-444.11,-675.32,-260.82,-36.89,220.01,0,480.83,-0.07
dw_cut_4_n1_1f_opt_disp_struct_11.xyz,Nucleus 22O :,5.027257,-5.76998,2.156282,-31.54,215.32,-265.55,-44.39,400.48,439.86,426.8,-223.37,-679.4,-458.98,-265.55,-44.39,215.32,0,480.87,-0.08
dw_cut_4_n1_1f_opt_disp_struct_11.xyz,Nucleus 10F :,4.26323,-6.386134,3.660349,304.4,397.14,226.07,290.0,487.1,468.72,461.33,-71.21,-235.67,-197.05,226.07,290.0,397.14,0,171.07,-0.25
dw_cut_4_n1_1f_opt_disp_struct_12.xyz,Nucleus 1H :,0.968697,-0.048796,-1.316757,29.3,35.21,23.7,28.99,40.38,27.18,29.17,-6.39,0.26,-2.72,23.7,28.99,35.21,0,11.51,-0.08
dw_cut_4_n1_1f_opt_disp_struct_12.xyz,Nucleus 2H :,1.717455,0.636891,-1.730257,28.37,34.37,23.8,26.93,44.86,24.37,26.71,-11.63,2.31,-1.52,23.8,26.93,34.37,0,10.57,-0.41
dw_cut_4_n1_1f_opt_disp_struct_12.xyz,Nucleus 6H :,1.24425,-1.070153,-1.616042,24.29,16.57,25.16,31.15,49.19,15.24,30.52,-18.42,1.52,-5.17,16.57,25.16,31.15,0,14.58,0.18
dw_cut_4_n1_1f_opt_disp_struct_12.xyz,Nucleus 12H :,0.894166,0.081254,0.161887,24.44,20.82,24.75,27.74,46.97,17.85,30.41,-22.15,3.06,-2.82,20.82,24.75,27.74,0,6.92,0.13
dw_cut_4_n1_1f_opt_disp_struct_12.xyz,Nucleus 14H :,1.681204,0.896116,0.952223,24.02,20.32,27.02,24.73,4.96,31.74,43.74,15.39,-4.75,-19.01,20.32,24.73,27.02,0,6.7,0.32
dw_cut_4_n1_1f_opt_disp_struct_12.xyz,Nucleus 16H :,1.299822,0.732245,2.256423,24.32,19.93,27.94,25.08,9.42,31.04,47.2,10.6,-3.13,-22.17,19.93,25.08,27.94,0,8.01,0.28
dw_cut_4_n1_1f_opt_disp_struct_12.xyz,Nucleus 17H :,1.670119,1.237253,3.038951,24.52,21.13,25.45,26.98,44.79,28.65,31.16,-19.19,-7.49,-4.36,21.13,25.45,26.98,0,5.85,0.48
dw_cut_4_n1_1f_opt_disp_struct_12.xyz,Nucleus 18H :,0.270312,-0.175535,2.34071,28.84,34.85,27.9,23.78,42.42,27.61,32.62,-0.22,-10.44,-5.46,23.78,27.9,34.85,0,11.07,-0.25
dw_cut_4_n1_1f_opt_disp_struct_12.xyz,Nucleus 23H :,-0.009343,-0.600735,1.039563,29.78,32.56,28.83,27.94,15.33,24.02,37.46,13.47,4.22,-5.17,27.94,28.83,32.56,0,4.62,-0.62
dw_cut_4_n1_1f_opt_disp_struct_12.xyz,Nucleus 24H :,-1.042849,-1.541695,0.862145,30.29,34.22,26.36,30.29,38.97,13.81,25.37,-4.95,12.61,5.06,26.36,30.29,34.22,0,7.86,0.0
dw_cut_4_n1_1f_opt_disp_struct_12.xyz,Nucleus 25H :,-1.360604,-1.98594,-0.362953,30.13,26.46,30.01,33.91,39.46,20.23,11.74,-5.61,9.76,14.8,26.46,30.01,33.91,0,7.45,-0.05
dw_cut_4_n1_1f_opt_disp_struct_12.xyz,Nucleus 0C :,-1.753658,-2.027756,1.960702,169.97,186.28,163.42,160.2,256.04,241.21,237.16,-67.82,-79.33,-77.37,160.2,163.42,186.28,0,26.08,-0.75
dw_cut_4_n1_1f_opt_disp_struct_12.xyz,Nucleus 3C :,-2.506487,-2.792931,1.797383,62.31,149.16,53.36,-15.59,240.26,272.5,262.37,-91.12,-218.88,-278.2,-15.59,53.36,149.16,0,164.75,-0.16
dw_cut_4_n1_1f_opt_disp_struct_12.xyz,Nucleus 4C :,-1.448346,-1.584534,3.245059,58.78,-25.32,127.05,74.61,255.21,265.19,273.41,-291.92,-132.15,-193.4,-25.32,74.61,127.05,0,152.37,0.31
dw_cut_4_n1_1f_opt_disp_struct_12.xyz,Nucleus 7C :,-1.96903,-2.010158,4.095453,37.54,136.36,-40.92,17.18,262.32,270.37,272.78,-131.55,-312.19,-249.11,-40.92,17.18,136.36,0,177.28,-0.34
dw_cut_4_n1_1f_opt_disp_struct_12.xyz,Nucleus 8C :,-0.430174,-0.648507,3.459174,59.94,162.67,20.92,-3.77,234.57,265.46,265.71,-71.95,-244.63,-269.36,-3.77,20.92,162.67,0,166.44,-0.7
dw_cut_4_n1_1f_opt_disp_struct_12.xyz,Nucleus 9C :,-0.145898,-0.359562,4.466886,11.46,-66.97,74.29,27.05,234.32,266.86,264.47,-332.86,-160.59,-237.84,-66.97,27.05,74.29,0,141.26,0.33
dw_cut_4_n1_1f_opt_disp_struct_12.xyz,Nucleus 11C :,2.482154,1.566707,0.672443,69.53,164.22,-16.12,60.5,239.2,264.89,270.19,-75.7,-281.24,-208.75,-16.12,60.5,164.22,0,180.34,-0.15
dw_cut_4_n1_1f_opt_disp_struct_12.xyz,Nucleus 13C :,0.006875,0.170933,-1.795896,51.74,172.01,41.7,-58.48,216.62,271.72,255.26,-44.62,-229.98,-313.77,-58.48,41.7,172.01,0,230.49,-0.13
dw_cut_4_n1_1f_opt_disp_struct_12.xyz,Nucleus 15C :,4.252769,-6.275939,2.646158,70.23,171.63,57.91,-18.86,243.1,271.28,264.99,-71.9,-211.99,-284.79,-18.86,57.91,171.63,0,190.49,-0.19
dw_cut_4_n1_1f_opt_disp_struct_12.xyz,Nucleus 19C :,3.174007,-5.210346,2.562731,159.5,120.93,190.65,166.91,251.91,226.73,217.71,-97.24,-55.55,-65.07,120.93,166.91,190.65,0,69.72,0.32
dw_cut_4_n1_1f_opt_disp_struct_12.xyz,Nucleus 20C :,2.264372,-5.310106,3.435695,2.75,-86.55,67.16,27.65,202.82,255.61,266.22,-135.68,-342.15,-238.56,-86.55,27.65,67.16,0,153.71,0.49
dw_cut_4_n1_1f_opt_disp_struct_12.xyz,Nucleus 5N :,3.319708,-4.352412,1.648307,119.87,58.85,168.52,132.23,298.42,337.3,330.09,-130.11,-204.82,-271.29,58.85,132.23,168.52,0,109.67,0.34
dw_cut_4_n1_1f_opt_disp_struct_12.xyz,Nucleus 21O :,3.90375,-7.167382,2.10867,-25.9,220.55,-37.06,-261.2,428.2,403.47,394.69,-183.34,-444.49,-676.23,-261.2,-37.06,220.55,0,481.75,-0.07
dw_cut_4_n1_1f_opt_disp_struct_12.xyz,Nucleus 22O :,5.192586,-5.955808,2.181474,-32.06,215.53,-266.66,-45.05,400.61,441.55,427.39,-224.77,-681.77,-459.2,-266.66,-45.05,215.53,0,482.19,-0.08
dw_cut_4_n1_1f_opt_disp_struct_12.xyz,Nucleus 10F :,4.428558,-6.571962,3.685542,304.02,397.09,225.48,289.5,486.95,468.46,461.2,-71.02,-236.1,-197.4,225.48,289.5,397.09,0,171.61,-0.25
dw_cut_4_n1_1f_opt_disp_struct_13.xyz,Nucleus 1H :,0.968697,-0.048796,-1.316757,29.3,35.21,23.71,28.99,40.36,27.14,29.16,-6.34,0.28,-2.7,23.71,28.99,35.21,0,11.5,-0.08
dw_cut_4_n1_1f_opt_disp_struct_13.xyz,Nucleus 2H :,1.717455,0.636891,-1.730257,28.4,34.42,23.85,26.94,44.83,24.35,26.66,-11.52,2.37,-1.48,23.85,26.94,34.42,0,10.57,-0.41
dw_cut_4_n1_1f_opt_disp_struct_13.xyz,Nucleus 6H :,1.24425,-1.070153,-1.616042,24.28,16.54,25.18,31.12,49.11,15.21,30.51,-18.34,1.48,-5.14,16.54,25.18,31.12,0,14.58,0.19
dw_cut_4_n1_1f_opt_disp_struct_13.xyz,Nucleus 12H :,0.894166,0.081254,0.161887,24.43,20.77,24.72,27.79,46.86,17.83,30.37,-22.06,3.03,-2.75,20.77,24.72,27.79,0,7.02,0.12
dw_cut_4_n1_1f_opt_disp_struct_13.xyz,Nucleus 14H :,1.681204,0.896116,0.952223,23.99,20.2,27.07,24.7,4.97,31.67,43.72,15.27,-4.62,-19.02,20.2,24.7,27.07,0,6.87,0.31
dw_cut_4_n1_1f_opt_disp_struct_13.xyz,Nucleus 16H :,1.299822,0.732245,2.256423,24.28,19.81,27.98,25.06,9.43,31.04,47.09,10.45,-3.09,-22.07,19.81,25.06,27.98,0,8.17,0.29
dw_cut_4_n1_1f_opt_disp_struct_13.xyz,Nucleus 17H :,1.670119,1.237253,3.038951,24.52,21.11,25.43,27.02,44.75,28.62,31.14,-19.15,-7.49,-4.3,21.11,25.43,27.02,0,5.91,0.46
dw_cut_4_n1_1f_opt_disp_struct_13.xyz,Nucleus 18H :,0.270312,-0.175535,2.34071,28.87,34.85,27.92,23.83,42.38,27.57,32.57,-0.17,-10.34,-5.42,23.83,27.92,34.85,0,11.02,-0.26
dw_cut_4_n1_1f_opt_disp_struct_13.xyz,Nucleus 23H :,-0.009343,-0.600735,1.039563,29.7,32.47,28.73,27.89,14.83,24.15,37.42,13.89,4.03,-5.22,27.89,28.73,32.47,0,4.58,-0.64
dw_cut_4_n1_1f_opt_disp_struct_13.xyz,Nucleus 24H :,-1.042849,-1.541695,0.862145,30.21,34.15,26.25,30.23,39.02,13.48,25.21,-5.07,12.84,5.15,26.25,30.23,34.15,0,7.9,0.01
dw_cut_4_n1_1f_opt_disp_struct_13.xyz,Nucleus 25H :,-1.360604,-1.98594,-0.362953,30.07,26.41,29.95,33.84,39.4,20.21,11.33,-5.62,9.74,15.14,26.41,29.95,33.84,0,7.43,-0.05
dw_cut_4_n1_1f_opt_disp_struct_13.xyz,Nucleus 0C :,-1.753658,-2.027756,1.960702,170.03,186.2,163.61,160.29,256.04,241.12,237.12,-67.92,-79.13,-77.13,160.29,163.61,186.2,0,25.91,-0.74
dw_cut_4_n1_1f_opt_disp_struct_13.xyz,Nucleus 3C :,-2.506487,-2.792931,1.797383,62.3,149.12,53.47,-15.69,240.2,272.34,262.38,-91.1,-218.62,-278.29,-15.69,53.47,149.12,0,164.81,-0.16
dw_cut_4_n1_1f_opt_disp_struct_13.xyz,Nucleus 4C :,-1.448346,-1.584534,3.245059,58.6,-25.59,127.23,74.16,255.12,265.12,273.36,-292.17,-131.91,-193.72,-25.59,74.16,127.23,0,152.82,0.31
dw_cut_4_n1_1f_opt_disp_struct_13.xyz,Nucleus 7C :,-1.96903,-2.010158,4.095453,37.66,136.57,-40.66,17.06,262.27,270.32,272.48,-131.16,-311.7,-249.24,-40.66,17.06,136.57,0,177.23,-0.35
dw_cut_4_n1_1f_opt_disp_struct_13.xyz,Nucleus 8C :,-0.430174,-0.648507,3.459174,59.92,162.42,21.12,-3.79,234.58,265.24,265.68,-72.2,-244.28,-269.26,-3.79,21.12,162.42,0,166.21,-0.7
dw_cut_4_n1_1f_opt_disp_struct_13.xyz,Nucleus 9C :,-0.145898,-0.359562,4.466886,11.51,-66.86,74.38,27.02,234.21,266.7,264.41,-332.57,-160.38,-237.83,-66.86,27.02,74.38,0,141.24,0.33
dw_cut_4_n1_1f_opt_disp_struct_13.xyz,Nucleus 11C :,2.482154,1.566707,0.672443,69.54,164.39,-16.08,60.3,239.09,264.68,270.11,-75.39,-280.99,-208.9,-16.08,60.3,164.39,0,180.47,-0.15
dw_cut_4_n1_1f_opt_disp_struct_13.xyz,Nucleus 13C :,0.006875,0.170933,-1.795896,51.72,171.99,41.65,-58.47,216.66,271.55,255.22,-44.68,-229.85,-313.74,-58.47,41.65,171.99,0,230.46,-0.13
dw_cut_4_n1_1f_opt_disp_struct_13.xyz,Nucleus 15C :,4.418097,-6.461766,2.67135,70.24,171.85,57.68,-18.8,242.99,271.26,264.74,-71.53,-212.16,-284.57,-18.8,57.68,171.85,0,190.65,-0.2
dw_cut_4_n1_1f_opt_disp_struct_13.xyz,Nucleus 19C :,3.339335,-5.396173,2.587924,159.17,120.39,190.51,166.62,251.84,226.64,217.31,-97.42,-55.84,-65.01,120.39,166.62,190.51,0,70.12,0.32
dw_cut_4_n1_1f_opt_disp_struct_13.xyz,Nucleus 20C :,2.4297,-5.495933,3.460887,2.74,-86.7,67.13,27.78,202.67,255.4,266.62,-135.56,-342.08,-238.83,-86.7,27.78,67.13,0,153.83,0.49
dw_cut_4_n1_1f_opt_disp_struct_13.xyz,Nucleus 5N :,3.485037,-4.538239,1.673499,119.65,58.4,168.74,131.82,298.38,337.24,329.97,-129.84,-205.17,-271.62,58.4,131.82,168.74,0,110.34,0.33
dw_cut_4_n1_1f_opt_disp_struct_13.xyz,Nucleus 21O :,4.069078,-7.35321,2.133862,-25.58,221.84,-37.08,-261.5,428.9,403.96,394.57,-182.7,-444.67,-676.8,-261.5,-37.08,221.84,0,483.34,-0.07
dw_cut_4_n1_1f_opt_disp_struct_13.xyz,Nucleus 22O :,5.357915,-6.141635,2.206666,-32.56,215.85,-267.92,-45.61,400.6,443.13,427.81,-226.01,-683.87,-459.34,-267.92,-45.61,215.85,0,483.77,-0.08
dw_cut_4_n1_1f_opt_disp_struct_13.xyz,Nucleus 10F :,4.593887,-6.757789,3.710734,303.52,396.98,224.86,288.72,486.82,468.32,461.11,-71.02,-236.61,-198.05,224.86,288.72,396.98,0,172.12,-0.26
dw_cut_4_n1_1f_opt_disp_struct_14.xyz,Nucleus 1H :,0.968697,-0.048796,-1.316757,29.27,35.19,23.65,28.97,40.32,27.06,29.14,-6.31,0.3,-2.7,23.65,28.97,35.19,0,11.54,-0.08
dw_cut_4_n1_1f_opt_disp_struct_14.xyz,Nucleus 2H :,1.717455,0.636891,-1.730257,28.39,34.44,23.8,26.92,44.77,24.3,26.59,-11.47,2.42,-1.45,23.8,26.92,34.44,0,10.64,-0.41
dw_cut_4_n1_1f_opt_disp_struct_14.xyz,Nucleus 6H :,1.24425,-1.070153,-1.616042,24.26,16.51,25.14,31.12,49.01,15.18,30.46,-18.25,1.49,-5.13,16.51,25.14,31.12,0,14.61,0.18
dw_cut_4_n1_1f_opt_disp_struct_14.xyz,Nucleus 12H :,0.894166,0.081254,0.161887,24.42,20.75,24.75,27.75,46.73,17.86,30.33,-21.91,2.98,-2.74,20.75,24.75,27.75,0,7.0,0.14
dw_cut_4_n1_1f_opt_disp_struct_14.xyz,Nucleus 14H :,1.681204,0.896116,0.952223,24.01,20.25,27.04,24.73,5.08,31.58,43.69,15.2,-4.57,-18.95,20.25,24.73,27.04,0,6.79,0.32
dw_cut_4_n1_1f_opt_disp_struct_14.xyz,Nucleus 16H :,1.299822,0.732245,2.256423,24.3,19.86,27.95,25.08,9.54,31.05,46.97,10.39,-3.12,-21.93,19.86,25.08,27.95,0,8.09,0.29
dw_cut_4_n1_1f_opt_disp_struct_14.xyz,Nucleus 17H :,1.670119,1.237253,3.038951,24.48,21.07,25.41,26.97,44.68,28.57,31.09,-19.11,-7.49,-4.29,21.07,25.41,26.97,0,5.9,0.47
dw_cut_4_n1_1f_opt_disp_struct_14.xyz,Nucleus 18H :,0.270312,-0.175535,2.34071,28.83,34.83,27.89,23.78,42.32,27.51,32.48,-0.15,-10.28,-5.39,23.78,27.89,34.83,0,11.05,-0.26
dw_cut_4_n1_1f_opt_disp_struct_14.xyz,Nucleus 23H :,-0.009343,-0.600735,1.039563,29.75,32.45,28.84,27.97,14.47,24.4,37.43,14.37,3.88,-5.27,27.97,28.84,32.45,0,4.48,-0.61
dw_cut_4_n1_1f_opt_disp_struct_14.xyz,Nucleus 24H :,-1.042849,-1.541695,0.862145,30.26,34.16,26.4,30.23,39.11,13.31,25.1,-5.17,13.15,5.28,26.4,30.23,34.16,0,7.76,-0.01
dw_cut_4_n1_1f_opt_disp_struct_14.xyz,Nucleus 25H :,-1.360604,-1.98594,-0.362953,30.1,26.48,30.0,33.82,39.37,20.23,10.99,-5.63,9.77,15.57,26.48,30.0,33.82,0,7.34,-0.04
dw_cut_4_n1_1f_opt_disp_struct_14.xyz,Nucleus 0C :,-1.753658,-2.027756,1.960702,170.01,186.24,163.55,160.25,256.13,240.85,237.04,-67.95,-79.01,-77.02,160.25,163.55,186.24,0,25.99,-0.75
dw_cut_4_n1_1f_opt_disp_struct_14.xyz,Nucleus 3C :,-2.506487,-2.792931,1.797383,62.31,149.09,53.34,-15.51,240.12,272.1,262.41,-91.04,-218.54,-278.13,-15.51,53.34,149.09,0,164.6,-0.16
dw_cut_4_n1_1f_opt_disp_struct_14.xyz,Nucleus 4C :,-1.448346,-1.584534,3.245059,58.44,-25.8,127.15,73.96,255.03,265.0,273.31,-292.26,-131.99,-193.78,-25.8,73.96,127.15,0,152.95,0.3
dw_cut_4_n1_1f_opt_disp_struct_14.xyz,Nucleus 7C :,-1.96903,-2.010158,4.095453,37.66,136.35,-40.6,17.22,262.12,270.24,271.84,-130.94,-311.23,-249.08,-40.6,17.22,136.35,0,176.95,-0.35
dw_cut_4_n1_1f_opt_disp_struct_14.xyz,Nucleus 8C :,-0.430174,-0.648507,3.459174,60.07,162.54,21.28,-3.6,234.7,264.88,265.62,-72.18,-243.81,-268.98,-3.6,21.28,162.54,0,166.14,-0.7
dw_cut_4_n1_1f_opt_disp_struct_14.xyz,Nucleus 9C :,-0.145898,-0.359562,4.466886,11.56,-66.75,74.3,27.13,234.02,266.46,264.25,-332.19,-160.23,-237.63,-66.75,27.13,74.3,0,141.05,0.33
dw_cut_4_n1_1f_opt_disp_struct_14.xyz,Nucleus 11C :,2.482154,1.566707,0.672443,69.54,164.3,-16.03,60.35,238.96,264.26,270.07,-75.25,-280.61,-208.81,-16.03,60.35,164.3,0,180.33,-0.15
dw_cut_4_n1_1f_opt_disp_struct_14.xyz,Nucleus 13C :,0.006875,0.170933,-1.795896,51.85,172.08,41.73,-58.25,216.91,271.36,255.09,-44.84,-229.58,-313.39,-58.25,41.73,172.08,0,230.33,-0.13
dw_cut_4_n1_1f_opt_disp_struct_14.xyz,Nucleus 15C :,4.583426,-6.647593,2.696542,70.23,171.72,57.75,-18.78,242.85,271.21,264.32,-71.39,-212.06,-284.22,-18.78,57.75,171.72,0,190.5,-0.2
dw_cut_4_n1_1f_opt_disp_struct_14.xyz,Nucleus 19C :,3.504664,-5.582001,2.613116,159.47,120.87,190.48,167.06,251.81,227.04,217.62,-97.32,-55.92,-64.83,120.87,167.06,190.48,0,69.61,0.33
dw_cut_4_n1_1f_opt_disp_struct_14.xyz,Nucleus 20C :,2.595029,-5.681761,3.48608,2.63,-86.9,67.06,27.74,202.57,255.16,266.87,-135.54,-342.04,-239.13,-86.9,27.74,67.06,0,153.96,0.49
dw_cut_4_n1_1f_opt_disp_struct_14.xyz,Nucleus 5N :,3.650366,-4.724066,1.698691,119.57,58.36,168.65,131.7,298.38,337.12,329.82,-129.86,-205.22,-271.52,58.36,131.7,168.65,0,110.29,0.33
dw_cut_4_n1_1f_opt_disp_struct_14.xyz,Nucleus 21O :,4.234407,-7.539037,2.159054,-25.88,221.44,-37.31,-261.76,429.69,403.56,394.25,-182.49,-445.06,-677.58,-261.76,-37.31,221.44,0,483.2,-0.07
dw_cut_4_n1_1f_opt_disp_struct_14.xyz,Nucleus 22O :,5.523243,-6.327462,2.231858,-32.89,216.14,-268.69,-46.12,400.71,444.41,428.41,-226.86,-685.85,-459.48,-268.69,-46.12,216.14,0,484.83,-0.08
dw_cut_4_n1_1f_opt_disp_struct_14.xyz,Nucleus 10F :,4.759215,-6.943616,3.735926,303.4,397.0,224.56,288.65,486.62,468.03,460.95,-70.76,-236.71,-197.92,224.56,288.65,397.0,0,172.44,-0.26
dw_cut_4_n1_1f_opt_disp_struct_15.xyz,Nucleus 1H :,0.968697,-0.048796,-1.316757,29.26,35.18,23.64,28.96,40.3,27.0,29.11,-6.28,0.32,-2.68,23.64,28.96,35.18,0,11.54,-0.08
dw_cut_4_n1_1f_opt_disp_struct_15.xyz,Nucleus 2H :,1.717455,0.636891,-1.730257,28.4,34.47,23.79,26.93,44.73,24.28,26.54,-11.4,2.46,-1.42,23.79,26.93,34.47,0,10.68,-0.41
dw_cut_4_n1_1f_opt_disp_struct_15.xyz,Nucleus 6H :,1.24425,-1.070153,-1.616042,24.24,16.48,25.13,31.1,48.93,15.15,30.43,-18.18,1.48,-5.1,16.48,25.13,31.1,0,14.62,0.18
dw_cut_4_n1_1f_opt_disp_struct_15.xyz,Nucleus 12H :,0.894166,0.081254,0.161887,24.41,20.72,24.76,27.76,46.63,17.86,30.31,-21.8,2.95,-2.72,20.72,24.76,27.76,0,7.04,0.15
dw_cut_4_n1_1f_opt_disp_struct_15.xyz,Nucleus 14H :,1.681204,0.896116,0.952223,24.0,20.22,27.05,24.74,5.12,31.53,43.67,15.13,-4.51,-18.92,20.22,24.74,27.05,0,6.83,0.33
dw_cut_4_n1_1f_opt_disp_struct_15.xyz,Nucleus 16H :,1.299822,0.732245,2.256423,24.29,19.83,27.96,25.09,9.59,31.05,46.88,10.31,-3.12,-21.83,19.83,25.09,27.96,0,8.13,0.3
dw_cut_4_n1_1f_opt_disp_struct_15.xyz,Nucleus 17H :,1.670119,1.237253,3.038951,24.47,21.04,25.4,26.97,44.63,28.54,31.05,-19.07,-7.49,-4.25,21.04,25.4,26.97,0,5.93,0.47
dw_cut_4_n1_1f_opt_disp_struct_15.xyz,Nucleus 18H :,0.270312,-0.175535,2.34071,28.82,34.82,27.88,23.77,42.28,27.47,32.42,-0.12,-10.22,-5.36,23.77,27.88,34.82,0,11.05,-0.26
dw_cut_4_n1_1f_opt_disp_struct_15.xyz,Nucleus 23H :,-0.009343,-0.600735,1.039563,29.75,32.41,28.84,27.99,13.94,24.51,37.4,14.91,3.78,-5.3,27.99,28.84,32.41,0,4.42,-0.62
dw_cut_4_n1_1f_opt_disp_struct_15.xyz,Nucleus 24H :,-1.042849,-1.541695,0.862145,30.25,34.14,26.41,30.2,39.17,12.93,24.93,-5.26,13.55,5.43,26.41,30.2,34.14,0,7.73,-0.02
dw_cut_4_n1_1f_opt_disp_struct_15.xyz,Nucleus 25H :,-1.360604,-1.98594,-0.362953,30.09,26.49,30.0,33.78,39.32,20.17,10.55,-5.63,9.82,16.03,26.49,30.0,33.78,0,7.29,-0.04
dw_cut_4_n1_1f_opt_disp_struct_15.xyz,Nucleus 0C :,-1.753658,-2.027756,1.960702,170.03,186.23,163.59,160.26,256.17,240.69,236.98,-67.99,-78.89,-76.87,160.26,163.59,186.23,0,25.97,-0.74
dw_cut_4_n1_1f_opt_disp_struct_15.xyz,Nucleus 3C :,-2.506487,-2.792931,1.797383,62.31,149.07,53.32,-15.47,240.07,271.96,262.44,-91.01,-218.43,-278.1,-15.47,53.32,149.07,0,164.54,-0.16
dw_cut_4_n1_1f_opt_disp_struct_15.xyz,Nucleus 4C :,-1.448346,-1.584534,3.245059,58.28,-26.0,127.17,73.68,255.02,264.81,273.27,-292.39,-131.94,-193.92,-26.0,73.68,127.17,0,153.17,0.3
dw_cut_4_n1_1f_opt_disp_struct_15.xyz,Nucleus 7C :,-1.96903,-2.010158,4.095453,37.7,136.33,-40.47,17.25,262.09,270.17,271.47,-130.74,-310.87,-249.01,-40.47,17.25,136.33,0,176.8,-0.35
dw_cut_4_n1_1f_opt_disp_struct_15.xyz,Nucleus 8C :,-0.430174,-0.648507,3.459174,60.14,162.52,21.43,-3.53,234.73,264.73,265.56,-72.23,-243.54,-268.82,-3.53,21.43,162.52,0,166.05,-0.7
dw_cut_4_n1_1f_opt_disp_struct_15.xyz,Nucleus 9C :,-0.145898,-0.359562,4.466886,11.6,-66.65,74.29,27.17,233.95,266.3,264.19,-331.95,-160.12,-237.57,-66.65,27.17,74.29,0,140.94,0.33
dw_cut_4_n1_1f_opt_disp_struct_15.xyz,Nucleus 11C :,2.482154,1.566707,0.672443,69.55,164.32,-15.99,60.31,238.87,264.01,270.04,-75.07,-280.37,-208.84,-15.99,60.31,164.32,0,180.31,-0.15
dw_cut_4_n1_1f_opt_disp_struct_15.xyz,Nucleus 13C :,0.006875,0.170933,-1.795896,51.9,172.1,41.74,-58.15,217.02,271.24,255.03,-44.92,-229.45,-313.23,-58.15,41.74,172.1,0,230.25,-0.13
dw_cut_4_n1_1f_opt_disp_struct_15.xyz,Nucleus 15C :,4.748755,-6.833421,2.721735,70.23,171.75,57.69,-18.74,242.72,271.17,264.06,-71.17,-212.09,-283.98,-18.74,57.69,171.75,0,190.49,-0.2
dw_cut_4_n1_1f_opt_disp_struct_15.xyz,Nucleus 19C :,3.669993,-5.767828,2.638308,159.44,120.82,190.41,167.08,251.76,226.81,217.11,-96.88,-55.88,-64.61,120.82,167.08,190.41,0,69.59,0.33
dw_cut_4_n1_1f_opt_disp_struct_15.xyz,Nucleus 20C :,2.760358,-5.867588,3.511272,2.59,-87.04,67.07,27.74,202.5,254.99,267.27,-135.46,-342.0,-239.52,-87.04,27.74,67.07,0,154.11,0.49
dw_cut_4_n1_1f_opt_disp_struct_15.xyz,Nucleus 5N :,3.815694,-4.909894,1.723884,119.43,58.15,168.68,131.47,298.38,337.05,329.68,-129.82,-205.39,-271.6,58.15,131.47,168.68,0,110.53,0.33
dw_cut_4_n1_1f_opt_disp_struct_15.xyz,Nucleus 21O :,4.399735,-7.724864,2.184246,-25.83,221.89,-37.42,-261.97,430.3,404.16,394.21,-182.87,-445.28,-678.03,-261.97,-37.42,221.89,0,483.86,-0.07
dw_cut_4_n1_1f_opt_disp_struct_15.xyz,Nucleus 22O :,5.688572,-6.51329,2.257051,-33.1,216.49,-269.33,-46.47,400.7,445.78,428.79,-227.84,-687.23,-459.5,-269.33,-46.47,216.49,0,485.82,-0.08
dw_cut_4_n1_1f_opt_disp_struct_15.xyz,Nucleus 10F :,4.924544,-7.129444,3.761118,303.18,396.97,224.21,288.37,486.46,467.87,460.83,-70.65,-236.92,-198.03,224.21,288.37,396.97,0,172.76,-0.26
dw_cut_4_n1_1f_opt_disp_struct_16.xyz,Nucleus 1H :,0.968697,-0.048796,-1.316757,29.25,35.17,23.62,28.95,40.28,26.96,29.09,-6.25,0.34,-2.67,23.62,28.95,35.17,0,11.55,-0.08
dw_cut_4_n1_1f_opt_disp_struct_16.xyz,Nucleus 2H :,1.717455,0.636891,-1.730257,28.41,34.5,23.79,26.93,44.69,24.26,26.5,-11.33,2.49,-1.39,23.79,26.93,34.5,0,10.71,-0.41
dw_cut_4_n1_1f_opt_disp_struct_16.xyz,Nucleus 6H :,1.24425,-1.070153,-1.616042,24.22,16.45,25.13,31.09,48.86,15.13,30.4,-18.11,1.47,-5.08,16.45,25.13,31.09,0,14.64,0.19
dw_cut_4_n1_1f_opt_disp_struct_16.xyz,Nucleus 12H :,0.894166,0.081254,0.161887,24.4,20.69,24.76,27.76,46.55,17.86,30.3,-21.71,2.92,-2.71,20.69,24.76,27.76,0,7.07,0.15
dw_cut_4_n1_1f_opt_disp_struct_16.xyz,Nucleus 14H :,1.681204,0.896116,0.952223,24.0,20.19,27.06,24.75,5.16,31.47,43.65,15.06,-4.45,-18.9,20.19,24.75,27.06,0,6.87,0.33
dw_cut_4_n1_1f_opt_disp_struct_16.xyz,Nucleus 16H :,1.299822,0.732245,2.256423,24.28,19.8,27.96,25.09,9.63,31.05,46.79,10.24,-3.12,-21.73,19.8,25.09,27.96,0,8.16,0.3
dw_cut_4_n1_1f_opt_disp_struct_16.xyz,Nucleus 17H :,1.670119,1.237253,3.038951,24.46,21.01,25.39,26.97,44.59,28.51,31.02,-19.04,-7.49,-4.21,21.01,25.39,26.97,0,5.96,0.47
dw_cut_4_n1_1f_opt_disp_struct_16.xyz,Nucleus 18H :,0.270312,-0.175535,2.34071,28.82,34.81,27.88,23.76,42.24,27.43,32.35,-0.1,-10.15,-5.33,23.76,27.88,34.81,0,11.05,-0.26
dw_cut_4_n1_1f_opt_disp_struct_16.xyz,Nucleus 23H :,-0.009343,-0.600735,1.039563,29.74,32.37,28.85,28.0,13.38,24.59,37.37,15.49,3.71,-5.32,28.0,28.85,32.37,0,4.37,-0.61
dw_cut_4_n1_1f_opt_disp_struct_16.xyz,Nucleus 24H :,-1.042849,-1.541695,0.862145,30.24,34.12,26.43,30.17,39.21,12.49,24.75,-5.34,14.0,5.59,26.43,30.17,34.12,0,7.69,-0.03
dw_cut_4_n1_1f_opt_disp_struct_16.xyz,Nucleus 25H :,-1.360604,-1.98594,-0.362953,30.08,26.5,29.99,33.74,39.26,20.1,10.08,-5.62,9.89,16.51,26.5,29.99,33.74,0,7.24,-0.04
dw_cut_4_n1_1f_opt_disp_struct_16.xyz,Nucleus 0C :,-1.753658,-2.027756,1.960702,170.04,186.22,163.64,160.27,256.2,240.55,236.93,-68.03,-78.78,-76.73,160.27,163.64,186.22,0,25.95,-0.74
dw_cut_4_n1_1f_opt_disp_struct_16.xyz,Nucleus 3C :,-2.506487,-2.792931,1.797383,62.3,149.04,53.3,-15.45,240.03,271.84,262.46,-91.0,-218.35,-278.08,-15.45,53.3,149.04,0,164.49,-0.16
dw_cut_4_n1_1f_opt_disp_struct_16.xyz,Nucleus 4C :,-1.448346,-1.584534,3.245059,58.16,-26.17,127.2,73.45,255.05,264.59,273.23,-292.48,-131.88,-194.04,-26.17,73.45,127.2,0,153.37,0.3
dw_cut_4_n1_1f_opt_disp_struct_16.xyz,Nucleus 7C :,-1.96903,-2.010158,4.095453,37.74,136.32,-40.36,17.27,262.1,270.07,271.12,-130.56,-310.59,-248.92,-40.36,17.27,136.32,0,176.68,-0.35
dw_cut_4_n1_1f_opt_disp_struct_16.xyz,Nucleus 8C :,-0.430174,-0.648507,3.459174,60.18,162.48,21.55,-3.48,234.74,264.66,265.49,-72.28,-243.35,-268.7,-3.48,21.55,162.48,0,165.96,-0.7
dw_cut_4_n1_1f_opt_disp_struct_16.xyz,Nucleus 9C :,-0.145898,-0.359562,4.466886,11.63,-66.58,74.29,27.19,233.9,266.17,264.16,-331.76,-160.03,-237.53,-66.58,27.19,74.29,0,140.87,0.33
dw_cut_4_n1_1f_opt_disp_struct_16.xyz,Nucleus 11C :,2.482154,1.566707,0.672443,69.55,164.35,-15.96,60.27,238.79,263.79,270.03,-74.91,-280.16,-208.89,-15.96,60.27,164.35,0,180.31,-0.15
dw_cut_4_n1_1f_opt_disp_struct_16.xyz,Nucleus 13C :,0.006875,0.170933,-1.795896,51.93,172.12,41.74,-58.07,217.11,271.14,254.97,-44.99,-229.35,-313.09,-58.07,41.74,172.12,0,230.19,-0.13
dw_cut_4_n1_1f_opt_disp_struct_16.xyz,Nucleus 15C :,4.914083,-7.019248,2.746927,70.24,171.78,57.64,-18.71,242.58,271.13,263.83,-70.96,-212.11,-283.76,-18.71,57.64,171.78,0,190.49,-0.2
dw_cut_4_n1_1f_opt_disp_struct_16.xyz,Nucleus 19C :,3.835321,-5.953655,2.6635,159.42,120.81,190.35,167.1,251.7,226.45,216.42,-96.22,-55.74,-64.36,120.81,167.1,190.35,0,69.54,0.33
dw_cut_4_n1_1f_opt_disp_struct_16.xyz,Nucleus 20C :,2.925686,-6.053415,3.536464,2.55,-87.17,67.08,27.74,202.43,254.85,267.69,-135.38,-342.0,-239.94,-87.17,27.74,67.08,0,154.25,0.49
dw_cut_4_n1_1f_opt_disp_struct_16.xyz,Nucleus 5N :,3.981023,-5.095721,1.749076,119.33,57.98,168.72,131.28,298.39,336.99,329.54,-129.78,-205.52,-271.63,57.98,131.28,168.72,0,110.74,0.32
dw_cut_4_n1_1f_opt_disp_struct_16.xyz,Nucleus 21O :,4.565064,-7.910692,2.209439,-25.8,222.2,-37.49,-262.1,430.88,404.93,394.22,-183.61,-445.45,-678.36,-262.1,-37.49,222.2,0,484.3,-0.07
dw_cut_4_n1_1f_opt_disp_struct_16.xyz,Nucleus 22O :,5.8539,-6.699117,2.282243,-33.25,216.79,-269.79,-46.76,400.67,447.2,429.12,-228.94,-688.31,-459.5,-269.79,-46.76,216.79,0,486.58,-0.08
dw_cut_4_n1_1f_opt_disp_struct_16.xyz,Nucleus 10F :,5.089873,-7.315271,3.78631,302.98,396.94,223.91,288.08,486.3,467.73,460.73,-70.56,-237.09,-198.17,223.91,288.08,396.94,0,173.03,-0.26
dw_cut_4_n1_1f_opt_disp_struct_17.xyz,Nucleus 1H :,0.968697,-0.048796,-1.316757,29.23,35.16,23.6,28.94,40.26,26.91,29.06,-6.23,0.36,-2.65,23.6,28.94,35.16,0,11.56,-0.08
dw_cut_4_n1_1f_opt_disp_struct_17.xyz,Nucleus 2H :,1.717455,0.636891,-1.730257,28.42,34.52,23.79,26.94,44.65,24.24,26.46,-11.27,2.52,-1.36,23.79,26.94,34.52,0,10.73,-0.41
dw_cut_4_n1_1f_opt_disp_struct_17.xyz,Nucleus 6H :,1.24425,-1.070153,-1.616042,24.21,16.43,25.12,31.09,48.79,15.12,30.38,-18.04,1.46,-5.06,16.43,25.12,31.09,0,14.66,0.19
dw_cut_4_n1_1f_opt_disp_struct_17.xyz,Nucleus 12H :,0.894166,0.081254,0.161887,24.39,20.66,24.76,27.76,46.47,17.86,30.3,-21.62,2.89,-2.69,20.66,24.76,27.76,0,7.1,0.16
dw_cut_4_n1_1f_opt_disp_struct_17.xyz,Nucleus 14H :,1.681204,0.896116,0.952223,24.0,20.17,27.06,24.76,5.19,31.43,43.63,15.01,-4.39,-18.87,20.17,24.76,27.06,0,6.89,0.33
dw_cut_4_n1_1f_opt_disp_struct_17.xyz,Nucleus 16H :,1.299822,0.732245,2.256423,24.28,19.78,27.97,25.1,9.66,31.05,46.71,10.19,-3.11,-21.65,19.78,25.1,27.97,0,8.19,0.3
dw_cut_4_n1_1f_opt_disp_struct_17.xyz,Nucleus 17H :,1.670119,1.237253,3.038951,24.45,20.99,25.38,26.97,44.55,28.49,30.98,-19.01,-7.49,-4.17,20.99,25.38,26.97,0,5.98,0.47
dw_cut_4_n1_1f_opt_disp_struct_17.xyz,Nucleus 18H :,0.270312,-0.175535,2.34071,28.81,34.8,27.87,23.75,42.2,27.39,32.29,-0.07,-10.1,-5.29,23.75,27.87,34.8,0,11.05,-0.26
dw_cut_4_n1_1f_opt_disp_struct_17.xyz,Nucleus 23H :,-0.009343,-0.600735,1.039563,29.73,32.33,28.85,28.01,12.8,24.64,37.35,16.08,3.66,-5.35,28.01,28.85,32.33,0,4.32,-0.61
dw_cut_4_n1_1f_opt_disp_struct_17.xyz,Nucleus 24H :,-1.042849,-1.541695,0.862145,30.23,34.1,26.44,30.14,39.25,12.04,24.57,-5.41,14.48,5.76,26.44,30.14,34.1,0,7.66,-0.04
dw_cut_4_n1_1f_opt_disp_struct_17.xyz,Nucleus 25H :,-1.360604,-1.98594,-0.362953,30.07,26.51,29.98,33.71,39.21,20.02,9.6,-5.61,9.97,17.01,26.51,29.98,33.71,0,7.2,-0.04
dw_cut_4_n1_1f_opt_disp_struct_17.xyz,Nucleus 0C :,-1.753658,-2.027756,1.960702,170.06,186.21,163.68,160.28,256.22,240.42,236.88,-68.06,-78.68,-76.61,160.28,163.68,186.21,0,25.93,-0.74
dw_cut_4_n1_1f_opt_disp_struct_17.xyz,Nucleus 3C :,-2.506487,-2.792931,1.797383,62.29,149.02,53.28,-15.43,240.0,271.72,262.49,-90.99,-218.28,-278.07,-15.43,53.28,149.02,0,164.45,-0.16
dw_cut_4_n1_1f_opt_disp_struct_17.xyz,Nucleus 4C :,-1.448346,-1.584534,3.245059,58.05,-26.31,127.23,73.24,255.09,264.36,273.2,-292.54,-131.82,-194.12,-26.31,73.24,127.23,0,153.54,0.3
dw_cut_4_n1_1f_opt_disp_struct_17.xyz,Nucleus 7C :,-1.96903,-2.010158,4.095453,37.77,136.31,-40.27,17.28,262.11,270.0,270.82,-130.41,-310.35,-248.83,-40.27,17.28,136.31,0,176.58,-0.35
dw_cut_4_n1_1f_opt_disp_struct_17.xyz,Nucleus 8C :,-0.430174,-0.648507,3.459174,60.22,162.45,21.65,-3.44,234.75,264.6,265.41,-72.33,-243.2,-268.58,-3.44,21.65,162.45,0,165.89,-0.7
dw_cut_4_n1_1f_opt_disp_struct_17.xyz,Nucleus 9C :,-0.145898,-0.359562,4.466886,11.66,-66.51,74.29,27.2,233.87,266.05,264.15,-331.62,-159.96,-237.51,-66.51,27.2,74.29,0,140.8,0.33
dw_cut_4_n1_1f_opt_disp_struct_17.xyz,Nucleus 11C :,2.482154,1.566707,0.672443,69.56,164.37,-15.93,60.24,238.73,263.6,270.03,-74.76,-279.98,-208.93,-15.93,60.24,164.37,0,180.3,-0.16
dw_cut_4_n1_1f_opt_disp_struct_17.xyz,Nucleus 13C :,0.006875,0.170933,-1.795896,51.96,172.14,41.75,-58.0,217.18,271.06,254.92,-45.05,-229.26,-312.97,-58.0,41.75,172.14,0,230.14,-0.13
dw_cut_4_n1_1f_opt_disp_struct_17.xyz,Nucleus 15C :,5.079412,-7.205075,2.772119,70.24,171.8,57.6,-18.68,242.45,271.1,263.63,-70.75,-212.13,-283.56,-18.68,57.6,171.8,0,190.48,-0.2
dw_cut_4_n1_1f_opt_disp_struct_17.xyz,Nucleus 19C :,4.00065,-6.139483,2.688693,159.4,120.8,190.29,167.11,251.66,226.04,215.65,-95.47,-55.56,-64.12,120.8,167.11,190.29,0,69.49,0.33
dw_cut_4_n1_1f_opt_disp_struct_17.xyz,Nucleus 20C :,3.091015,-6.239243,3.561656,2.52,-87.28,67.1,27.73,202.35,254.73,268.12,-135.28,-342.0,-240.37,-87.28,27.73,67.1,0,154.38,0.49
dw_cut_4_n1_1f_opt_disp_struct_17.xyz,Nucleus 5N :,4.146351,-5.281548,1.774268,119.24,57.84,168.76,131.13,298.41,336.93,329.41,-129.76,-205.62,-271.65,57.84,131.13,168.76,0,110.92,0.32
dw_cut_4_n1_1f_opt_disp_struct_17.xyz,Nucleus 21O :,4.730393,-8.096519,2.234631,-25.78,222.39,-37.55,-262.18,431.44,405.78,394.23,-184.57,-445.6,-678.63,-262.18,-37.55,222.39,0,484.57,-0.07
dw_cut_4_n1_1f_opt_disp_struct_17.xyz,Nucleus 22O :,6.019229,-6.884944,2.307435,-33.34,216.97,-270.04,-46.95,400.64,448.63,429.43,-230.17,-689.1,-459.45,-270.04,-46.95,216.97,0,487.01,-0.08
dw_cut_4_n1_1f_opt_disp_struct_17.xyz,Nucleus 10F :,5.255201,-7.501098,3.811503,302.8,396.91,223.66,287.83,486.16,467.61,460.63,-70.49,-237.23,-198.27,223.66,287.83,396.91,0,173.25,-0.26
dw_cut_4_n1_1f_opt_disp_struct_18.xyz,Nucleus 1H :,0.968697,-0.048796,-1.316757,29.23,35.16,23.59,28.93,40.25,26.87,29.02,-6.21,0.38,-2.64,23.59,28.93,35.16,0,11.57,-0.08
dw_cut_4_n1_1f_opt_disp_struct_18.xyz,Nucleus 2H :,1.717455,0.636891,-1.730257,28.43,34.54,23.79,26.95,44.62,24.22,26.43,-11.22,2.56,-1.32,23.79,26.95,34.54,0,10.75,-0.41
dw_cut_4_n1_1f_opt_disp_struct_18.xyz,Nucleus 6H :,1.24425,-1.070153,-1.616042,24.2,16.41,25.11,31.08,48.72,15.1,30.35,-17.97,1.45,-5.03,16.41,25.11,31.08,0,14.67,0.19
dw_cut_4_n1_1f_opt_disp_struct_18.xyz,Nucleus 12H :,0.894166,0.081254,0.161887,24.39,20.64,24.77,27.77,46.39,17.85,30.3,-21.54,2.86,-2.69,20.64,24.77,27.77,0,7.13,0.16
dw_cut_4_n1_1f_opt_disp_struct_18.xyz,Nucleus 14H :,1.681204,0.896116,0.952223,23.99,20.15,27.07,24.76,5.21,31.38,43.62,14.97,-4.34,-18.85,20.15,24.76,27.07,0,6.92,0.33
dw_cut_4_n1_1f_opt_disp_struct_18.xyz,Nucleus 16H :,1.299822,0.732245,2.256423,24.28,19.75,27.97,25.11,9.68,31.05,46.63,10.14,-3.11,-21.57,19.75,25.11,27.97,0,8.22,0.3
dw_cut_4_n1_1f_opt_disp_struct_18.xyz,Nucleus 17H :,1.670119,1.237253,3.038951,24.44,20.97,25.37,26.97,44.51,28.46,30.94,-18.98,-7.49,-4.14,20.97,25.37,26.97,0,6.0,0.46
dw_cut_4_n1_1f_opt_disp_struct_18.xyz,Nucleus 18H :,0.270312,-0.175535,2.34071,28.8,34.79,27.86,23.75,42.16,27.35,32.24,-0.05,-10.04,-5.26,23.75,27.86,34.79,0,11.04,-0.26
dw_cut_4_n1_1f_opt_disp_struct_18.xyz,Nucleus 23H :,-0.009343,-0.600735,1.039563,29.72,32.3,28.85,28.02,12.2,24.67,37.33,16.7,3.63,-5.37,28.02,28.85,32.3,0,4.28,-0.61
dw_cut_4_n1_1f_opt_disp_struct_18.xyz,Nucleus 24H :,-1.042849,-1.541695,0.862145,30.22,34.09,26.45,30.12,39.29,11.55,24.39,-5.48,14.97,5.93,26.45,30.12,34.09,0,7.64,-0.04
dw_cut_4_n1_1f_opt_disp_struct_18.xyz,Nucleus 25H :,-1.360604,-1.98594,-0.362953,30.06,26.52,29.98,33.68,39.16,19.92,9.12,-5.6,10.06,17.51,26.52,29.98,33.68,0,7.16,-0.03
dw_cut_4_n1_1f_opt_disp_struct_18.xyz,Nucleus 0C :,-1.753658,-2.027756,1.960702,170.07,186.2,163.71,160.29,256.24,240.3,236.83,-68.09,-78.58,-76.5,160.29,163.71,186.2,0,25.91,-0.74
dw_cut_4_n1_1f_opt_disp_struct_18.xyz,Nucleus 3C :,-2.506487,-2.792931,1.797383,62.28,148.99,53.27,-15.42,239.97,271.62,262.51,-90.99,-218.21,-278.06,-15.42,53.27,148.99,0,164.41,-0.16
dw_cut_4_n1_1f_opt_disp_struct_18.xyz,Nucleus 4C :,-1.448346,-1.584534,3.245059,57.96,-26.44,127.25,73.07,255.14,264.12,273.16,-292.59,-131.76,-194.2,-26.44,73.07,127.25,0,153.69,0.29
dw_cut_4_n1_1f_opt_disp_struct_18.xyz,Nucleus 7C :,-1.96903,-2.010158,4.095453,37.8,136.3,-40.18,17.29,262.12,269.92,270.54,-130.28,-310.16,-248.74,-40.18,17.29,136.3,0,176.48,-0.35
dw_cut_4_n1_1f_opt_disp_struct_18.xyz,Nucleus 8C :,-0.430174,-0.648507,3.459174,60.25,162.42,21.73,-3.41,234.75,264.58,265.33,-72.36,-243.08,-268.48,-3.41,21.73,162.42,0,165.83,-0.7
dw_cut_4_n1_1f_opt_disp_struct_18.xyz,Nucleus 9C :,-0.145898,-0.359562,4.466886,11.68,-66.45,74.29,27.21,233.86,265.94,264.15,-159.9,-237.49,-331.5,-66.45,27.21,74.29,0,140.74,0.33
dw_cut_4_n1_1f_opt_disp_struct_18.xyz,Nucleus 11C :,2.482154,1.566707,0.672443,69.57,164.39,-15.9,60.21,238.67,263.43,270.04,-74.63,-279.82,-208.97,-15.9,60.21,164.39,0,180.29,-0.16
dw_cut_4_n1_1f_opt_disp_struct_18.xyz,Nucleus 13C :,0.006875,0.170933,-1.795896,51.99,172.16,41.75,-57.94,217.25,270.99,254.88,-45.1,-229.18,-312.87,-57.94,41.75,172.16,0,230.1,-0.13
dw_cut_4_n1_1f_opt_disp_struct_18.xyz,Nucleus 15C :,5.244741,-7.390903,2.797311,70.25,171.82,57.57,-18.65,242.31,271.06,263.45,-70.56,-212.15,-283.37,-18.65,57.57,171.82,0,190.47,-0.2
dw_cut_4_n1_1f_opt_disp_struct_18.xyz,Nucleus 19C :,4.165979,-6.32531,2.713885,159.39,120.81,190.24,167.12,251.61,225.59,214.82,-94.64,-55.33,-63.88,120.81,167.12,190.24,0,69.43,0.33
dw_cut_4_n1_1f_opt_disp_struct_18.xyz,Nucleus 20C :,3.256344,-6.42507,3.586849,2.49,-87.38,67.12,27.72,202.24,254.63,268.55,-135.15,-342.01,-240.8,-87.38,27.72,67.12,0,154.5,0.49
dw_cut_4_n1_1f_opt_disp_struct_18.xyz,Nucleus 5N :,4.31168,-5.467376,1.79946,119.17,57.72,168.79,131.0,298.44,336.87,329.29,-129.75,-205.7,-271.65,57.72,131.0,168.79,0,111.07,0.32
dw_cut_4_n1_1f_opt_disp_struct_18.xyz,Nucleus 21O :,4.895721,-8.282346,2.259823,-25.77,222.53,-37.6,-262.24,432.0,406.7,394.24,-185.67,-445.72,-678.86,-262.24,-37.6,222.53,0,484.77,-0.07
dw_cut_4_n1_1f_opt_disp_struct_18.xyz,Nucleus 22O :,6.184558,-7.070772,2.332627,-33.38,217.1,-270.15,-47.1,400.62,450.1,429.71,-231.49,-689.7,-459.38,-270.15,-47.1,217.1,0,487.25,-0.08
dw_cut_4_n1_1f_opt_disp_struct_18.xyz,Nucleus 10F :,5.42053,-7.686926,3.836695,302.65,396.89,223.44,287.61,486.02,467.51,460.53,-70.42,-237.34,-198.35,223.44,287.61,396.89,0,173.45,-0.26
dw_cut_4_n1_1f_opt_disp_struct_19.xyz,Nucleus 1H :,0.968697,-0.048796,-1.316757,29.22,35.15,23.57,28.93,40.23,26.84,28.99,-6.19,0.41,-2.62,23.57,28.93,35.15,0,11.58,-0.08
dw_cut_4_n1_1f_opt_disp_struct_19.xyz,Nucleus 2H :,1.717455,0.636891,-1.730257,28.44,34.56,23.8,26.95,44.58,24.21,26.39,-11.17,2.58,-1.28,23.8,26.95,34.56,0,10.76,-0.42
dw_cut_4_n1_1f_opt_disp_struct_19.xyz,Nucleus 6H :,1.24425,-1.070153,-1.616042,24.19,16.39,25.11,31.07,48.65,15.09,30.32,-17.91,1.44,-5.01,16.39,25.11,31.07,0,14.68,0.19
dw_cut_4_n1_1f_opt_disp_struct_19.xyz,Nucleus 12H :,0.894166,0.081254,0.161887,24.39,20.62,24.77,27.77,46.33,17.85,30.3,-21.47,2.84,-2.68,20.62,24.77,27.77,0,7.15,0.16
dw_cut_4_n1_1f_opt_disp_struct_19.xyz,Nucleus 14H :,1.681204,0.896116,0.952223,23.99,20.13,27.07,24.77,5.23,31.34,43.6,14.93,-4.29,-18.83,20.13,24.77,27.07,0,6.94,0.34
dw_cut_4_n1_1f_opt_disp_struct_19.xyz,Nucleus 16H :,1.299822,0.732245,2.256423,24.27,19.73,27.97,25.11,9.7,31.05,46.56,10.1,-3.1,-21.49,19.73,25.11,27.97,0,8.24,0.31
dw_cut_4_n1_1f_opt_disp_struct_19.xyz,Nucleus 17H :,1.670119,1.237253,3.038951,24.43,20.95,25.37,26.97,44.48,28.44,30.9,-18.95,-7.49,-4.1,20.95,25.37,26.97,0,6.02,0.47
dw_cut_4_n1_1f_opt_disp_struct_19.xyz,Nucleus 18H :,0.270312,-0.175535,2.34071,28.79,34.78,27.86,23.74,42.13,27.31,32.19,-0.03,-9.99,-5.23,23.74,27.86,34.78,0,11.04,-0.25
dw_cut_4_n1_1f_opt_disp_struct_19.xyz,Nucleus 23H :,-0.009343,-0.600735,1.039563,29.71,32.28,28.84,28.02,11.6,24.7,37.32,17.32,3.61,-5.39,28.02,28.84,32.28,0,4.26,-0.61
dw_cut_4_n1_1f_opt_disp_struct_19.xyz,Nucleus 24H :,-1.042849,-1.541695,0.862145,30.21,34.07,26.46,30.09,39.33,11.07,24.2,-5.55,15.47,6.1,26.46,30.09,34.07,0,7.61,-0.05
dw_cut_4_n1_1f_opt_disp_struct_19.xyz,Nucleus 25H :,-1.360604,-1.98594,-0.362953,30.05,26.52,29.97,33.66,39.12,19.83,8.62,-5.59,10.16,18.02,26.52,29.97,33.66,0,7.14,-0.03
dw_cut_4_n1_1f_opt_disp_struct_19.xyz,Nucleus 0C :,-1.753658,-2.027756,1.960702,170.08,186.19,163.74,160.3,256.26,240.19,236.79,-68.11,-78.49,-76.4,160.3,163.74,186.19,0,25.89,-0.73
dw_cut_4_n1_1f_opt_disp_struct_19.xyz,Nucleus 3C :,-2.506487,-2.792931,1.797383,62.27,148.98,53.25,-15.41,239.95,271.53,262.52,-90.99,-218.15,-278.05,-15.41,53.25,148.98,0,164.39,-0.16
dw_cut_4_n1_1f_opt_disp_struct_19.xyz,Nucleus 4C :,-1.448346,-1.584534,3.245059,57.88,-26.55,127.27,72.91,255.2,263.89,273.13,-292.62,-131.71,-194.25,-26.55,72.91,127.27,0,153.82,0.29
dw_cut_4_n1_1f_opt_disp_struct_19.xyz,Nucleus 7C :,-1.96903,-2.010158,4.095453,37.83,136.3,-40.11,17.29,262.14,269.83,270.31,-130.16,-309.99,-248.65,-40.11,17.29,136.3,0,176.41,-0.35
dw_cut_4_n1_1f_opt_disp_struct_19.xyz,Nucleus 8C :,-0.430174,-0.648507,3.459174,60.27,162.4,21.8,-3.39,234.76,264.58,265.26,-72.4,-242.98,-268.4,-3.39,21.8,162.4,0,165.79,-0.7
dw_cut_4_n1_1f_opt_disp_struct_19.xyz,Nucleus 9C :,-0.145898,-0.359562,4.466886,11.7,-66.4,74.29,27.22,233.85,265.85,264.16,-159.86,-237.48,-331.4,-66.4,27.22,74.29,0,140.69,0.33
dw_cut_4_n1_1f_opt_disp_struct_19.xyz,Nucleus 11C :,2.482154,1.566707,0.672443,69.57,164.4,-15.87,60.19,238.61,263.28,270.04,-74.52,-279.68,-209.01,-15.87,60.19,164.4,0,180.27,-0.16
dw_cut_4_n1_1f_opt_disp_struct_19.xyz,Nucleus 13C :,0.006875,0.170933,-1.795896,52.01,172.17,41.75,-57.88,217.3,270.93,254.84,-45.15,-229.11,-312.77,-57.88,41.75,172.17,0,230.05,-0.13
dw_cut_4_n1_1f_opt_disp_struct_19.xyz,Nucleus 15C :,5.410069,-7.57673,2.822503,70.25,171.84,57.54,-18.63,242.18,271.03,263.3,-70.39,-212.16,-283.2,-18.63,57.54,171.84,0,190.47,-0.2
dw_cut_4_n1_1f_opt_disp_struct_19.xyz,Nucleus 19C :,4.331307,-6.511137,2.739077,159.38,120.82,190.19,167.12,251.58,225.11,213.95,-93.77,-55.08,-63.66,120.82,167.12,190.19,0,69.37,0.33
dw_cut_4_n1_1f_opt_disp_struct_19.xyz,Nucleus 20C :,3.421672,-6.610897,3.612041,2.46,-87.48,67.14,27.72,202.11,254.54,268.98,-135.0,-342.02,-241.23,-87.48,27.72,67.14,0,154.62,0.49
dw_cut_4_n1_1f_opt_disp_struct_19.xyz,Nucleus 5N :,4.477009,-5.653203,1.824653,119.1,57.61,168.82,130.88,298.47,336.81,329.18,-129.75,-205.76,-271.65,57.61,130.88,168.82,0,111.21,0.32
dw_cut_4_n1_1f_opt_disp_struct_19.xyz,Nucleus 21O :,5.06105,-8.468174,2.285015,-25.76,222.62,-37.63,-262.27,432.57,407.62,394.25,-186.83,-445.82,-679.08,-262.27,-37.63,222.62,0,484.89,-0.07
dw_cut_4_n1_1f_opt_disp_struct_19.xyz,Nucleus 22O :,6.349886,-7.256599,2.35782,-33.39,217.19,-270.17,-47.2,400.59,451.58,429.99,-232.87,-690.18,-459.3,-270.17,-47.2,217.19,0,487.36,-0.09
dw_cut_4_n1_1f_opt_disp_struct_19.xyz,Nucleus 10F :,5.585859,-7.872753,3.861887,302.51,396.87,223.25,287.42,485.9,467.41,460.45,-70.36,-237.44,-198.42,223.25,287.42,396.87,0,173.62,-0.26
dw_cut_4_n1_1f_opt_disp_struct_2.xyz,Nucleus 1H :,0.968697,-0.048796,-1.316757,29.47,35.38,23.9,29.12,40.46,26.96,28.86,1.31,-6.32,-2.87,23.9,29.12,35.38,0,11.48,-0.09
dw_cut_4_n1_1f_opt_disp_struct_2.xyz,Nucleus 2H :,1.717455,0.636891,-1.730257,28.34,33.92,23.93,27.18,44.45,23.21,27.35,-12.01,2.82,-0.79,23.93,27.18,33.92,0,9.99,-0.35
dw_cut_4_n1_1f_opt_disp_struct_2.xyz,Nucleus 6H :,1.24425,-1.070153,-1.616042,24.87,17.11,25.57,31.93,48.58,16.43,31.54,-17.29,1.14,-5.78,17.11,25.57,31.93,0,14.82,0.14
dw_cut_4_n1_1f_opt_disp_struct_2.xyz,Nucleus 12H :,0.894166,0.081254,0.161887,24.9,21.43,25.43,27.85,48.0,18.1,32.54,-22.95,3.82,-4.8,21.43,25.43,27.85,0,6.42,0.25
dw_cut_4_n1_1f_opt_disp_struct_2.xyz,Nucleus 14H :,1.681204,0.896116,0.952223,24.03,21.04,26.51,24.53,3.92,36.44,43.29,17.22,-9.98,-18.8,21.04,24.53,26.51,0,5.47,0.27
dw_cut_4_n1_1f_opt_disp_struct_2.xyz,Nucleus 16H :,1.299822,0.732245,2.256423,24.73,20.54,28.03,25.61,9.58,33.61,48.3,11.29,-5.61,-22.99,20.54,25.61,28.03,0,7.49,0.35
dw_cut_4_n1_1f_opt_disp_struct_2.xyz,Nucleus 17H :,1.670119,1.237253,3.038951,24.91,21.65,26.01,27.07,45.02,29.11,31.47,-18.99,-7.67,-4.2,21.65,26.01,27.07,0,5.42,0.61
dw_cut_4_n1_1f_opt_disp_struct_2.xyz,Nucleus 18H :,0.270312,-0.175535,2.34071,28.82,34.93,27.85,23.68,42.05,27.14,32.62,-10.67,0.11,-4.79,23.68,27.85,34.93,0,11.25,-0.26
dw_cut_4_n1_1f_opt_disp_struct_2.xyz,Nucleus 23H :,-0.009343,-0.600735,1.039563,30.05,33.75,28.61,27.78,38.12,20.1,21.56,-4.63,8.45,6.53,27.78,28.61,33.75,0,5.97,-0.72
dw_cut_4_n1_1f_opt_disp_struct_2.xyz,Nucleus 24H :,-1.042849,-1.541695,0.862145,30.59,35.0,25.99,30.78,38.64,14.82,27.56,-3.77,11.22,3.3,25.99,30.78,35.0,0,9.01,0.06
dw_cut_4_n1_1f_opt_disp_struct_2.xyz,Nucleus 25H :,-1.360604,-1.98594,-0.362953,30.41,35.0,30.0,26.22,40.59,19.78,16.41,-5.67,9.63,10.49,26.22,30.0,35.0,0,8.78,-0.14
dw_cut_4_n1_1f_opt_disp_struct_2.xyz,Nucleus 0C :,-1.753658,-2.027756,1.960702,169.16,186.34,161.79,159.36,254.67,240.3,237.0,-79.78,-78.4,-66.3,159.36,161.79,186.34,0,26.98,-0.82
dw_cut_4_n1_1f_opt_disp_struct_2.xyz,Nucleus 3C :,-2.506487,-2.792931,1.797383,61.35,149.73,51.99,-17.67,241.29,261.74,274.99,-91.96,-220.75,-281.25,-17.67,51.99,149.73,0,167.4,-0.17
dw_cut_4_n1_1f_opt_disp_struct_2.xyz,Nucleus 4C :,-1.448346,-1.584534,3.245059,63.34,-18.66,126.04,82.64,255.46,274.16,265.64,-285.92,-133.59,-185.74,-18.66,82.64,126.04,0,144.7,0.4
dw_cut_4_n1_1f_opt_disp_struct_2.xyz,Nucleus 7C :,-1.96903,-2.010158,4.095453,37.45,136.53,-42.4,18.23,259.9,279.25,273.83,-138.26,-315.4,-246.96,-42.4,18.23,136.53,0,178.93,-0.32
dw_cut_4_n1_1f_opt_disp_struct_2.xyz,Nucleus 8C :,-0.430174,-0.648507,3.459174,52.66,163.63,9.15,-14.8,233.76,263.83,261.54,-70.44,-254.59,-276.13,-14.8,9.15,163.63,0,178.43,-0.73
dw_cut_4_n1_1f_opt_disp_struct_2.xyz,Nucleus 9C :,-0.145898,-0.359562,4.466886,11.07,-67.32,26.01,74.53,236.09,263.49,267.59,-161.87,-237.36,-334.72,-67.32,26.01,74.53,0,141.85,0.32
dw_cut_4_n1_1f_opt_disp_struct_2.xyz,Nucleus 11C :,2.482154,1.566707,0.672443,70.34,162.99,-15.46,63.49,241.3,266.34,274.45,-80.07,-283.99,-207.0,-15.46,63.49,162.99,0,178.45,-0.12
dw_cut_4_n1_1f_opt_disp_struct_2.xyz,Nucleus 13C :,0.006875,0.170933,-1.795896,48.53,171.18,39.35,-64.94,214.79,253.95,276.2,-44.24,-236.7,-318.42,-64.94,39.35,171.18,0,236.12,-0.12
dw_cut_4_n1_1f_opt_disp_struct_2.xyz,Nucleus 15C :,2.599483,-4.417665,2.394235,71.17,170.35,60.83,-17.67,242.58,273.73,267.92,-74.03,-211.35,-285.36,-17.67,60.83,170.35,0,188.02,-0.16
dw_cut_4_n1_1f_opt_disp_struct_2.xyz,Nucleus 19C :,1.520721,-3.352073,2.310809,159.48,120.53,192.67,165.23,254.54,227.05,220.54,-100.23,-55.06,-68.41,120.53,165.23,192.67,0,72.14,0.24
dw_cut_4_n1_1f_opt_disp_struct_2.xyz,Nucleus 20C :,0.611086,-3.451833,3.183773,4.32,-81.54,72.96,21.55,199.77,257.05,265.6,-126.9,-343.05,-239.5,-81.54,21.55,72.96,0,154.5,0.33
dw_cut_4_n1_1f_opt_disp_struct_2.xyz,Nucleus 5N :,1.666422,-2.494138,1.396384,125.48,68.31,167.05,141.09,299.79,337.56,329.64,-132.99,-196.23,-261.34,68.31,141.09,167.05,0,98.74,0.47
dw_cut_4_n1_1f_opt_disp_struct_2.xyz,Nucleus 21O :,2.250463,-5.309109,1.856747,-58.7,201.08,-54.94,-322.24,397.96,415.63,423.66,-218.03,-455.62,-739.71,-322.24,-54.94,201.08,0,523.32,0.02
dw_cut_4_n1_1f_opt_disp_struct_2.xyz,Nucleus 22O :,3.5393,-4.097534,1.929552,-52.92,203.65,-307.12,-55.3,399.21,418.74,431.95,-215.12,-720.88,-472.68,-307.12,-55.3,203.65,0,510.77,-0.01
dw_cut_4_n1_1f_opt_disp_struct_2.xyz,Nucleus 10F :,2.775272,-4.713688,3.433619,314.48,397.89,243.85,301.69,460.95,471.77,489.31,-73.71,-217.44,-187.45,243.85,301.69,397.89,0,154.04,-0.25
dw_cut_4_n1_1f_opt_disp_struct_3.xyz,Nucleus 1H :,0.968697,-0.048796,-1.316757,29.46,35.39,23.87,29.11,40.59,27.31,29.09,-6.61,0.85,-2.86,23.87,29.11,35.39,0,11.52,-0.09
dw_cut_4_n1_1f_opt_disp_struct_3.xyz,Nucleus 2H :,1.717455,0.636891,-1.730257,28.34,33.96,23.89,27.17,44.81,23.91,27.29,-12.3,2.31,-1.0,23.89,27.17,33.96,0,10.07,-0.35
dw_cut_4_n1_1f_opt_disp_struct_3.xyz,Nucleus 6H :,1.24425,-1.070153,-1.616042,24.74,17.01,25.47,31.75,49.03,16.3,31.32,-17.93,1.2,-5.69,17.01,25.47,31.75,0,14.74,0.15
dw_cut_4_n1_1f_opt_disp_struct_3.xyz,Nucleus 12H :,0.894166,0.081254,0.161887,24.78,21.36,25.21,27.77,48.21,17.7,32.24,-23.24,4.05,-4.61,21.36,25.21,27.77,0,6.41,0.2
dw_cut_4_n1_1f_opt_disp_struct_3.xyz,Nucleus 14H :,1.681204,0.896116,0.952223,24.08,20.93,26.65,24.66,3.38,34.98,43.66,17.63,-8.37,-19.04,20.93,24.66,26.65,0,5.72,0.3
dw_cut_4_n1_1f_opt_disp_struct_3.xyz,Nucleus 16H :,1.299822,0.732245,2.256423,24.61,20.45,27.95,25.42,9.14,32.84,48.54,11.56,-4.92,-23.33,20.45,25.42,27.95,0,7.5,0.32
dw_cut_4_n1_1f_opt_disp_struct_3.xyz,Nucleus 17H :,1.670119,1.237253,3.038951,24.84,21.57,25.91,27.03,45.11,29.21,31.63,-19.18,-7.72,-4.54,21.57,25.91,27.03,0,5.46,0.59
dw_cut_4_n1_1f_opt_disp_struct_3.xyz,Nucleus 18H :,0.270312,-0.175535,2.34071,28.86,34.95,27.89,23.73,42.39,27.52,33.0,-0.17,-10.99,-5.18,23.73,27.89,34.95,0,11.22,-0.26
dw_cut_4_n1_1f_opt_disp_struct_3.xyz,Nucleus 23H :,-0.009343,-0.600735,1.039563,29.99,33.56,28.66,27.75,38.0,19.35,21.63,-4.68,9.26,6.42,27.75,28.66,33.56,0,5.81,-0.69
dw_cut_4_n1_1f_opt_disp_struct_3.xyz,Nucleus 24H :,-1.042849,-1.541695,0.862145,30.54,34.87,26.05,30.7,38.5,14.63,27.08,-3.79,11.47,3.73,26.05,30.7,34.87,0,8.82,0.05
dw_cut_4_n1_1f_opt_disp_struct_3.xyz,Nucleus 25H :,-1.360604,-1.98594,-0.362953,30.37,34.83,29.99,26.28,40.39,19.58,15.54,-5.62,10.28,10.94,26.28,29.99,34.83,0,8.55,-0.13
dw_cut_4_n1_1f_opt_disp_struct_3.xyz,Nucleus 0C :,-1.753658,-2.027756,1.960702,169.31,186.42,162.03,159.49,255.12,241.2,237.34,-66.41,-80.21,-79.1,159.49,162.03,186.42,0,26.93,-0.81
dw_cut_4_n1_1f_opt_disp_struct_3.xyz,Nucleus 3C :,-2.506487,-2.792931,1.797383,61.46,149.65,52.14,-17.4,241.79,262.13,276.25,-92.41,-221.94,-281.43,-17.4,52.14,149.65,0,167.05,-0.17
dw_cut_4_n1_1f_opt_disp_struct_3.xyz,Nucleus 4C :,-1.448346,-1.584534,3.245059,62.54,-19.93,126.24,81.32,256.52,264.86,274.54,-287.16,-133.52,-187.61,-19.93,81.32,126.24,0,146.17,0.39
dw_cut_4_n1_1f_opt_disp_struct_3.xyz,Nucleus 7C :,-1.96903,-2.010158,4.095453,36.85,136.52,-43.23,17.26,260.44,280.59,274.42,-138.73,-317.24,-248.92,-43.23,17.26,136.52,0,179.75,-0.33
dw_cut_4_n1_1f_opt_disp_struct_3.xyz,Nucleus 8C :,-0.430174,-0.648507,3.459174,54.94,163.49,12.58,-11.26,233.93,266.57,263.5,-70.69,-253.87,-274.63,-11.26,12.58,163.49,0,174.75,-0.73
dw_cut_4_n1_1f_opt_disp_struct_3.xyz,Nucleus 9C :,-0.145898,-0.359562,4.466886,10.5,-68.57,74.26,25.82,236.8,265.23,268.72,-162.85,-239.2,-337.2,-68.57,25.82,74.26,0,142.83,0.32
dw_cut_4_n1_1f_opt_disp_struct_3.xyz,Nucleus 11C :,2.482154,1.566707,0.672443,69.93,163.26,-16.07,62.6,240.32,267.87,274.01,-78.91,-285.17,-208.34,-16.07,62.6,163.26,0,179.33,-0.12
dw_cut_4_n1_1f_opt_disp_struct_3.xyz,Nucleus 13C :,0.006875,0.170933,-1.795896,49.2,171.37,39.6,-63.38,212.52,255.55,275.21,-42.17,-235.49,-318.03,-63.38,39.6,171.37,0,234.75,-0.12
dw_cut_4_n1_1f_opt_disp_struct_3.xyz,Nucleus 15C :,2.764811,-4.603493,2.419428,70.62,170.6,59.9,-18.63,242.49,273.69,268.91,-73.88,-211.87,-287.47,-18.63,59.9,170.6,0,189.23,-0.17
dw_cut_4_n1_1f_opt_disp_struct_3.xyz,Nucleus 19C :,1.686049,-3.5379,2.336001,159.61,120.73,192.33,165.77,254.05,225.69,219.14,-98.6,-54.23,-67.23,120.73,165.77,192.33,0,71.6,0.26
dw_cut_4_n1_1f_opt_disp_struct_3.xyz,Nucleus 20C :,0.776414,-3.63766,3.208965,3.58,-82.25,69.89,23.09,201.34,256.99,264.86,-131.5,-342.79,-238.18,-82.25,23.09,69.89,0,152.14,0.38
dw_cut_4_n1_1f_opt_disp_struct_3.xyz,Nucleus 5N :,1.831751,-2.679966,1.421577,124.2,66.01,167.33,139.27,299.41,337.93,330.0,-132.41,-198.35,-263.96,66.01,139.27,167.33,0,101.32,0.45
dw_cut_4_n1_1f_opt_disp_struct_3.xyz,Nucleus 21O :,2.415792,-5.494936,1.881939,-43.41,210.39,-49.29,-291.33,398.23,408.86,420.34,-200.82,-450.73,-706.1,-291.33,-49.29,210.39,0,501.72,-0.04
dw_cut_4_n1_1f_opt_disp_struct_3.xyz,Nucleus 22O :,3.704628,-4.283362,1.954744,-38.95,213.04,-281.99,-47.91,398.53,417.93,429.01,-204.97,-690.85,-466.52,-281.99,-47.91,213.04,0,495.03,-0.05
dw_cut_4_n1_1f_opt_disp_struct_3.xyz,Nucleus 10F :,2.940601,-4.899516,3.458811,311.56,397.75,238.28,298.65,461.44,471.66,489.05,-73.81,-223.56,-190.1,238.28,298.65,397.75,0,159.47,-0.24
