Molecule,Atom,x_coord,y_coord,z_coord,sigma_iso,sigma_xx,sigma_yy,sigma_zz,dia_sigma_xx,dia_sigma_yy,dia_sigma_zz,para_sigma_xx,para_sigma_yy,para_sigma_zz,sigma_11,sigma_22,sigma_33,s_tot_symmetry,span,skew
df_cut_4_n1_opt.xyz,Nucleus 7H :,1.004732,0.618235,0.399603,28.71,34.44,26.2,25.5,45.09,24.36,20.37,-12.17,3.32,5.17,25.5,26.2,34.44,0,8.94,-0.84
df_cut_4_n1_opt.xyz,Nucleus 8H :,-0.479139,0.82372,0.426466,28.66,33.2,27.9,24.88,24.68,36.46,34.5,-8.86,-2.88,2.09,24.88,27.9,33.2,0,8.32,-0.27
df_cut_4_n1_opt.xyz,Nucleus 9H :,-1.139424,1.29359,-0.715278,25.8,29.45,26.15,21.81,45.32,29.24,30.01,-19.56,0.18,-7.79,21.81,26.15,29.45,0,7.64,0.14
df_cut_4_n1_opt.xyz,Nucleus 10H :,-2.52968,1.410024,-0.731269,25.71,21.87,27.98,27.28,45.53,32.43,18.25,-18.92,-4.64,4.48,21.87,27.28,27.98,0,6.11,0.77
df_cut_4_n1_opt.xyz,Nucleus 11H :,-3.272787,1.055261,0.391918,23.23,22.2,23.28,24.21,12.13,42.96,40.98,10.96,-20.55,-16.79,22.2,23.28,24.21,0,2.01,0.07
df_cut_4_n1_opt.xyz,Nucleus 12H :,-2.626124,0.579825,1.530644,25.8,21.81,28.17,27.42,45.81,32.78,16.52,-19.08,-4.78,6.15,21.81,27.42,28.17,0,6.36,0.76
df_cut_4_n1_opt.xyz,Nucleus 13H :,-1.23522,0.460846,1.547455,25.57,29.22,25.82,21.67,45.27,29.92,27.78,-19.88,-0.62,-5.76,21.67,25.82,29.22,0,7.55,0.1
df_cut_4_n1_opt.xyz,Nucleus 14H :,1.55352,1.498202,0.765691,28.84,33.28,28.23,25.01,24.29,37.33,34.72,2.95,-8.94,-3.82,25.01,28.23,33.28,0,8.27,-0.22
df_cut_4_n1_opt.xyz,Nucleus 19H :,1.284892,-0.237829,1.022092,30.04,34.52,30.56,25.04,39.22,30.92,22.11,-4.83,-0.33,3.03,25.04,30.56,34.52,0,9.48,0.16
df_cut_4_n1_opt.xyz,Nucleus 20H :,-0.561879,1.500165,-1.613817,30.01,34.81,30.26,24.97,41.3,24.71,25.3,-6.83,5.68,-0.13,24.97,30.26,34.81,0,9.84,0.08
df_cut_4_n1_opt.xyz,Nucleus 21H :,-3.040816,1.720907,-1.638839,30.13,33.74,28.64,28.02,38.46,25.86,28.28,2.89,0.21,-5.29,28.02,28.64,33.74,0,5.72,-0.78
df_cut_4_n1_opt.xyz,Nucleus 0C :,-4.355684,1.123424,0.370599,155.17,184.07,134.17,147.28,253.89,239.59,229.57,-112.39,-62.83,-82.3,134.17,147.28,184.07,0,49.9,-0.47
df_cut_4_n1_opt.xyz,Nucleus 1C :,-3.211788,0.241502,2.381456,39.3,172.19,-70.88,16.6,235.18,260.37,256.53,-63.48,-330.55,-240.15,-70.88,16.6,172.19,0,243.07,-0.28
df_cut_4_n1_opt.xyz,Nucleus 2C :,-0.733449,0.01944,2.405791,60.59,-42.23,69.57,154.44,266.33,257.24,241.84,-299.01,-196.23,-88.38,-42.23,69.57,154.44,0,196.67,0.14
df_cut_4_n1_opt.xyz,Nucleus 3C :,1.343908,0.40828,-0.61975,67.64,-35.2,68.96,169.15,270.13,257.64,234.46,-293.72,-199.42,-66.19,-35.2,68.96,169.15,0,204.35,0.02
df_cut_4_n1_opt.xyz,Nucleus 4C :,-2.252423,-2.845262,-1.000057,50.7,-62.78,44.33,170.54,231.94,255.89,279.16,-317.83,-234.82,-62.25,-62.78,44.33,170.54,0,233.32,-0.08
df_cut_4_n1_opt.xyz,Nucleus 5C :,-2.119497,-1.440579,-0.434821,67.24,-35.27,67.53,169.45,269.72,258.38,233.52,-294.19,-200.59,-65.14,-35.27,67.53,169.45,0,204.72,0.0
df_cut_4_n1_opt.xyz,Nucleus 6C :,-0.933706,-1.06116,-0.216238,59.34,-45.29,66.76,156.55,267.39,257.19,240.72,-301.74,-199.99,-85.55,-45.29,66.76,156.55,0,201.84,0.11
df_cut_4_n1_opt.xyz,Nucleus 15C :,-3.209874,-0.819015,-0.293313,155.31,191.58,157.04,117.31,253.91,236.42,233.38,-116.33,-81.02,-60.43,117.31,157.04,191.58,0,74.27,0.07
df_cut_4_n1_opt.xyz,Nucleus 16C :,-1.428034,-3.492117,-0.679744,9.68,-96.41,22.27,103.17,216.44,271.19,262.37,-359.7,-247.99,-113.27,-96.41,22.27,103.17,0,199.58,0.19
df_cut_4_n1_opt.xyz,Nucleus 17O :,-3.213046,-3.301478,-0.736404,-191.33,-641.54,141.01,-73.47,445.69,399.96,421.77,-1085.24,-280.39,-475.79,-641.54,-73.47,141.01,0,782.55,0.45
df_cut_4_n1_opt.xyz,Nucleus 18O :,-2.210609,-2.779859,-2.095317,-205.6,-647.23,-52.74,83.17,449.21,390.79,412.57,-1092.88,-447.46,-329.03,-647.23,-52.74,83.17,0,730.4,0.63
df_cut_4_n1_opt_disp_struct_0.xyz,Nucleus 7H :,1.004732,0.618235,0.399603,28.95,34.77,26.11,25.98,45.23,25.03,20.89,-12.23,2.82,5.11,25.98,26.11,34.77,0,8.79,-0.97
df_cut_4_n1_opt_disp_struct_0.xyz,Nucleus 8H :,-0.479139,0.82372,0.426466,28.77,33.33,28.07,24.92,25.31,36.83,34.78,-8.75,-3.51,1.64,24.92,28.07,33.33,0,8.41,-0.25
df_cut_4_n1_opt_disp_struct_0.xyz,Nucleus 9H :,-1.139424,1.29359,-0.715278,25.1,28.97,24.68,21.64,45.19,29.15,30.75,-20.86,-0.25,-8.7,21.64,24.68,28.97,0,7.33,-0.17
df_cut_4_n1_opt_disp_struct_0.xyz,Nucleus 10H :,-2.52968,1.410024,-0.731269,25.03,21.78,27.46,25.84,45.39,32.02,17.22,-20.03,-4.66,5.15,21.78,25.84,27.46,0,5.68,0.43
df_cut_4_n1_opt_disp_struct_0.xyz,Nucleus 11H :,-3.272787,1.055261,0.391918,23.56,25.42,22.69,22.56,10.44,43.17,38.83,12.18,-20.54,-13.42,22.56,22.69,25.42,0,2.86,-0.91
df_cut_4_n1_opt_disp_struct_0.xyz,Nucleus 12H :,-2.626124,0.579825,1.530644,25.07,21.72,27.56,25.92,45.68,32.22,15.54,-20.28,-4.73,6.77,21.72,25.92,27.56,0,5.84,0.44
df_cut_4_n1_opt_disp_struct_0.xyz,Nucleus 13H :,-1.23522,0.460846,1.547455,24.94,28.79,24.47,21.56,45.04,29.72,28.65,-20.95,-0.93,-6.71,21.56,24.47,28.79,0,7.23,-0.2
df_cut_4_n1_opt_disp_struct_0.xyz,Nucleus 14H :,1.55352,1.498202,0.765691,28.92,33.41,28.33,25.02,25.0,37.72,35.01,2.37,-4.31,-9.03,25.02,28.33,33.41,0,8.39,-0.21
df_cut_4_n1_opt_disp_struct_0.xyz,Nucleus 19H :,1.284892,-0.237829,1.022092,30.27,34.62,30.52,25.67,39.09,30.48,21.83,-4.56,0.05,3.92,25.67,30.52,34.62,0,8.95,0.08
df_cut_4_n1_opt_disp_struct_0.xyz,Nucleus 20H :,-0.561879,1.500165,-1.613817,30.27,34.84,30.26,25.7,41.23,23.82,24.51,-6.64,6.25,1.62,25.7,30.26,34.84,0,9.14,-0.0
df_cut_4_n1_opt_disp_struct_0.xyz,Nucleus 21H :,-3.040816,1.720907,-1.638839,30.09,33.53,28.28,28.47,38.46,25.56,27.54,-5.31,0.96,3.08,28.28,28.47,33.53,0,5.25,-0.93
df_cut_4_n1_opt_disp_struct_0.xyz,Nucleus 0C :,-4.355684,1.123424,0.370599,156.96,184.99,135.41,150.47,253.49,240.92,229.81,-112.59,-61.4,-79.36,135.41,150.47,184.99,0,49.58,-0.39
df_cut_4_n1_opt_disp_struct_0.xyz,Nucleus 1C :,-3.211788,0.241502,2.381456,34.69,173.61,-78.48,8.94,236.89,260.5,257.88,-63.56,-338.52,-249.12,-78.48,8.94,173.61,0,252.09,-0.31
df_cut_4_n1_opt_disp_struct_0.xyz,Nucleus 2C :,-0.733449,0.01944,2.405791,51.8,-55.89,55.74,155.54,264.28,256.84,243.4,-312.37,-207.92,-88.83,-55.89,55.74,155.54,0,211.43,0.06
df_cut_4_n1_opt_disp_struct_0.xyz,Nucleus 3C :,1.343908,0.40828,-0.61975,56.67,-51.97,52.29,169.68,268.31,257.03,234.72,-308.81,-215.04,-66.21,-51.97,52.29,169.68,0,221.65,-0.06
df_cut_4_n1_opt_disp_struct_0.xyz,Nucleus 4C :,-2.270767,-3.079382,-1.085798,45.22,-71.65,172.75,34.56,254.48,275.06,232.79,-326.12,-60.04,-240.5,-71.65,34.56,172.75,0,244.4,-0.13
df_cut_4_n1_opt_disp_struct_0.xyz,Nucleus 5C :,-2.13784,-1.674699,-0.520561,56.34,-52.11,51.26,169.88,234.23,268.12,257.73,-309.44,-215.93,-65.68,-52.11,51.26,169.88,0,221.99,-0.07
df_cut_4_n1_opt_disp_struct_0.xyz,Nucleus 6C :,-0.95205,-1.29528,-0.301978,51.12,-57.38,53.21,157.54,265.3,256.38,242.25,-313.23,-211.39,-85.94,-57.38,53.21,157.54,0,214.92,0.03
df_cut_4_n1_opt_disp_struct_0.xyz,Nucleus 15C :,-3.228218,-1.053135,-0.379054,157.5,161.72,191.82,118.96,253.67,235.19,232.39,-113.71,-75.49,-59.57,118.96,161.72,191.82,0,72.86,0.17
df_cut_4_n1_opt_disp_struct_0.xyz,Nucleus 16C :,-1.446378,-3.726236,-0.765484,8.1,-86.05,22.69,87.67,212.44,269.11,261.02,-348.11,-245.38,-124.77,-86.05,22.69,87.67,0,173.72,0.25
df_cut_4_n1_opt_disp_struct_0.xyz,Nucleus 17O :,-3.23139,-3.535598,-0.822144,-128.4,-488.64,177.86,-74.42,439.13,400.67,422.01,-923.27,-243.94,-479.8,-488.64,-74.42,177.86,0,666.5,0.24
df_cut_4_n1_opt_disp_struct_0.xyz,Nucleus 18O :,-2.228953,-3.013979,-2.181057,-143.96,-505.01,134.66,-61.52,439.57,393.55,418.21,-940.69,-458.85,-283.64,-505.01,-61.52,134.66,0,639.67,0.39
df_cut_4_n1_opt_disp_struct_1.xyz,Nucleus 7H :,1.004732,0.618235,0.399603,29.07,34.96,26.01,26.24,45.28,25.5,21.55,-12.28,2.48,4.68,26.01,26.24,34.96,0,8.95,-0.95
df_cut_4_n1_opt_disp_struct_1.xyz,Nucleus 8H :,-0.479139,0.82372,0.426466,28.85,33.45,28.19,24.91,26.03,34.62,37.51,1.08,-3.97,-8.71,24.91,28.19,33.45,0,8.54,-0.23
df_cut_4_n1_opt_disp_struct_1.xyz,Nucleus 9H :,-1.139424,1.29359,-0.715278,24.68,28.69,23.82,21.52,45.29,29.47,31.21,-21.78,-0.85,-9.31,21.52,23.82,28.69,0,7.17,-0.36
df_cut_4_n1_opt_disp_struct_1.xyz,Nucleus 10H :,-2.52968,1.410024,-0.731269,24.62,21.68,27.25,24.94,45.5,31.39,16.61,-20.88,-4.27,5.51,21.68,24.94,27.25,0,5.57,0.17
df_cut_4_n1_opt_disp_struct_1.xyz,Nucleus 11H :,-3.272787,1.055261,0.391918,23.8,23.04,22.31,26.06,9.31,43.46,36.39,13.02,-20.43,-10.33,22.31,23.04,26.06,0,3.75,-0.61
df_cut_4_n1_opt_disp_struct_1.xyz,Nucleus 12H :,-2.626124,0.579825,1.530644,24.63,21.63,27.29,24.96,45.8,31.4,14.93,-21.18,-4.19,7.13,21.63,24.96,27.29,0,5.66,0.17
df_cut_4_n1_opt_disp_struct_1.xyz,Nucleus 13H :,-1.23522,0.460846,1.547455,24.58,28.56,23.69,21.48,45.12,29.88,29.12,-21.74,-1.3,-7.36,21.48,23.69,28.56,0,7.08,-0.38
df_cut_4_n1_opt_disp_struct_1.xyz,Nucleus 14H :,1.55352,1.498202,0.765691,28.98,33.53,28.42,25.0,25.8,34.96,38.31,1.68,-4.67,-9.12,25.0,28.42,33.53,0,8.53,-0.2
df_cut_4_n1_opt_disp_struct_1.xyz,Nucleus 19H :,1.284892,-0.237829,1.022092,30.34,34.63,30.44,25.96,38.98,29.86,21.39,-4.41,0.58,4.63,25.96,30.44,34.63,0,8.67,0.03
df_cut_4_n1_opt_disp_struct_1.xyz,Nucleus 20H :,-0.561879,1.500165,-1.613817,30.34,34.8,30.21,26.02,41.08,23.8,22.57,-6.46,6.73,3.3,26.02,30.21,34.8,0,8.78,-0.04
df_cut_4_n1_opt_disp_struct_1.xyz,Nucleus 21H :,-3.040816,1.720907,-1.638839,30.02,33.34,28.06,28.67,38.36,26.65,25.17,-5.3,1.74,3.46,28.06,28.67,33.34,0,5.28,-0.77
df_cut_4_n1_opt_disp_struct_1.xyz,Nucleus 0C :,-4.355684,1.123424,0.370599,158.13,185.7,136.25,152.43,253.23,241.74,230.55,-112.57,-60.43,-78.14,136.25,152.43,185.7,0,49.45,-0.35
df_cut_4_n1_opt_disp_struct_1.xyz,Nucleus 1C :,-3.211788,0.241502,2.381456,33.86,174.2,-79.57,6.96,238.25,260.21,258.6,-64.23,-339.44,-251.81,-79.57,6.96,174.2,0,253.77,-0.32
df_cut_4_n1_opt_disp_struct_1.xyz,Nucleus 2C :,-0.733449,0.01944,2.405791,47.65,-62.52,49.06,156.41,263.72,257.03,243.87,-319.52,-213.54,-88.62,-62.52,49.06,156.41,0,218.93,0.02
df_cut_4_n1_opt_disp_struct_1.xyz,Nucleus 3C :,1.343908,0.40828,-0.61975,51.37,-60.89,44.51,170.49,233.68,266.67,257.57,-317.54,-221.42,-64.84,-60.89,44.51,170.49,0,231.38,-0.09
df_cut_4_n1_opt_disp_struct_1.xyz,Nucleus 4C :,-2.289111,-3.313502,-1.171538,44.61,-72.35,173.95,32.23,230.88,254.8,271.66,-326.39,-57.69,-239.43,-72.35,32.23,173.95,0,246.3,-0.15
df_cut_4_n1_opt_disp_struct_1.xyz,Nucleus 5C :,-2.156184,-1.908819,-0.606302,51.04,-61.17,43.62,170.66,233.49,266.46,258.21,-318.34,-222.14,-64.56,-61.17,43.62,170.66,0,231.83,-0.1
df_cut_4_n1_opt_disp_struct_1.xyz,Nucleus 6C :,-0.970394,-1.5294,-0.387718,47.33,-63.14,46.75,158.37,264.57,256.37,242.63,-319.4,-216.53,-85.67,-63.14,46.75,158.37,0,221.51,-0.01
df_cut_4_n1_opt_disp_struct_1.xyz,Nucleus 15C :,-3.246562,-1.287255,-0.464794,158.55,164.17,191.81,119.68,253.32,233.42,230.6,-111.17,-71.64,-58.86,119.68,164.17,191.81,0,72.13,0.23
df_cut_4_n1_opt_disp_struct_1.xyz,Nucleus 16C :,-1.464722,-3.960356,-0.851224,5.86,-83.45,23.17,77.85,210.26,267.76,260.16,-344.67,-243.51,-132.41,-83.45,23.17,77.85,0,161.3,0.32
df_cut_4_n1_opt_disp_struct_1.xyz,Nucleus 17O :,-3.249734,-3.769717,-0.907885,-83.62,-382.68,-70.98,202.79,400.6,433.63,420.99,-807.76,-480.17,-218.16,-382.68,-70.98,202.79,0,585.47,0.06
df_cut_4_n1_opt_disp_struct_1.xyz,Nucleus 18O :,-2.247297,-3.248099,-2.266798,-98.31,-401.44,171.99,-65.49,395.96,431.91,417.94,-828.19,-246.5,-466.06,-401.44,-65.49,171.99,0,573.43,0.17
df_cut_4_n1_opt_disp_struct_10.xyz,Nucleus 7H :,1.004732,0.618235,0.399603,28.99,34.81,25.69,26.46,44.75,25.71,23.13,-11.79,1.84,3.32,25.69,26.46,34.81,0,9.12,-0.83
df_cut_4_n1_opt_disp_struct_10.xyz,Nucleus 8H :,-0.479139,0.82372,0.426466,28.92,33.89,28.42,24.45,39.82,33.02,27.84,-0.18,-5.36,-8.38,24.45,28.42,33.89,0,9.44,-0.16
df_cut_4_n1_opt_disp_struct_10.xyz,Nucleus 9H :,-1.139424,1.29359,-0.715278,23.95,28.5,22.18,21.18,45.89,31.29,30.68,-23.69,-2.64,-9.67,21.18,22.18,28.5,0,7.32,-0.73
df_cut_4_n1_opt_disp_struct_10.xyz,Nucleus 10H :,-2.52968,1.410024,-0.731269,23.94,27.13,23.47,21.21,45.78,30.02,16.18,-22.31,-2.92,5.05,21.21,23.47,27.13,0,5.92,-0.24
df_cut_4_n1_opt_disp_struct_10.xyz,Nucleus 11H :,-3.272787,1.055261,0.391918,24.04,21.42,23.69,27.02,8.33,43.86,31.44,-20.18,13.09,-4.42,21.42,23.69,27.02,0,5.6,-0.19
df_cut_4_n1_opt_disp_struct_10.xyz,Nucleus 12H :,-2.626124,0.579825,1.530644,23.91,27.11,23.43,21.2,45.98,29.76,14.53,-22.55,-2.66,6.68,21.2,23.43,27.11,0,5.91,-0.24
df_cut_4_n1_opt_disp_struct_10.xyz,Nucleus 13H :,-1.23522,0.460846,1.547455,23.94,28.43,22.22,21.17,45.75,31.04,29.09,-23.49,-2.59,-7.97,21.17,22.22,28.43,0,7.26,-0.71
df_cut_4_n1_opt_disp_struct_10.xyz,Nucleus 14H :,1.55352,1.498202,0.765691,28.98,33.88,28.58,24.48,40.19,33.43,27.86,-0.04,-5.72,-8.79,24.48,28.58,33.88,0,9.4,-0.13
df_cut_4_n1_opt_disp_struct_10.xyz,Nucleus 19H :,1.284892,-0.237829,1.022092,30.21,34.08,30.12,26.44,38.98,26.57,18.41,-4.99,3.56,8.11,26.44,30.12,34.08,0,7.64,-0.04
df_cut_4_n1_opt_disp_struct_10.xyz,Nucleus 20H :,-0.561879,1.500165,-1.613817,30.21,34.13,30.03,26.46,40.06,22.42,16.2,-5.94,7.6,10.29,26.46,30.03,34.13,0,7.67,-0.07
df_cut_4_n1_opt_disp_struct_10.xyz,Nucleus 21H :,-3.040816,1.720907,-1.638839,29.76,32.4,27.97,28.91,37.56,26.1,20.65,-5.33,2.0,8.3,27.97,28.91,32.4,0,4.43,-0.58
df_cut_4_n1_opt_disp_struct_10.xyz,Nucleus 0C :,-4.355684,1.123424,0.370599,160.21,187.12,137.8,155.72,251.91,244.04,234.99,-109.03,-61.97,-79.29,137.8,155.72,187.12,0,49.32,-0.27
df_cut_4_n1_opt_disp_struct_10.xyz,Nucleus 1C :,-3.211788,0.241502,2.381456,35.44,174.71,-75.25,6.87,238.21,261.05,264.71,-63.59,-336.22,-257.82,-75.25,6.87,174.71,0,249.96,-0.34
df_cut_4_n1_opt_disp_struct_10.xyz,Nucleus 2C :,-0.733449,0.01944,2.405791,44.5,-66.72,41.41,158.82,267.44,259.73,243.89,-326.38,-225.65,-85.53,-66.72,41.41,158.82,0,225.54,-0.04
df_cut_4_n1_opt_disp_struct_10.xyz,Nucleus 3C :,1.343908,0.40828,-0.61975,46.38,-69.41,35.54,173.0,231.92,267.12,258.77,-327.54,-231.35,-59.79,-69.41,35.54,173.0,0,242.41,-0.13
df_cut_4_n1_opt_disp_struct_10.xyz,Nucleus 4C :,-2.454205,-5.42058,-1.943202,49.24,-65.09,175.85,36.96,224.18,257.33,267.35,-50.58,-320.18,-230.38,-65.09,36.96,175.85,0,240.94,-0.15
df_cut_4_n1_opt_disp_struct_10.xyz,Nucleus 5C :,-2.321278,-4.015897,-1.377966,46.21,-69.67,35.15,173.15,231.63,266.82,259.13,-328.22,-231.45,-59.29,-69.67,35.15,173.15,0,242.82,-0.14
df_cut_4_n1_opt_disp_struct_10.xyz,Nucleus 6C :,-1.135488,-3.636478,-1.159382,44.99,-65.9,40.29,160.57,267.55,259.24,242.93,-325.05,-226.76,-82.96,-65.9,40.29,160.57,0,226.47,-0.06
df_cut_4_n1_opt_disp_struct_10.xyz,Nucleus 15C :,-3.411656,-3.394333,-1.236458,159.44,120.92,167.01,190.38,251.19,229.92,224.14,-103.67,-65.3,-57.97,120.92,167.01,190.38,0,69.46,0.33
df_cut_4_n1_opt_disp_struct_10.xyz,Nucleus 16C :,-1.629816,-6.067434,-1.622888,2.8,-86.71,27.88,67.23,206.28,267.28,255.73,-342.45,-239.39,-139.07,-86.71,27.88,67.23,0,153.94,0.49
df_cut_4_n1_opt_disp_struct_10.xyz,Nucleus 17O :,-3.414828,-5.876796,-1.679549,-26.89,-261.86,-37.08,218.26,399.7,426.18,431.89,-676.24,-451.03,-211.18,-261.86,-37.08,218.26,0,480.12,-0.06
df_cut_4_n1_opt_disp_struct_10.xyz,Nucleus 18O :,-2.412391,-5.355177,-3.038461,-29.94,-267.03,-40.62,217.83,428.43,396.07,403.56,-682.38,-449.16,-186.35,-267.03,-40.62,217.83,0,484.86,-0.07
df_cut_4_n1_opt_disp_struct_11.xyz,Nucleus 7H :,1.004732,0.618235,0.399603,28.97,34.78,25.67,26.46,44.68,25.66,23.1,-11.72,1.83,3.35,25.67,26.46,34.78,0,9.11,-0.83
df_cut_4_n1_opt_disp_struct_11.xyz,Nucleus 8H :,-0.479139,0.82372,0.426466,28.92,33.92,28.44,24.4,39.86,32.93,27.85,-0.17,-5.37,-8.34,24.4,28.44,33.92,0,9.52,-0.15
df_cut_4_n1_opt_disp_struct_11.xyz,Nucleus 9H :,-1.139424,1.29359,-0.715278,23.94,28.51,22.17,21.13,45.84,31.27,30.6,-23.65,-2.63,-9.61,21.13,22.17,28.51,0,7.38,-0.72
df_cut_4_n1_opt_disp_struct_11.xyz,Nucleus 10H :,-2.52968,1.410024,-0.731269,23.92,27.13,23.46,21.17,45.72,30.05,16.21,-22.27,-2.93,4.98,21.17,23.46,27.13,0,5.96,-0.23
df_cut_4_n1_opt_disp_struct_11.xyz,Nucleus 11H :,-3.272787,1.055261,0.391918,24.04,23.7,21.37,27.04,8.45,43.86,31.48,-20.18,12.93,-4.45,21.37,23.7,27.04,0,5.67,-0.18
df_cut_4_n1_opt_disp_struct_11.xyz,Nucleus 12H :,-2.626124,0.579825,1.530644,23.9,27.12,23.42,21.16,45.92,29.81,14.58,-22.5,-2.7,6.59,21.16,23.42,27.12,0,5.96,-0.24
df_cut_4_n1_opt_disp_struct_11.xyz,Nucleus 13H :,-1.23522,0.460846,1.547455,23.93,28.44,22.22,21.12,45.7,31.05,29.01,-23.45,-2.59,-7.94,21.12,22.22,28.44,0,7.32,-0.7
df_cut_4_n1_opt_disp_struct_11.xyz,Nucleus 14H :,1.55352,1.498202,0.765691,28.98,33.91,28.6,24.44,40.21,33.34,27.89,-0.05,-5.72,-8.72,24.44,28.6,33.91,0,9.47,-0.12
df_cut_4_n1_opt_disp_struct_11.xyz,Nucleus 19H :,1.284892,-0.237829,1.022092,30.2,34.05,30.1,26.46,39.04,26.39,18.15,-5.09,3.72,8.39,26.46,30.1,34.05,0,7.59,-0.04
df_cut_4_n1_opt_disp_struct_11.xyz,Nucleus 20H :,-0.561879,1.500165,-1.613817,30.2,34.09,30.02,26.48,40.03,22.38,15.8,-5.96,7.63,10.7,26.48,30.02,34.09,0,7.61,-0.07
df_cut_4_n1_opt_disp_struct_11.xyz,Nucleus 21H :,-3.040816,1.720907,-1.638839,29.75,32.35,27.99,28.9,37.54,26.3,20.24,-5.37,1.82,8.7,27.99,28.9,32.35,0,4.36,-0.58
df_cut_4_n1_opt_disp_struct_11.xyz,Nucleus 0C :,-4.355684,1.123424,0.370599,160.24,187.16,137.79,155.78,251.98,244.0,235.21,-108.74,-62.27,-79.46,137.79,155.78,187.16,0,49.37,-0.27
df_cut_4_n1_opt_disp_struct_11.xyz,Nucleus 1C :,-3.211788,0.241502,2.381456,35.38,174.73,-75.2,6.61,238.07,261.29,265.08,-63.45,-336.4,-258.45,-75.2,6.61,174.73,0,249.93,-0.35
df_cut_4_n1_opt_disp_struct_11.xyz,Nucleus 2C :,-0.733449,0.01944,2.405791,44.5,-66.66,41.25,158.91,267.77,259.7,243.76,-326.29,-226.18,-85.27,-66.66,41.25,158.91,0,225.57,-0.04
df_cut_4_n1_opt_disp_struct_11.xyz,Nucleus 3C :,1.343908,0.40828,-0.61975,46.33,-69.42,35.34,173.08,231.89,267.45,258.69,-327.56,-231.91,-59.56,-69.42,35.34,173.08,0,242.5,-0.14
df_cut_4_n1_opt_disp_struct_11.xyz,Nucleus 4C :,-2.472549,-5.6547,-2.028942,49.32,-64.95,175.9,37.02,224.59,257.26,267.78,-50.6,-320.31,-230.76,-64.95,37.02,175.9,0,240.85,-0.15
df_cut_4_n1_opt_disp_struct_11.xyz,Nucleus 5C :,-2.339622,-4.250017,-1.463706,46.18,-69.66,34.97,173.23,231.59,267.18,259.04,-328.21,-232.01,-59.04,-69.66,34.97,173.23,0,242.89,-0.14
df_cut_4_n1_opt_disp_struct_11.xyz,Nucleus 6C :,-1.153832,-3.870598,-1.245123,45.0,-65.82,40.18,160.65,267.89,259.26,242.84,-324.98,-227.28,-82.73,-65.82,40.18,160.65,0,226.47,-0.06
df_cut_4_n1_opt_disp_struct_11.xyz,Nucleus 15C :,-3.429999,-3.628453,-1.322199,159.43,120.89,167.1,190.29,251.14,230.36,224.35,-103.99,-65.42,-58.16,120.89,167.1,190.29,0,69.4,0.33
df_cut_4_n1_opt_disp_struct_11.xyz,Nucleus 16C :,-1.64816,-6.301554,-1.708629,2.75,-86.91,27.98,67.19,205.58,267.32,255.43,-342.33,-239.34,-138.4,-86.91,27.98,67.19,0,154.1,0.49
df_cut_4_n1_opt_disp_struct_11.xyz,Nucleus 17O :,-3.433171,-6.110916,-1.765289,-27.3,-262.84,-37.49,218.44,399.67,426.68,433.05,-678.1,-451.07,-212.12,-262.84,-37.49,218.44,0,481.28,-0.06
df_cut_4_n1_opt_disp_struct_11.xyz,Nucleus 18O :,-2.430734,-5.589297,-3.124202,-29.82,-267.11,-40.59,218.25,429.27,395.91,403.13,-683.05,-449.25,-185.47,-267.11,-40.59,218.25,0,485.36,-0.07
df_cut_4_n1_opt_disp_struct_12.xyz,Nucleus 7H :,1.004732,0.618235,0.399603,28.95,34.74,25.65,26.45,44.61,25.62,23.06,-11.65,1.83,3.38,25.65,26.45,34.74,0,9.09,-0.83
df_cut_4_n1_opt_disp_struct_12.xyz,Nucleus 8H :,-0.479139,0.82372,0.426466,28.93,33.95,28.46,24.37,39.89,32.86,27.85,-0.15,-5.38,-8.29,24.37,28.46,33.95,0,9.58,-0.15
df_cut_4_n1_opt_disp_struct_12.xyz,Nucleus 9H :,-1.139424,1.29359,-0.715278,23.92,28.52,22.16,21.09,45.78,31.24,30.53,-23.61,-2.61,-9.56,21.09,22.16,28.52,0,7.43,-0.71
df_cut_4_n1_opt_disp_struct_12.xyz,Nucleus 10H :,-2.52968,1.410024,-0.731269,23.91,27.14,23.45,21.13,45.67,30.07,16.23,-22.22,-2.94,4.91,21.13,23.45,27.14,0,6.01,-0.23
df_cut_4_n1_opt_disp_struct_12.xyz,Nucleus 11H :,-3.272787,1.055261,0.391918,24.03,23.7,21.33,27.05,8.54,43.86,31.51,-20.17,12.8,-4.46,21.33,23.7,27.05,0,5.72,-0.17
df_cut_4_n1_opt_disp_struct_12.xyz,Nucleus 12H :,-2.626124,0.579825,1.530644,23.89,27.13,23.42,21.12,45.86,29.84,14.61,-22.44,-2.72,6.51,21.12,23.42,27.13,0,6.01,-0.23
df_cut_4_n1_opt_disp_struct_12.xyz,Nucleus 13H :,-1.23522,0.460846,1.547455,23.91,28.45,22.21,21.08,45.65,31.05,28.95,-23.41,-2.58,-7.91,21.08,22.21,28.45,0,7.37,-0.69
df_cut_4_n1_opt_disp_struct_12.xyz,Nucleus 14H :,1.55352,1.498202,0.765691,28.98,33.93,28.61,24.4,40.21,33.25,27.9,-0.04,-5.72,-8.65,24.4,28.61,33.93,0,9.53,-0.12
df_cut_4_n1_opt_disp_struct_12.xyz,Nucleus 19H :,1.284892,-0.237829,1.022092,30.19,34.01,30.08,26.47,39.09,26.2,17.82,-5.18,3.91,8.74,26.47,30.08,34.01,0,7.54,-0.04
df_cut_4_n1_opt_disp_struct_12.xyz,Nucleus 20H :,-0.561879,1.500165,-1.613817,30.18,34.05,30.01,26.49,39.99,22.31,15.37,-5.96,7.69,11.14,26.49,30.01,34.05,0,7.56,-0.07
df_cut_4_n1_opt_disp_struct_12.xyz,Nucleus 21H :,-3.040816,1.720907,-1.638839,29.73,28.01,28.89,32.3,37.51,26.46,19.8,-5.4,1.67,9.15,28.01,28.89,32.3,0,4.29,-0.59
df_cut_4_n1_opt_disp_struct_12.xyz,Nucleus 0C :,-4.355684,1.123424,0.370599,160.26,187.19,137.77,155.82,252.07,243.94,235.39,-108.47,-62.55,-79.59,137.77,155.82,187.19,0,49.42,-0.27
df_cut_4_n1_opt_disp_struct_12.xyz,Nucleus 1C :,-3.211788,0.241502,2.381456,35.31,174.73,-75.17,6.36,237.95,261.45,265.39,-63.33,-336.54,-259.01,-75.17,6.36,174.73,0,249.9,-0.35
df_cut_4_n1_opt_disp_struct_12.xyz,Nucleus 2C :,-0.733449,0.01944,2.405791,44.49,-66.62,41.11,158.99,268.05,259.67,243.64,-326.23,-226.62,-85.04,-66.62,41.11,158.99,0,225.61,-0.04
df_cut_4_n1_opt_disp_struct_12.xyz,Nucleus 3C :,1.343908,0.40828,-0.61975,46.31,-69.42,35.17,173.17,231.86,267.73,258.61,-327.56,-232.38,-59.35,-69.42,35.17,173.17,0,242.59,-0.14
df_cut_4_n1_opt_disp_struct_12.xyz,Nucleus 4C :,-2.490892,-5.88882,-2.114683,49.39,-64.85,175.96,37.05,224.91,257.21,268.12,-50.6,-320.43,-231.08,-64.85,37.05,175.96,0,240.81,-0.15
df_cut_4_n1_opt_disp_struct_12.xyz,Nucleus 5C :,-2.357965,-4.484137,-1.549446,46.15,-69.66,34.81,173.31,231.53,267.48,258.96,-328.2,-232.48,-58.82,-69.66,34.81,173.31,0,242.97,-0.14
df_cut_4_n1_opt_disp_struct_12.xyz,Nucleus 6C :,-1.172175,-4.104718,-1.330863,45.01,-65.76,40.08,160.71,268.18,259.26,242.76,-324.93,-227.71,-82.53,-65.76,40.08,160.71,0,226.47,-0.07
df_cut_4_n1_opt_disp_struct_12.xyz,Nucleus 15C :,-3.448343,-3.862573,-1.407939,159.42,120.86,167.19,190.22,251.11,230.56,224.33,-104.08,-65.39,-58.27,120.86,167.19,190.22,0,69.36,0.34
df_cut_4_n1_opt_disp_struct_12.xyz,Nucleus 16C :,-1.666503,-6.535674,-1.794369,2.7,-87.09,28.04,67.14,204.99,267.43,255.18,-342.26,-239.39,-137.87,-87.09,28.04,67.14,0,154.23,0.49
df_cut_4_n1_opt_disp_struct_12.xyz,Nucleus 17O :,-3.451515,-6.345035,-1.85103,-27.65,-263.79,-37.9,218.75,399.61,427.11,434.19,-679.8,-451.15,-212.91,-263.79,-37.9,218.75,0,482.54,-0.06
df_cut_4_n1_opt_disp_struct_12.xyz,Nucleus 18O :,-2.449078,-5.823417,-3.209942,-29.77,-267.33,-40.67,218.69,430.0,395.77,402.94,-683.77,-449.39,-184.86,-267.33,-40.67,218.69,0,486.02,-0.07
df_cut_4_n1_opt_disp_struct_13.xyz,Nucleus 7H :,1.004732,0.618235,0.399603,28.93,34.71,25.63,26.44,44.55,25.58,23.02,-11.59,1.82,3.41,25.63,26.44,34.71,0,9.08,-0.82
df_cut_4_n1_opt_disp_struct_13.xyz,Nucleus 8H :,-0.479139,0.82372,0.426466,28.93,33.98,28.48,24.34,39.92,32.79,27.84,-0.13,-5.38,-8.25,24.34,28.48,33.98,0,9.64,-0.14
df_cut_4_n1_opt_disp_struct_13.xyz,Nucleus 9H :,-1.139424,1.29359,-0.715278,23.91,28.53,22.16,21.05,45.74,31.2,30.47,-23.57,-2.59,-9.52,21.05,22.16,28.53,0,7.48,-0.7
df_cut_4_n1_opt_disp_struct_13.xyz,Nucleus 10H :,-2.52968,1.410024,-0.731269,23.9,27.15,23.45,21.09,45.62,30.09,16.25,-22.17,-2.95,4.86,21.09,23.45,27.15,0,6.06,-0.22
df_cut_4_n1_opt_disp_struct_13.xyz,Nucleus 11H :,-3.272787,1.055261,0.391918,24.02,23.71,21.29,27.06,8.61,43.86,31.52,-20.17,12.69,-4.46,21.29,23.71,27.06,0,5.77,-0.16
df_cut_4_n1_opt_disp_struct_13.xyz,Nucleus 12H :,-2.626124,0.579825,1.530644,23.88,27.14,23.42,21.08,45.81,29.87,14.64,-22.39,-2.74,6.44,21.08,23.42,27.14,0,6.06,-0.23
df_cut_4_n1_opt_disp_struct_13.xyz,Nucleus 13H :,-1.23522,0.460846,1.547455,23.91,28.46,22.22,21.04,45.61,31.04,28.89,-23.38,-2.57,-7.89,21.04,22.22,28.46,0,7.42,-0.68
df_cut_4_n1_opt_disp_struct_13.xyz,Nucleus 14H :,1.55352,1.498202,0.765691,28.99,33.96,28.63,24.37,40.21,33.17,27.91,-0.04,-5.71,-8.59,24.37,28.63,33.96,0,9.59,-0.11
df_cut_4_n1_opt_disp_struct_13.xyz,Nucleus 19H :,1.284892,-0.237829,1.022092,30.18,33.98,30.07,26.49,39.12,25.98,17.41,-5.25,4.11,9.16,26.49,30.07,33.98,0,7.49,-0.04
df_cut_4_n1_opt_disp_struct_13.xyz,Nucleus 20H :,-0.561879,1.500165,-1.613817,30.17,34.01,30.0,26.5,39.94,22.22,14.92,-5.95,7.78,11.61,26.5,30.0,34.01,0,7.51,-0.07
df_cut_4_n1_opt_disp_struct_13.xyz,Nucleus 21H :,-3.040816,1.720907,-1.638839,29.72,28.02,28.88,32.26,37.47,26.59,19.31,9.65,1.56,-5.41,28.02,28.88,32.26,0,4.24,-0.59
df_cut_4_n1_opt_disp_struct_13.xyz,Nucleus 0C :,-4.355684,1.123424,0.370599,160.27,187.22,137.75,155.85,252.17,243.86,235.55,-108.24,-62.8,-79.72,137.75,155.85,187.22,0,49.47,-0.27
df_cut_4_n1_opt_disp_struct_13.xyz,Nucleus 1C :,-3.211788,0.241502,2.381456,35.23,174.73,-75.16,6.13,237.84,261.56,265.65,-63.22,-336.63,-259.5,-75.16,6.13,174.73,0,249.89,-0.35
df_cut_4_n1_opt_disp_struct_13.xyz,Nucleus 2C :,-0.733449,0.01944,2.405791,44.49,-66.58,40.99,159.05,268.29,259.65,243.54,-326.18,-227.0,-84.85,-66.58,40.99,159.05,0,225.63,-0.05
df_cut_4_n1_opt_disp_struct_13.xyz,Nucleus 3C :,1.343908,0.40828,-0.61975,46.27,-69.43,35.02,173.23,231.82,267.96,258.55,-327.56,-232.78,-59.16,-69.43,35.02,173.23,0,242.66,-0.14
df_cut_4_n1_opt_disp_struct_13.xyz,Nucleus 4C :,-2.509236,-6.12294,-2.200423,49.43,-64.77,176.0,37.06,225.16,257.19,268.41,-50.6,-320.52,-231.34,-64.77,37.06,176.0,0,240.77,-0.15
df_cut_4_n1_opt_disp_struct_13.xyz,Nucleus 5C :,-2.376309,-4.718256,-1.635187,46.13,-69.65,34.68,173.37,231.48,267.73,258.89,-328.18,-232.88,-58.62,-69.65,34.68,173.37,0,243.02,-0.14
df_cut_4_n1_opt_disp_struct_13.xyz,Nucleus 6C :,-1.190519,-4.338837,-1.416603,45.02,-65.71,39.99,160.77,268.42,259.27,242.69,-324.89,-228.07,-82.36,-65.71,39.99,160.77,0,226.48,-0.07
df_cut_4_n1_opt_disp_struct_13.xyz,Nucleus 15C :,-3.466687,-4.096693,-1.493679,159.41,120.82,167.26,190.15,251.07,230.52,224.04,-103.88,-65.2,-58.31,120.82,167.26,190.15,0,69.33,0.34
df_cut_4_n1_opt_disp_struct_13.xyz,Nucleus 16C :,-1.684847,-6.769794,-1.88011,2.64,-87.24,28.07,67.1,204.52,267.6,254.98,-342.21,-239.53,-137.44,-87.24,28.07,67.1,0,154.34,0.49
df_cut_4_n1_opt_disp_struct_13.xyz,Nucleus 17O :,-3.469859,-6.579155,-1.93677,-27.89,-264.54,-38.25,219.11,399.53,427.47,435.28,-681.14,-451.19,-213.63,-264.54,-38.25,219.11,0,483.65,-0.06
df_cut_4_n1_opt_disp_struct_13.xyz,Nucleus 18O :,-2.467422,-6.057537,-3.295683,-29.72,-267.54,-40.76,219.14,430.62,395.67,403.08,-684.39,-449.53,-184.61,-267.54,-40.76,219.14,0,486.68,-0.07
df_cut_4_n1_opt_disp_struct_14.xyz,Nucleus 7H :,1.004732,0.618235,0.399603,28.91,34.69,25.61,26.44,44.49,25.55,22.99,-11.53,1.81,3.44,25.61,26.44,34.69,0,9.08,-0.82
df_cut_4_n1_opt_disp_struct_14.xyz,Nucleus 8H :,-0.479139,0.82372,0.426466,28.94,34.01,28.5,24.31,39.94,32.73,27.83,-0.11,-5.37,-8.21,24.31,28.5,34.01,0,9.7,-0.14
df_cut_4_n1_opt_disp_struct_14.xyz,Nucleus 9H :,-1.139424,1.29359,-0.715278,23.9,28.54,22.16,21.01,45.69,31.18,30.42,-23.53,-2.57,-9.48,21.01,22.16,28.54,0,7.53,-0.69
df_cut_4_n1_opt_disp_struct_14.xyz,Nucleus 10H :,-2.52968,1.410024,-0.731269,23.89,27.16,23.45,21.06,45.58,30.1,16.26,-22.13,-2.95,4.81,21.06,23.45,27.16,0,6.1,-0.22
df_cut_4_n1_opt_disp_struct_14.xyz,Nucleus 11H :,-3.272787,1.055261,0.391918,24.01,23.71,21.25,27.08,8.67,43.87,31.52,-20.17,12.6,-4.45,21.25,23.71,27.08,0,5.83,-0.15
df_cut_4_n1_opt_disp_struct_14.xyz,Nucleus 12H :,-2.626124,0.579825,1.530644,23.87,27.14,23.42,21.05,45.76,29.89,14.67,-22.34,-2.75,6.38,21.05,23.42,27.14,0,6.09,-0.22
df_cut_4_n1_opt_disp_struct_14.xyz,Nucleus 13H :,-1.23522,0.460846,1.547455,23.9,28.47,22.22,21.0,45.57,31.03,28.85,-23.34,-2.55,-7.87,21.0,22.22,28.47,0,7.47,-0.67
df_cut_4_n1_opt_disp_struct_14.xyz,Nucleus 14H :,1.55352,1.498202,0.765691,28.99,33.98,28.64,24.34,40.21,33.1,27.91,-0.03,-5.7,-8.53,24.34,28.64,33.98,0,9.64,-0.11
df_cut_4_n1_opt_disp_struct_14.xyz,Nucleus 19H :,1.284892,-0.237829,1.022092,30.17,33.96,30.05,26.5,39.13,25.76,16.95,-5.3,4.34,9.64,26.5,30.05,33.96,0,7.46,-0.05
df_cut_4_n1_opt_disp_struct_14.xyz,Nucleus 20H :,-0.561879,1.500165,-1.613817,30.16,33.98,29.99,26.51,39.88,22.1,14.43,-5.92,7.89,12.11,26.51,29.99,33.98,0,7.47,-0.07
df_cut_4_n1_opt_disp_struct_14.xyz,Nucleus 21H :,-3.040816,1.720907,-1.638839,29.71,28.04,28.88,32.22,37.43,26.66,18.78,10.2,1.49,-5.42,28.04,28.88,32.22,0,4.18,-0.6
df_cut_4_n1_opt_disp_struct_14.xyz,Nucleus 0C :,-4.355684,1.123424,0.370599,160.28,187.24,137.73,155.87,252.26,243.77,235.68,-108.02,-63.03,-79.82,137.73,155.87,187.24,0,49.51,-0.27
df_cut_4_n1_opt_disp_struct_14.xyz,Nucleus 1C :,-3.211788,0.241502,2.381456,35.17,174.73,-75.15,5.92,237.73,261.62,265.86,-63.11,-336.68,-259.93,-75.15,5.92,174.73,0,249.88,-0.35
df_cut_4_n1_opt_disp_struct_14.xyz,Nucleus 2C :,-0.733449,0.01944,2.405791,44.48,-66.55,40.89,159.1,268.49,259.65,243.46,-326.15,-227.31,-84.69,-66.55,40.89,159.1,0,225.65,-0.05
df_cut_4_n1_opt_disp_struct_14.xyz,Nucleus 3C :,1.343908,0.40828,-0.61975,46.25,-69.43,34.9,173.29,231.78,268.16,258.5,-327.56,-233.11,-59.0,-69.43,34.9,173.29,0,242.72,-0.14
df_cut_4_n1_opt_disp_struct_14.xyz,Nucleus 4C :,-2.52758,-6.35706,-2.286164,49.47,-64.71,176.04,37.07,225.36,257.18,268.64,-50.6,-320.61,-231.57,-64.71,37.07,176.04,0,240.75,-0.15
df_cut_4_n1_opt_disp_struct_14.xyz,Nucleus 5C :,-2.394653,-4.952376,-1.720927,46.12,-69.64,34.58,173.43,231.42,267.95,258.83,-328.17,-233.22,-58.45,-69.64,34.58,173.43,0,243.07,-0.14
df_cut_4_n1_opt_disp_struct_14.xyz,Nucleus 6C :,-1.208863,-4.572957,-1.502344,45.02,-65.66,39.92,160.81,268.63,259.28,242.62,-324.87,-228.37,-82.22,-65.66,39.92,160.81,0,226.47,-0.07
df_cut_4_n1_opt_disp_struct_14.xyz,Nucleus 15C :,-3.485031,-4.330813,-1.57942,159.39,120.79,167.3,190.09,251.03,230.25,223.49,-103.41,-64.88,-58.29,120.79,167.3,190.09,0,69.3,0.34
df_cut_4_n1_opt_disp_struct_14.xyz,Nucleus 16C :,-1.703191,-7.003914,-1.96585,2.59,-87.38,28.08,67.07,204.13,267.84,254.82,-342.19,-239.75,-137.07,-87.38,28.08,67.07,0,154.45,0.5
df_cut_4_n1_opt_disp_struct_14.xyz,Nucleus 17O :,-3.488203,-6.813275,-2.02251,-28.05,-265.08,-38.54,219.47,399.44,427.75,436.36,-682.13,-451.22,-214.36,-265.08,-38.54,219.47,0,484.55,-0.06
df_cut_4_n1_opt_disp_struct_14.xyz,Nucleus 18O :,-2.485766,-6.291656,-3.381423,-29.67,-267.71,-40.86,219.56,431.12,395.6,403.57,-684.86,-449.66,-184.78,-267.71,-40.86,219.56,0,487.27,-0.07
df_cut_4_n1_opt_disp_struct_15.xyz,Nucleus 7H :,1.004732,0.618235,0.399603,28.91,34.67,25.62,26.44,44.44,25.53,22.96,-11.47,1.8,3.47,25.62,26.44,34.67,0,9.05,-0.82
df_cut_4_n1_opt_disp_struct_15.xyz,Nucleus 8H :,-0.479139,0.82372,0.426466,28.94,34.02,28.51,24.3,39.95,32.68,27.82,-0.09,-5.36,-8.17,24.3,28.51,34.02,0,9.72,-0.13
df_cut_4_n1_opt_disp_struct_15.xyz,Nucleus 9H :,-1.139424,1.29359,-0.715278,23.9,28.54,22.17,20.99,45.65,31.16,30.38,-23.5,-2.55,-9.44,20.99,22.17,28.54,0,7.55,-0.69
df_cut_4_n1_opt_disp_struct_15.xyz,Nucleus 10H :,-2.52968,1.410024,-0.731269,23.87,27.16,23.45,21.01,45.53,30.1,16.25,-22.08,-2.95,4.76,21.01,23.45,27.16,0,6.15,-0.2
df_cut_4_n1_opt_disp_struct_15.xyz,Nucleus 11H :,-3.272787,1.055261,0.391918,24.0,23.72,21.19,27.08,8.69,43.86,31.51,-20.16,12.52,-4.44,21.19,23.72,27.08,0,5.89,-0.14
df_cut_4_n1_opt_disp_struct_15.xyz,Nucleus 12H :,-2.626124,0.579825,1.530644,23.86,27.15,23.42,21.0,45.71,29.9,14.67,-22.29,-2.76,6.33,21.0,23.42,27.15,0,6.15,-0.21
df_cut_4_n1_opt_disp_struct_15.xyz,Nucleus 13H :,-1.23522,0.460846,1.547455,23.89,28.48,22.22,20.98,45.53,31.02,28.81,-23.3,-2.54,-7.84,20.98,22.22,28.48,0,7.5,-0.67
df_cut_4_n1_opt_disp_struct_15.xyz,Nucleus 14H :,1.55352,1.498202,0.765691,28.99,34.0,28.65,24.33,40.21,33.05,27.92,-0.03,-5.69,-8.48,24.33,28.65,34.0,0,9.67,-0.11
df_cut_4_n1_opt_disp_struct_15.xyz,Nucleus 19H :,1.284892,-0.237829,1.022092,30.15,33.93,30.03,26.5,39.13,25.52,16.43,-5.35,4.57,10.16,26.5,30.03,33.93,0,7.43,-0.05
df_cut_4_n1_opt_disp_struct_15.xyz,Nucleus 20H :,-0.561879,1.500165,-1.613817,30.15,33.96,29.98,26.51,39.82,21.96,13.91,-5.89,8.02,12.63,26.51,29.98,33.96,0,7.45,-0.07
df_cut_4_n1_opt_disp_struct_15.xyz,Nucleus 21H :,-3.040816,1.720907,-1.638839,29.69,28.03,28.86,32.19,18.19,26.68,37.39,10.79,1.46,-5.42,28.03,28.86,32.19,0,4.16,-0.6
df_cut_4_n1_opt_disp_struct_15.xyz,Nucleus 0C :,-4.355684,1.123424,0.370599,160.28,187.2,137.79,155.85,252.32,243.71,235.75,-107.82,-63.21,-79.91,137.79,155.85,187.2,0,49.41,-0.27
df_cut_4_n1_opt_disp_struct_15.xyz,Nucleus 1C :,-3.211788,0.241502,2.381456,35.07,174.73,-75.13,5.61,237.64,261.65,265.95,-63.01,-336.68,-260.33,-75.13,5.61,174.73,0,249.86,-0.35
df_cut_4_n1_opt_disp_struct_15.xyz,Nucleus 2C :,-0.733449,0.01944,2.405791,44.46,-66.54,40.73,159.18,268.59,259.64,243.39,-326.13,-227.6,-84.53,-66.54,40.73,159.18,0,225.72,-0.05
df_cut_4_n1_opt_disp_struct_15.xyz,Nucleus 3C :,1.343908,0.40828,-0.61975,46.22,-69.43,34.71,173.37,231.73,268.27,258.46,-327.55,-233.42,-58.84,-69.43,34.71,173.37,0,242.8,-0.14
df_cut_4_n1_opt_disp_struct_15.xyz,Nucleus 4C :,-2.545924,-6.591179,-2.371904,49.45,-64.69,176.06,36.97,225.46,257.19,268.74,-50.6,-320.68,-231.77,-64.69,36.97,176.06,0,240.75,-0.16
df_cut_4_n1_opt_disp_struct_15.xyz,Nucleus 5C :,-2.412997,-5.186496,-1.806668,46.09,-69.64,34.4,173.51,268.07,258.79,231.36,-328.14,-233.53,-58.28,-69.64,34.4,173.51,0,243.15,-0.14
df_cut_4_n1_opt_disp_struct_15.xyz,Nucleus 6C :,-1.227207,-4.807077,-1.588084,45.01,-65.64,39.78,160.88,268.74,259.3,242.58,-324.87,-228.65,-82.08,-65.64,39.78,160.88,0,226.52,-0.07
df_cut_4_n1_opt_disp_struct_15.xyz,Nucleus 15C :,-3.503374,-4.564932,-1.66516,159.34,120.72,167.28,190.02,250.97,229.79,222.68,-102.69,-64.49,-58.24,120.72,167.28,190.02,0,69.3,0.34
df_cut_4_n1_opt_disp_struct_15.xyz,Nucleus 16C :,-1.721535,-7.238034,-2.05159,2.55,-87.49,28.07,67.06,203.78,268.13,254.7,-342.18,-240.05,-136.73,-87.49,28.07,67.06,0,154.55,0.5
df_cut_4_n1_opt_disp_struct_15.xyz,Nucleus 17O :,-3.506547,-7.047395,-2.108251,-28.15,-265.43,-38.8,219.79,399.35,427.97,437.42,-682.79,-451.23,-215.16,-265.43,-38.8,219.79,0,485.22,-0.07
df_cut_4_n1_opt_disp_struct_15.xyz,Nucleus 18O :,-2.504109,-6.525776,-3.467164,-29.56,-267.74,-40.92,219.98,431.53,395.56,404.45,-685.09,-449.74,-185.39,-267.74,-40.92,219.98,0,487.72,-0.07
df_cut_4_n1_opt_disp_struct_16.xyz,Nucleus 7H :,1.004732,0.618235,0.399603,28.89,34.64,25.6,26.42,44.39,25.5,22.92,-11.42,1.79,3.5,25.6,26.42,34.64,0,9.04,-0.82
df_cut_4_n1_opt_disp_struct_16.xyz,Nucleus 8H :,-0.479139,0.82372,0.426466,28.95,34.04,28.52,24.28,39.96,32.63,27.81,-0.07,-5.36,-8.13,24.28,28.52,34.04,0,9.76,-0.13
df_cut_4_n1_opt_disp_struct_16.xyz,Nucleus 9H :,-1.139424,1.29359,-0.715278,23.89,28.55,22.17,20.96,45.62,31.13,30.33,-23.47,-2.53,-9.41,20.96,22.17,28.55,0,7.59,-0.68
df_cut_4_n1_opt_disp_struct_16.xyz,Nucleus 10H :,-2.52968,1.410024,-0.731269,23.87,27.17,23.45,20.99,45.49,30.11,16.26,-22.04,-2.95,4.73,20.99,23.45,27.17,0,6.18,-0.2
df_cut_4_n1_opt_disp_struct_16.xyz,Nucleus 11H :,-3.272787,1.055261,0.391918,23.99,23.72,21.17,27.09,8.73,43.87,31.5,-20.16,12.46,-4.41,21.17,23.72,27.09,0,5.92,-0.14
df_cut_4_n1_opt_disp_struct_16.xyz,Nucleus 12H :,-2.626124,0.579825,1.530644,23.85,27.15,23.42,20.97,45.66,29.92,14.69,-22.24,-2.76,6.28,20.97,23.42,27.15,0,6.18,-0.21
df_cut_4_n1_opt_disp_struct_16.xyz,Nucleus 13H :,-1.23522,0.460846,1.547455,23.89,28.48,22.23,20.95,45.5,31.01,28.77,-23.27,-2.53,-7.83,20.95,22.23,28.48,0,7.53,-0.66
df_cut_4_n1_opt_disp_struct_16.xyz,Nucleus 14H :,1.55352,1.498202,0.765691,28.99,34.02,28.66,24.3,40.2,32.99,27.92,-0.02,-5.67,-8.44,24.3,28.66,34.02,0,9.72,-0.1
df_cut_4_n1_opt_disp_struct_16.xyz,Nucleus 19H :,1.284892,-0.237829,1.022092,30.15,33.92,30.02,26.52,39.14,25.28,15.9,-5.38,4.81,10.71,26.52,30.02,33.92,0,7.4,-0.05
df_cut_4_n1_opt_disp_struct_16.xyz,Nucleus 20H :,-0.561879,1.500165,-1.613817,30.14,33.94,29.97,26.52,39.76,21.82,13.38,-5.85,8.16,13.17,26.52,29.97,33.94,0,7.42,-0.07
df_cut_4_n1_opt_disp_struct_16.xyz,Nucleus 21H :,-3.040816,1.720907,-1.638839,29.69,28.05,28.86,32.17,17.59,26.7,37.35,11.4,1.44,-5.41,28.05,28.86,32.17,0,4.12,-0.6
df_cut_4_n1_opt_disp_struct_16.xyz,Nucleus 0C :,-4.355684,1.123424,0.370599,160.28,187.22,137.75,155.87,252.42,243.62,235.85,-107.65,-63.4,-79.99,137.75,155.87,187.22,0,49.47,-0.27
df_cut_4_n1_opt_disp_struct_16.xyz,Nucleus 1C :,-3.211788,0.241502,2.381456,35.02,174.73,-75.13,5.45,237.54,261.67,266.13,-62.92,-336.7,-260.66,-75.13,5.45,174.73,0,249.86,-0.36
df_cut_4_n1_opt_disp_struct_16.xyz,Nucleus 2C :,-0.733449,0.01944,2.405791,44.46,-66.51,40.67,159.21,268.75,259.65,243.32,-326.12,-227.82,-84.41,-66.51,40.67,159.21,0,225.72,-0.05
df_cut_4_n1_opt_disp_struct_16.xyz,Nucleus 3C :,1.343908,0.40828,-0.61975,46.21,-69.43,34.64,173.41,231.69,268.43,258.42,-327.54,-233.66,-58.72,-69.43,34.64,173.41,0,242.84,-0.14
df_cut_4_n1_opt_disp_struct_16.xyz,Nucleus 4C :,-2.564267,-6.825299,-2.457644,49.48,-64.65,176.09,36.99,225.61,257.19,268.91,-50.61,-320.74,-231.92,-64.65,36.99,176.09,0,240.74,-0.16
df_cut_4_n1_opt_disp_struct_16.xyz,Nucleus 5C :,-2.43134,-5.420616,-1.892408,46.08,-69.63,34.34,173.54,268.25,258.75,231.31,-328.12,-233.77,-58.15,-69.63,34.34,173.54,0,243.17,-0.14
df_cut_4_n1_opt_disp_struct_16.xyz,Nucleus 6C :,-1.24555,-5.041197,-1.673825,45.02,-65.61,39.75,160.91,268.9,259.32,242.53,-324.87,-228.86,-81.97,-65.61,39.75,160.91,0,226.52,-0.07
df_cut_4_n1_opt_disp_struct_16.xyz,Nucleus 15C :,-3.521718,-4.799052,-1.750901,159.35,120.75,167.33,189.97,250.92,229.3,221.85,-101.85,-64.04,-58.12,120.75,167.33,189.97,0,69.22,0.35
df_cut_4_n1_opt_disp_struct_16.xyz,Nucleus 16C :,-1.739878,-7.472153,-2.137331,2.5,-87.6,28.06,67.05,203.44,268.42,254.59,-342.18,-240.35,-136.41,-87.6,28.06,67.05,0,154.65,0.5
df_cut_4_n1_opt_disp_struct_16.xyz,Nucleus 17O :,-3.52489,-7.281515,-2.193991,-28.21,-265.67,-38.98,220.03,399.27,428.17,438.54,-683.32,-451.2,-216.08,-265.67,-38.98,220.03,0,485.7,-0.07
df_cut_4_n1_opt_disp_struct_16.xyz,Nucleus 18O :,-2.522453,-6.759896,-3.552904,-29.52,-267.79,-40.98,220.21,431.94,395.53,405.36,-685.33,-449.81,-186.24,-267.79,-40.98,220.21,0,488.0,-0.07
df_cut_4_n1_opt_disp_struct_17.xyz,Nucleus 7H :,1.004732,0.618235,0.399603,28.87,34.62,25.57,26.41,44.33,25.47,22.87,-11.38,1.79,3.52,25.57,26.41,34.62,0,9.05,-0.82
df_cut_4_n1_opt_disp_struct_17.xyz,Nucleus 8H :,-0.479139,0.82372,0.426466,28.95,34.07,28.54,24.24,39.97,32.59,27.8,-0.05,-5.35,-8.11,24.24,28.54,34.07,0,9.83,-0.13
df_cut_4_n1_opt_disp_struct_17.xyz,Nucleus 9H :,-1.139424,1.29359,-0.715278,23.88,28.55,22.17,20.92,45.59,31.1,30.29,-23.43,-2.51,-9.39,20.92,22.17,28.55,0,7.63,-0.67
df_cut_4_n1_opt_disp_struct_17.xyz,Nucleus 10H :,-2.52968,1.410024,-0.731269,23.87,27.18,23.45,20.98,45.45,30.11,16.28,-22.01,-2.94,4.7,20.98,23.45,27.18,0,6.2,-0.2
df_cut_4_n1_opt_disp_struct_17.xyz,Nucleus 11H :,-3.272787,1.055261,0.391918,24.0,23.73,21.17,27.1,8.78,43.87,31.48,-20.15,12.41,-4.38,21.17,23.73,27.1,0,5.93,-0.14
df_cut_4_n1_opt_disp_struct_17.xyz,Nucleus 12H :,-2.626124,0.579825,1.530644,23.85,27.16,23.42,20.97,45.62,29.92,14.72,-22.2,-2.76,6.25,20.97,23.42,27.16,0,6.19,-0.21
df_cut_4_n1_opt_disp_struct_17.xyz,Nucleus 13H :,-1.23522,0.460846,1.547455,23.88,28.49,22.23,20.91,45.47,31.0,28.74,-23.24,-2.51,-7.82,20.91,22.23,28.49,0,7.58,-0.65
df_cut_4_n1_opt_disp_struct_17.xyz,Nucleus 14H :,1.55352,1.498202,0.765691,28.99,34.03,28.68,24.27,40.19,32.94,27.92,-0.01,-5.66,-8.4,24.27,28.68,34.03,0,9.76,-0.1
df_cut_4_n1_opt_disp_struct_17.xyz,Nucleus 19H :,1.284892,-0.237829,1.022092,30.15,33.9,30.01,26.53,39.14,25.04,15.35,-5.41,5.04,11.28,26.53,30.01,33.9,0,7.37,-0.06
df_cut_4_n1_opt_disp_struct_17.xyz,Nucleus 20H :,-0.561879,1.500165,-1.613817,30.14,33.92,29.97,26.54,39.7,21.67,12.85,-5.82,8.31,13.72,26.54,29.97,33.92,0,7.38,-0.07
df_cut_4_n1_opt_disp_struct_17.xyz,Nucleus 21H :,-3.040816,1.720907,-1.638839,29.69,28.07,28.85,32.14,16.98,26.7,37.31,12.04,1.44,-5.42,28.07,28.85,32.14,0,4.07,-0.62
df_cut_4_n1_opt_disp_struct_17.xyz,Nucleus 0C :,-4.355684,1.123424,0.370599,160.29,187.3,137.65,155.91,252.55,243.5,235.96,-107.51,-63.58,-80.07,137.65,155.91,187.3,0,49.65,-0.26
df_cut_4_n1_opt_disp_struct_17.xyz,Nucleus 1C :,-3.211788,0.241502,2.381456,34.99,174.73,-75.16,5.4,237.46,261.66,266.35,-62.84,-336.71,-260.94,-75.16,5.4,174.73,0,249.89,-0.36
df_cut_4_n1_opt_disp_struct_17.xyz,Nucleus 2C :,-0.733449,0.01944,2.405791,44.48,-66.48,40.69,159.22,268.93,259.66,243.26,-326.12,-227.99,-84.32,-66.48,40.69,159.22,0,225.7,-0.05
df_cut_4_n1_opt_disp_struct_17.xyz,Nucleus 3C :,1.343908,0.40828,-0.61975,46.21,-69.43,34.63,173.42,268.61,258.38,231.67,-327.54,-233.86,-58.64,-69.43,34.63,173.42,0,242.85,-0.14
df_cut_4_n1_opt_disp_struct_17.xyz,Nucleus 4C :,-2.582611,-7.059419,-2.543385,49.54,-64.59,176.13,37.07,225.78,257.2,269.1,-50.63,-320.8,-232.04,-64.59,37.07,176.13,0,240.72,-0.16
df_cut_4_n1_opt_disp_struct_17.xyz,Nucleus 5C :,-2.449684,-5.654736,-1.978149,46.09,-69.62,34.35,173.55,268.44,258.7,231.27,-328.11,-233.97,-58.07,-69.62,34.35,173.55,0,243.17,-0.14
df_cut_4_n1_opt_disp_struct_17.xyz,Nucleus 6C :,-1.263894,-5.275317,-1.759565,45.04,-65.57,39.78,160.91,269.09,259.33,242.48,-324.87,-229.02,-81.89,-65.57,39.78,160.91,0,226.48,-0.07
df_cut_4_n1_opt_disp_struct_17.xyz,Nucleus 15C :,-3.540062,-5.033172,-1.836641,159.35,120.75,167.36,189.93,250.87,228.74,220.91,-100.93,-63.59,-57.96,120.75,167.36,189.93,0,69.18,0.35
df_cut_4_n1_opt_disp_struct_17.xyz,Nucleus 16C :,-1.758222,-7.706273,-2.223071,2.48,-87.69,28.07,67.06,203.14,268.74,254.5,-342.19,-240.67,-136.09,-87.69,28.07,67.06,0,154.75,0.5
df_cut_4_n1_opt_disp_struct_17.xyz,Nucleus 17O :,-3.543234,-7.515634,-2.279732,-28.24,-265.85,-39.12,220.26,399.2,428.36,439.73,-683.75,-451.16,-217.08,-265.85,-39.12,220.26,0,486.11,-0.07
df_cut_4_n1_opt_disp_struct_17.xyz,Nucleus 18O :,-2.540797,-6.994016,-3.638644,-29.49,-267.87,-41.03,220.43,432.33,395.51,406.4,-685.57,-449.88,-187.27,-267.87,-41.03,220.43,0,488.3,-0.07
df_cut_4_n1_opt_disp_struct_18.xyz,Nucleus 7H :,1.004732,0.618235,0.399603,28.85,34.61,25.55,26.4,44.29,25.45,22.84,-11.34,1.78,3.55,25.55,26.4,34.61,0,9.06,-0.81
df_cut_4_n1_opt_disp_struct_18.xyz,Nucleus 8H :,-0.479139,0.82372,0.426466,28.95,34.08,28.55,24.23,39.98,32.55,27.78,-0.03,-5.34,-8.08,24.23,28.55,34.08,0,9.85,-0.12
df_cut_4_n1_opt_disp_struct_18.xyz,Nucleus 9H :,-1.139424,1.29359,-0.715278,23.88,28.56,22.18,20.9,45.56,31.08,30.26,-23.4,-2.5,-9.37,20.9,22.18,28.56,0,7.66,-0.67
df_cut_4_n1_opt_disp_struct_18.xyz,Nucleus 10H :,-2.52968,1.410024,-0.731269,23.86,27.18,23.45,20.96,45.42,30.1,16.29,-21.97,-2.93,4.67,20.96,23.45,27.18,0,6.22,-0.2
df_cut_4_n1_opt_disp_struct_18.xyz,Nucleus 11H :,-3.272787,1.055261,0.391918,24.0,23.74,21.15,27.1,8.8,43.87,31.46,-20.15,12.36,-4.35,21.15,23.74,27.1,0,5.95,-0.13
df_cut_4_n1_opt_disp_struct_18.xyz,Nucleus 12H :,-2.626124,0.579825,1.530644,23.85,27.17,23.43,20.94,45.58,29.93,14.74,-22.15,-2.76,6.21,20.94,23.43,27.17,0,6.23,-0.2
df_cut_4_n1_opt_disp_struct_18.xyz,Nucleus 13H :,-1.23522,0.460846,1.547455,23.87,28.49,22.24,20.89,45.44,30.98,28.71,-23.21,-2.49,-7.81,20.89,22.24,28.49,0,7.6,-0.64
df_cut_4_n1_opt_disp_struct_18.xyz,Nucleus 14H :,1.55352,1.498202,0.765691,29.0,34.05,28.69,24.25,40.18,32.9,27.92,0.0,-5.65,-8.36,24.25,28.69,34.05,0,9.8,-0.09
df_cut_4_n1_opt_disp_struct_18.xyz,Nucleus 19H :,1.284892,-0.237829,1.022092,30.14,33.89,30.0,26.54,39.15,24.81,14.8,-5.45,5.28,11.84,26.54,30.0,33.89,0,7.35,-0.06
df_cut_4_n1_opt_disp_struct_18.xyz,Nucleus 20H :,-0.561879,1.500165,-1.613817,30.14,33.9,29.96,26.55,39.64,21.52,12.31,-5.79,8.46,14.27,26.55,29.96,33.9,0,7.35,-0.07
df_cut_4_n1_opt_disp_struct_18.xyz,Nucleus 21H :,-3.040816,1.720907,-1.638839,29.68,28.07,28.85,32.13,16.36,26.7,37.29,12.67,1.45,-5.42,28.07,28.85,32.13,0,4.06,-0.61
df_cut_4_n1_opt_disp_struct_18.xyz,Nucleus 0C :,-4.355684,1.123424,0.370599,160.28,187.31,137.63,155.91,252.64,243.41,236.03,-107.37,-63.73,-80.13,137.63,155.91,187.31,0,49.68,-0.26
df_cut_4_n1_opt_disp_struct_18.xyz,Nucleus 1C :,-3.211788,0.241502,2.381456,34.94,174.73,-75.17,5.25,237.38,261.65,266.47,-62.77,-336.71,-261.2,-75.17,5.25,174.73,0,249.9,-0.36
df_cut_4_n1_opt_disp_struct_18.xyz,Nucleus 2C :,-0.733449,0.01944,2.405791,44.47,-66.47,40.64,159.25,269.05,259.66,243.22,-326.12,-228.16,-84.23,-66.47,40.64,159.25,0,225.72,-0.05
df_cut_4_n1_opt_disp_struct_18.xyz,Nucleus 3C :,1.343908,0.40828,-0.61975,46.2,-69.43,34.57,173.45,268.73,258.35,231.63,-327.53,-234.04,-58.54,-69.43,34.57,173.45,0,242.88,-0.14
df_cut_4_n1_opt_disp_struct_18.xyz,Nucleus 4C :,-2.600955,-7.293539,-2.629125,49.55,-64.56,176.16,37.06,225.88,257.21,269.21,-50.64,-320.85,-232.15,-64.56,37.06,176.16,0,240.72,-0.16
df_cut_4_n1_opt_disp_struct_18.xyz,Nucleus 5C :,-2.468028,-5.888855,-2.063889,46.09,-69.62,34.3,173.58,268.56,258.67,231.22,-328.09,-234.15,-57.96,-69.62,34.3,173.58,0,243.2,-0.15
df_cut_4_n1_opt_disp_struct_18.xyz,Nucleus 6C :,-1.282238,-5.509437,-1.845306,45.04,-65.55,39.74,160.94,269.2,259.35,242.45,-324.88,-229.18,-81.81,-65.55,39.74,160.94,0,226.49,-0.07
df_cut_4_n1_opt_disp_struct_18.xyz,Nucleus 15C :,-3.558406,-5.267292,-1.922381,159.33,120.75,167.36,189.89,250.83,228.18,219.98,-100.01,-63.18,-57.79,120.75,167.36,189.89,0,69.14,0.35
df_cut_4_n1_opt_disp_struct_18.xyz,Nucleus 16C :,-1.776566,-7.940393,-2.308812,2.45,-87.78,28.06,67.07,202.82,269.07,254.42,-342.19,-240.99,-135.76,-87.78,28.06,67.07,0,154.85,0.5
df_cut_4_n1_opt_disp_struct_18.xyz,Nucleus 17O :,-3.561578,-7.749754,-2.365472,-28.28,-265.96,-39.23,220.36,399.14,428.52,440.88,-684.1,-451.1,-218.16,-265.96,-39.23,220.36,0,486.32,-0.07
df_cut_4_n1_opt_disp_struct_18.xyz,Nucleus 18O :,-2.559141,-7.228136,-3.724385,-29.44,-267.83,-41.04,220.54,432.73,395.5,407.45,-685.7,-449.9,-188.4,-267.83,-41.04,220.54,0,488.37,-0.07
df_cut_4_n1_opt_disp_struct_19.xyz,Nucleus 7H :,1.004732,0.618235,0.399603,28.84,34.59,25.54,26.39,44.24,25.42,22.8,-11.3,1.78,3.58,25.54,26.39,34.59,0,9.05,-0.81
df_cut_4_n1_opt_disp_struct_19.xyz,Nucleus 8H :,-0.479139,0.82372,0.426466,28.96,34.1,28.56,24.21,39.98,32.52,27.77,-0.01,-5.33,-8.05,24.21,28.56,34.1,0,9.89,-0.12
df_cut_4_n1_opt_disp_struct_19.xyz,Nucleus 9H :,-1.139424,1.29359,-0.715278,23.87,28.56,22.18,20.88,45.52,31.06,30.23,-23.37,-2.48,-9.35,20.88,22.18,28.56,0,7.68,-0.66
df_cut_4_n1_opt_disp_struct_19.xyz,Nucleus 10H :,-2.52968,1.410024,-0.731269,23.85,27.18,23.45,20.93,45.38,30.1,16.29,-21.93,-2.92,4.65,20.93,23.45,27.18,0,6.25,-0.19
df_cut_4_n1_opt_disp_struct_19.xyz,Nucleus 11H :,-3.272787,1.055261,0.391918,23.99,23.74,21.13,27.11,8.82,43.87,31.43,-20.15,12.32,-4.32,21.13,23.74,27.11,0,5.98,-0.13
df_cut_4_n1_opt_disp_struct_19.xyz,Nucleus 12H :,-2.626124,0.579825,1.530644,23.84,27.17,23.43,20.92,45.54,29.93,14.75,-22.11,-2.76,6.18,20.92,23.43,27.17,0,6.25,-0.2
df_cut_4_n1_opt_disp_struct_19.xyz,Nucleus 13H :,-1.23522,0.460846,1.547455,23.87,28.5,22.24,20.87,45.41,30.97,28.69,-23.18,-2.48,-7.8,20.87,22.24,28.5,0,7.63,-0.64
df_cut_4_n1_opt_disp_struct_19.xyz,Nucleus 14H :,1.55352,1.498202,0.765691,29.0,34.06,28.7,24.23,40.16,32.86,27.91,0.01,-5.63,-8.32,24.23,28.7,34.06,0,9.83,-0.09
df_cut_4_n1_opt_disp_struct_19.xyz,Nucleus 19H :,1.284892,-0.237829,1.022092,30.14,33.88,29.99,26.54,39.15,24.58,14.25,-5.48,5.51,12.4,26.54,29.99,33.88,0,7.34,-0.06
df_cut_4_n1_opt_disp_struct_19.xyz,Nucleus 20H :,-0.561879,1.500165,-1.613817,30.13,33.89,29.95,26.55,39.6,21.37,11.77,-5.77,8.61,14.82,26.55,29.95,33.89,0,7.34,-0.07
df_cut_4_n1_opt_disp_struct_19.xyz,Nucleus 21H :,-3.040816,1.720907,-1.638839,29.68,28.08,28.84,32.11,15.74,26.69,37.26,13.3,1.46,-5.44,28.08,28.84,32.11,0,4.03,-0.63
df_cut_4_n1_opt_disp_struct_19.xyz,Nucleus 0C :,-4.355684,1.123424,0.370599,160.28,187.33,137.6,155.92,252.72,243.32,236.09,-107.24,-63.86,-80.19,137.6,155.92,187.33,0,49.73,-0.26
df_cut_4_n1_opt_disp_struct_19.xyz,Nucleus 1C :,-3.211788,0.241502,2.381456,34.9,174.73,-75.17,5.13,237.32,261.64,266.57,-62.71,-336.71,-261.43,-75.17,5.13,174.73,0,249.9,-0.36
df_cut_4_n1_opt_disp_struct_19.xyz,Nucleus 2C :,-0.733449,0.01944,2.405791,44.48,-66.45,40.6,159.28,269.14,259.67,243.18,-326.12,-228.31,-84.15,-66.45,40.6,159.28,0,225.73,-0.05
df_cut_4_n1_opt_disp_struct_19.xyz,Nucleus 3C :,1.343908,0.40828,-0.61975,46.19,-69.43,34.52,173.47,268.82,258.32,231.6,-327.52,-234.2,-58.46,-69.43,34.52,173.47,0,242.9,-0.14
df_cut_4_n1_opt_disp_struct_19.xyz,Nucleus 4C :,-2.619299,-7.527659,-2.714866,49.56,-64.54,176.18,37.05,225.97,257.22,269.3,-50.65,-320.9,-232.24,-64.54,37.05,176.18,0,240.72,-0.16
df_cut_4_n1_opt_disp_struct_19.xyz,Nucleus 5C :,-2.486372,-6.122975,-2.149629,46.08,-69.62,34.25,173.6,268.67,258.64,231.18,-328.06,-234.31,-57.87,-69.62,34.25,173.6,0,243.22,-0.15
df_cut_4_n1_opt_disp_struct_19.xyz,Nucleus 6C :,-1.300582,-5.743556,-1.931046,45.05,-65.53,39.72,160.96,269.3,259.36,242.42,-324.88,-229.32,-81.74,-65.53,39.72,160.96,0,226.49,-0.07
df_cut_4_n1_opt_disp_struct_19.xyz,Nucleus 15C :,-3.576749,-5.501412,-2.008122,159.33,120.76,167.37,189.86,250.79,227.63,219.04,-99.08,-62.8,-57.6,120.76,167.37,189.86,0,69.1,0.35
df_cut_4_n1_opt_disp_struct_19.xyz,Nucleus 16C :,-1.79491,-8.174513,-2.394552,2.43,-87.85,28.06,67.08,202.5,269.39,254.35,-342.2,-241.31,-135.43,-87.85,28.06,67.08,0,154.93,0.5
df_cut_4_n1_opt_disp_struct_19.xyz,Nucleus 17O :,-3.579922,-7.983874,-2.451212,-28.31,-266.02,-39.33,220.42,399.09,428.68,442.05,-684.41,-451.05,-219.27,-266.02,-39.33,220.42,0,486.44,-0.07
df_cut_4_n1_opt_disp_struct_19.xyz,Nucleus 18O :,-2.577484,-7.462255,-3.810125,-29.4,-267.77,-41.04,220.61,433.14,395.49,408.48,-685.82,-449.9,-189.58,-267.77,-41.04,220.61,0,488.38,-0.07
df_cut_4_n1_opt_disp_struct_2.xyz,Nucleus 7H :,1.004732,0.618235,0.399603,29.11,35.05,25.94,26.35,45.25,25.77,22.15,-12.28,2.27,4.2,25.94,26.35,35.05,0,9.11,-0.91
df_cut_4_n1_opt_disp_struct_2.xyz,Nucleus 8H :,-0.479139,0.82372,0.426466,28.89,33.53,28.26,24.88,26.66,34.39,38.15,0.58,-4.37,-8.72,24.88,28.26,33.53,0,8.65,-0.22
df_cut_4_n1_opt_disp_struct_2.xyz,Nucleus 9H :,-1.139424,1.29359,-0.715278,24.43,28.55,23.29,21.46,45.49,29.89,31.49,-22.44,-1.42,-9.72,21.46,23.29,28.55,0,7.09,-0.48
df_cut_4_n1_opt_disp_struct_2.xyz,Nucleus 10H :,-2.52968,1.410024,-0.731269,24.39,27.14,24.41,21.61,45.68,30.75,16.25,-21.48,-3.72,5.69,21.61,24.41,27.14,0,5.53,0.01
df_cut_4_n1_opt_disp_struct_2.xyz,Nucleus 11H :,-3.272787,1.055261,0.391918,23.96,22.11,23.36,26.42,8.43,43.68,34.29,13.7,-20.34,-7.86,22.11,23.36,26.42,0,4.31,-0.42
df_cut_4_n1_opt_disp_struct_2.xyz,Nucleus 12H :,-2.626124,0.579825,1.530644,24.37,27.15,24.39,21.57,45.96,30.6,14.54,-21.81,-3.52,7.34,21.57,24.39,27.15,0,5.58,0.01
df_cut_4_n1_opt_disp_struct_2.xyz,Nucleus 13H :,-1.23522,0.460846,1.547455,24.36,28.43,23.21,21.43,45.34,30.12,29.39,-22.35,-1.64,-7.78,21.43,23.21,28.43,0,7.0,-0.49
df_cut_4_n1_opt_disp_struct_2.xyz,Nucleus 14H :,1.55352,1.498202,0.765691,29.01,33.6,28.47,24.96,26.48,34.79,38.88,1.06,-4.97,-9.22,24.96,28.47,33.6,0,8.64,-0.19
df_cut_4_n1_opt_disp_struct_2.xyz,Nucleus 19H :,1.284892,-0.237829,1.022092,30.35,34.57,30.37,26.12,38.89,29.26,20.96,-4.36,1.1,5.21,26.12,30.37,34.57,0,8.45,0.01
df_cut_4_n1_opt_disp_struct_2.xyz,Nucleus 20H :,-0.561879,1.500165,-1.613817,30.35,34.72,30.16,26.18,40.92,23.33,21.42,-6.33,7.08,4.63,26.18,30.16,34.72,0,8.54,-0.07
df_cut_4_n1_opt_disp_struct_2.xyz,Nucleus 21H :,-3.040816,1.720907,-1.638839,29.97,33.17,27.94,28.79,38.23,25.94,24.81,-5.29,2.27,3.93,27.94,28.79,33.17,0,5.23,-0.68
df_cut_4_n1_opt_disp_struct_2.xyz,Nucleus 0C :,-4.355684,1.123424,0.370599,158.86,186.17,136.8,153.6,252.95,242.26,231.31,-112.29,-59.92,-77.74,136.8,153.6,186.17,0,49.37,-0.32
df_cut_4_n1_opt_disp_struct_2.xyz,Nucleus 1C :,-3.211788,0.241502,2.381456,34.23,174.49,-78.77,6.97,239.09,260.01,259.24,-64.71,-338.43,-252.52,-78.77,6.97,174.49,0,253.26,-0.32
df_cut_4_n1_opt_disp_struct_2.xyz,Nucleus 2C :,-0.733449,0.01944,2.405791,45.81,-65.45,45.84,157.03,263.98,257.35,244.06,-323.04,-216.58,-88.36,-65.45,45.84,157.03,0,222.48,0.0
df_cut_4_n1_opt_disp_struct_2.xyz,Nucleus 3C :,1.343908,0.40828,-0.61975,48.86,-65.36,40.81,171.12,232.67,265.42,258.29,-322.26,-223.9,-63.66,-65.36,40.81,171.12,0,236.48,-0.1
df_cut_4_n1_opt_disp_struct_2.xyz,Nucleus 4C :,-2.307455,-3.547622,-1.257279,45.45,-70.88,174.59,32.65,227.66,255.97,268.67,-55.32,-324.61,-236.01,-70.88,32.65,174.59,0,245.47,-0.16
df_cut_4_n1_opt_disp_struct_2.xyz,Nucleus 5C :,-2.174528,-2.142938,-0.692042,48.53,-65.71,40.03,171.27,232.59,265.07,258.91,-323.14,-224.41,-63.42,-65.71,40.03,171.27,0,236.98,-0.11
df_cut_4_n1_opt_disp_struct_2.xyz,Nucleus 6C :,-0.988738,-1.76352,-0.473459,45.72,-65.56,43.75,158.96,264.63,256.57,242.7,-322.36,-219.02,-85.37,-65.56,43.75,158.96,0,224.52,-0.03
df_cut_4_n1_opt_disp_struct_2.xyz,Nucleus 15C :,-3.264906,-1.521375,-0.550535,159.05,120.07,165.41,191.68,252.96,231.79,228.85,-69.15,-58.26,-109.03,120.07,165.41,191.68,0,71.61,0.27
df_cut_4_n1_opt_disp_struct_2.xyz,Nucleus 16C :,-1.483066,-4.194476,-0.936965,4.4,-83.14,24.0,72.35,209.65,266.97,259.53,-343.58,-242.05,-137.31,-83.14,24.0,72.35,0,155.49,0.38
df_cut_4_n1_opt_disp_struct_2.xyz,Nucleus 17O :,-3.268078,-4.003837,-0.993625,-55.64,-321.37,-61.41,215.87,400.36,430.2,420.1,-739.2,-474.06,-204.31,-321.37,-61.41,215.87,0,537.24,-0.03
df_cut_4_n1_opt_disp_struct_2.xyz,Nucleus 18O :,-2.265641,-3.482219,-2.352538,-68.42,-337.94,-61.79,194.48,427.16,397.46,413.36,-758.73,-219.63,-464.86,-337.94,-61.79,194.48,0,532.42,0.04
df_cut_4_n1_opt_disp_struct_3.xyz,Nucleus 7H :,1.004732,0.618235,0.399603,29.13,35.08,25.89,26.41,45.2,25.9,22.6,-12.25,2.13,3.8,25.89,26.41,35.08,0,9.19,-0.89
df_cut_4_n1_opt_disp_struct_3.xyz,Nucleus 8H :,-0.479139,0.82372,0.426466,28.91,33.59,28.3,24.83,27.12,34.17,38.66,0.22,-4.7,-8.75,24.83,28.3,33.59,0,8.76,-0.21
df_cut_4_n1_opt_disp_struct_3.xyz,Nucleus 9H :,-1.139424,1.29359,-0.715278,24.28,28.48,22.94,21.42,45.68,30.27,31.61,-22.91,-1.85,-9.96,21.42,22.94,28.48,0,7.06,-0.57
df_cut_4_n1_opt_disp_struct_3.xyz,Nucleus 10H :,-2.52968,1.410024,-0.731269,24.25,27.08,24.1,21.56,45.82,30.24,16.06,-21.86,-3.26,5.75,21.56,24.1,27.08,0,5.52,-0.08
df_cut_4_n1_opt_disp_struct_3.xyz,Nucleus 11H :,-3.272787,1.055261,0.391918,24.05,21.98,23.55,26.61,7.82,43.81,32.77,-20.27,14.17,-6.16,21.98,23.55,26.61,0,4.63,-0.32
df_cut_4_n1_opt_disp_struct_3.xyz,Nucleus 12H :,-2.626124,0.579825,1.530644,24.22,27.08,24.06,21.52,46.09,30.0,14.32,-22.18,-2.98,7.43,21.52,24.06,27.08,0,5.56,-0.09
df_cut_4_n1_opt_disp_struct_3.xyz,Nucleus 13H :,-1.23522,0.460846,1.547455,24.23,28.38,22.9,21.41,45.55,30.3,29.56,-22.78,-1.92,-8.02,21.41,22.9,28.38,0,6.97,-0.57
df_cut_4_n1_opt_disp_struct_3.xyz,Nucleus 14H :,1.55352,1.498202,0.765691,29.02,33.65,28.5,24.9,26.99,34.6,39.33,0.62,-5.21,-9.28,24.9,28.5,33.65,0,8.75,-0.18
df_cut_4_n1_opt_disp_struct_3.xyz,Nucleus 19H :,1.284892,-0.237829,1.022092,30.34,34.5,30.31,26.2,38.82,28.75,20.56,-4.36,1.56,5.68,26.2,30.31,34.5,0,8.3,-0.01
df_cut_4_n1_opt_disp_struct_3.xyz,Nucleus 20H :,-0.561879,1.500165,-1.613817,30.34,34.63,30.13,26.26,40.77,23.03,20.46,-6.22,7.32,5.67,26.26,30.13,34.63,0,8.37,-0.08
df_cut_4_n1_opt_disp_struct_3.xyz,Nucleus 21H :,-3.040816,1.720907,-1.638839,29.92,33.02,27.88,28.85,38.1,25.55,24.37,-5.27,2.53,4.47,27.88,28.85,33.02,0,5.14,-0.62
df_cut_4_n1_opt_disp_struct_3.xyz,Nucleus 0C :,-4.355684,1.123424,0.370599,159.32,186.47,137.16,154.33,252.65,242.7,232.03,-111.89,-59.79,-77.73,137.16,154.33,186.47,0,49.31,-0.3
df_cut_4_n1_opt_disp_struct_3.xyz,Nucleus 1C :,-3.211788,0.241502,2.381456,34.78,174.59,-77.67,7.43,239.46,259.47,260.32,-64.95,-337.15,-252.8,-77.67,7.43,174.59,0,252.26,-0.33
df_cut_4_n1_opt_disp_struct_3.xyz,Nucleus 2C :,-0.733449,0.01944,2.405791,45.07,-66.58,44.3,157.48,264.47,257.75,244.23,-324.69,-218.46,-88.1,-66.58,44.3,157.48,0,224.06,-0.01
df_cut_4_n1_opt_disp_struct_3.xyz,Nucleus 3C :,1.343908,0.40828,-0.61975,47.71,-67.47,39.04,171.57,232.09,264.77,258.79,-324.7,-224.97,-62.83,-67.47,39.04,171.57,0,239.04,-0.11
df_cut_4_n1_opt_disp_struct_3.xyz,Nucleus 4C :,-2.325799,-3.781742,-1.343019,46.52,-69.16,174.94,33.79,224.73,257.01,266.47,-53.31,-322.65,-232.67,-69.16,33.79,174.94,0,244.1,-0.16
df_cut_4_n1_opt_disp_struct_3.xyz,Nucleus 5C :,-2.192872,-2.377058,-0.777783,47.41,-67.84,38.35,171.73,232.0,264.28,259.39,-325.6,-225.29,-62.54,-67.84,38.35,171.73,0,239.57,-0.11
df_cut_4_n1_opt_disp_struct_3.xyz,Nucleus 6C :,-1.007081,-1.997639,-0.559199,45.14,-66.36,42.41,159.38,264.97,256.91,242.78,-323.68,-220.43,-85.12,-66.36,42.41,159.38,0,225.74,-0.04
df_cut_4_n1_opt_disp_struct_3.xyz,Nucleus 15C :,-3.283249,-1.755495,-0.636275,159.28,120.33,166.01,191.49,252.61,230.54,227.41,-57.79,-67.61,-107.33,120.33,166.01,191.49,0,71.16,0.28
df_cut_4_n1_opt_disp_struct_3.xyz,Nucleus 16C :,-1.501409,-4.428596,-1.022705,3.68,-83.56,24.94,69.66,209.86,266.62,258.98,-343.2,-241.0,-140.21,-83.56,24.94,69.66,0,153.22,0.42
df_cut_4_n1_opt_disp_struct_3.xyz,Nucleus 17O :,-3.286421,-4.237957,-1.079366,-40.1,-289.67,-51.4,220.77,400.19,428.44,419.99,-703.44,-466.09,-199.39,-289.67,-51.4,220.77,0,510.44,-0.07
df_cut_4_n1_opt_disp_struct_3.xyz,Nucleus 18O :,-2.283984,-3.716338,-2.438279,-50.89,-303.96,-55.51,206.79,424.9,397.97,408.0,-721.55,-460.12,-201.88,-303.96,-55.51,206.79,0,510.75,-0.03
df_cut_4_n1_opt_disp_struct_4.xyz,Nucleus 7H :,1.004732,0.618235,0.399603,29.12,35.06,25.85,26.44,45.15,25.96,22.89,-12.21,2.03,3.54,25.85,26.44,35.06,0,9.21,-0.87
df_cut_4_n1_opt_disp_struct_4.xyz,Nucleus 8H :,-0.479139,0.82372,0.426466,28.92,33.64,28.33,24.78,27.43,33.95,39.03,0.01,-4.94,-8.73,24.78,28.33,33.64,0,8.86,-0.2
df_cut_4_n1_opt_disp_struct_4.xyz,Nucleus 9H :,-1.139424,1.29359,-0.715278,24.18,28.45,22.69,21.4,45.83,30.55,31.59,-23.24,-2.14,-10.04,21.4,22.69,28.45,0,7.05,-0.63
df_cut_4_n1_opt_disp_struct_4.xyz,Nucleus 10H :,-2.52968,1.410024,-0.731269,24.15,27.07,23.88,21.51,45.89,29.95,15.98,-22.1,-2.97,5.71,21.51,23.88,27.07,0,5.56,-0.15
df_cut_4_n1_opt_disp_struct_4.xyz,Nucleus 11H :,-3.272787,1.055261,0.391918,24.08,21.87,23.63,26.74,7.53,43.87,31.87,-20.24,14.34,-5.14,21.87,23.63,26.74,0,4.87,-0.28
df_cut_4_n1_opt_disp_struct_4.xyz,Nucleus 12H :,-2.626124,0.579825,1.530644,24.13,27.06,23.84,21.48,46.15,29.66,14.23,-22.42,-2.65,7.41,21.48,23.84,27.06,0,5.58,-0.16
df_cut_4_n1_opt_disp_struct_4.xyz,Nucleus 13H :,-1.23522,0.460846,1.547455,24.14,28.36,22.67,21.4,45.7,30.45,29.62,-23.09,-2.12,-8.13,21.4,22.67,28.36,0,6.96,-0.63
df_cut_4_n1_opt_disp_struct_4.xyz,Nucleus 14H :,1.55352,1.498202,0.765691,29.01,33.68,28.51,24.84,27.32,34.39,39.65,0.34,-5.39,-9.28,24.84,28.51,33.68,0,8.84,-0.17
df_cut_4_n1_opt_disp_struct_4.xyz,Nucleus 19H :,1.284892,-0.237829,1.022092,30.32,34.42,30.27,26.26,38.77,28.29,20.17,-4.4,1.99,6.14,26.26,30.27,34.42,0,8.16,-0.02
df_cut_4_n1_opt_disp_struct_4.xyz,Nucleus 20H :,-0.561879,1.500165,-1.613817,30.32,34.54,30.11,26.31,40.6,22.82,19.63,-6.12,7.51,6.51,26.31,30.11,34.54,0,8.23,-0.08
df_cut_4_n1_opt_disp_struct_4.xyz,Nucleus 21H :,-3.040816,1.720907,-1.638839,29.89,32.9,27.87,28.89,37.97,25.41,23.82,-5.24,2.62,5.07,27.87,28.89,32.9,0,5.03,-0.6
df_cut_4_n1_opt_disp_struct_4.xyz,Nucleus 0C :,-4.355684,1.123424,0.370599,159.62,186.66,137.41,154.78,252.36,243.13,232.68,-111.44,-59.95,-77.93,137.41,154.78,186.66,0,49.25,-0.29
df_cut_4_n1_opt_disp_struct_4.xyz,Nucleus 1C :,-3.211788,0.241502,2.381456,35.19,174.64,-76.82,7.74,239.47,259.47,261.01,-64.9,-336.25,-253.24,-76.82,7.74,174.64,0,251.46,-0.33
df_cut_4_n1_opt_disp_struct_4.xyz,Nucleus 2C :,-0.733449,0.01944,2.405791,44.75,-66.97,43.41,157.81,264.92,258.25,244.36,-325.57,-219.92,-87.79,-66.97,43.41,157.81,0,224.78,-0.02
df_cut_4_n1_opt_disp_struct_4.xyz,Nucleus 3C :,1.343908,0.40828,-0.61975,47.14,-68.49,38.0,171.92,231.87,264.66,259.01,-326.02,-225.9,-62.2,-68.49,38.0,171.92,0,240.41,-0.11
df_cut_4_n1_opt_disp_struct_4.xyz,Nucleus 4C :,-2.344142,-4.015862,-1.428759,47.38,-67.86,175.19,34.82,222.76,257.67,265.31,-51.84,-321.27,-230.48,-67.86,34.82,175.19,0,243.05,-0.16
df_cut_4_n1_opt_disp_struct_4.xyz,Nucleus 5C :,-2.211215,-2.611178,-0.863523,46.87,-68.85,37.39,172.08,231.75,264.11,259.6,-326.9,-226.11,-61.83,-68.85,37.39,172.08,0,240.93,-0.12
df_cut_4_n1_opt_disp_struct_4.xyz,Nucleus 6C :,-1.025425,-2.231759,-0.64494,44.95,-66.55,41.71,159.68,265.3,257.41,242.93,-324.37,-221.57,-84.86,-66.55,41.71,159.68,0,226.23,-0.04
df_cut_4_n1_opt_disp_struct_4.xyz,Nucleus 15C :,-3.301593,-1.989614,-0.722016,159.38,120.53,166.35,191.26,252.29,229.56,226.18,-57.44,-66.55,-105.9,120.53,166.35,191.26,0,70.73,0.3
df_cut_4_n1_opt_disp_struct_4.xyz,Nucleus 16C :,-1.519753,-4.662716,-1.108446,3.25,-84.21,25.74,68.23,209.98,266.58,258.44,-343.1,-240.39,-141.75,-84.21,25.74,68.23,0,152.44,0.44
df_cut_4_n1_opt_disp_struct_4.xyz,Nucleus 17O :,-3.304765,-4.472077,-1.165106,-31.75,-273.59,-43.82,222.16,400.02,427.69,420.65,-685.46,-459.37,-198.77,-273.59,-43.82,222.16,0,495.75,-0.07
df_cut_4_n1_opt_disp_struct_4.xyz,Nucleus 18O :,-2.302328,-3.950458,-2.524019,-41.0,-286.1,-49.6,212.7,424.23,397.8,404.58,-701.92,-455.29,-192.39,-286.1,-49.6,212.7,0,498.8,-0.05
df_cut_4_n1_opt_disp_struct_5.xyz,Nucleus 7H :,1.004732,0.618235,0.399603,29.1,35.03,25.81,26.46,45.09,25.98,23.06,-12.16,1.94,3.39,25.81,26.46,35.03,0,9.22,-0.86
df_cut_4_n1_opt_disp_struct_5.xyz,Nucleus 8H :,-0.479139,0.82372,0.426466,28.91,33.68,28.34,24.71,27.6,33.74,39.3,-0.1,-5.11,-8.69,24.71,28.34,33.68,0,8.97,-0.19
df_cut_4_n1_opt_disp_struct_5.xyz,Nucleus 9H :,-1.139424,1.29359,-0.715278,24.11,28.44,22.52,21.38,45.93,30.75,31.49,-23.46,-2.33,-10.03,21.38,22.52,28.44,0,7.06,-0.68
df_cut_4_n1_opt_disp_struct_5.xyz,Nucleus 10H :,-2.52968,1.410024,-0.731269,24.09,27.07,23.74,21.47,45.92,29.84,15.98,-22.24,-2.84,5.62,21.47,23.74,27.07,0,5.6,-0.19
df_cut_4_n1_opt_disp_struct_5.xyz,Nucleus 11H :,-3.272787,1.055261,0.391918,24.09,21.77,23.67,26.82,7.53,43.89,31.45,-20.22,14.25,-4.62,21.77,23.67,26.82,0,5.05,-0.25
df_cut_4_n1_opt_disp_struct_5.xyz,Nucleus 12H :,-2.626124,0.579825,1.530644,24.06,27.05,23.69,21.45,46.16,29.54,14.23,-22.54,-2.52,7.32,21.45,23.69,27.05,0,5.6,-0.2
df_cut_4_n1_opt_disp_struct_5.xyz,Nucleus 13H :,-1.23522,0.460846,1.547455,24.08,28.35,22.52,21.38,45.8,30.59,29.59,-23.29,-2.28,-8.15,21.38,22.52,28.35,0,6.97,-0.67
df_cut_4_n1_opt_disp_struct_5.xyz,Nucleus 14H :,1.55352,1.498202,0.765691,29.0,33.71,28.53,24.77,27.52,34.18,39.86,0.19,-5.52,-9.22,24.77,28.53,33.71,0,8.94,-0.16
df_cut_4_n1_opt_disp_struct_5.xyz,Nucleus 19H :,1.284892,-0.237829,1.022092,30.3,34.35,30.24,26.3,38.74,27.86,19.78,-4.45,2.4,6.57,26.3,30.24,34.35,0,8.05,-0.02
df_cut_4_n1_opt_disp_struct_5.xyz,Nucleus 20H :,-0.561879,1.500165,-1.613817,30.3,34.45,30.09,26.35,40.44,22.66,18.89,-6.03,7.79,7.15,26.35,30.09,34.45,0,8.1,-0.08
df_cut_4_n1_opt_disp_struct_5.xyz,Nucleus 21H :,-3.040816,1.720907,-1.638839,29.86,32.79,27.87,28.91,37.84,25.4,23.2,-5.2,2.63,5.71,27.87,28.91,32.79,0,4.92,-0.58
df_cut_4_n1_opt_disp_struct_5.xyz,Nucleus 0C :,-4.355684,1.123424,0.370599,159.81,186.79,137.56,155.08,252.14,243.49,233.23,-111.0,-60.25,-78.18,137.56,155.08,186.79,0,49.23,-0.29
df_cut_4_n1_opt_disp_struct_5.xyz,Nucleus 1C :,-3.211788,0.241502,2.381456,35.47,174.7,-76.19,7.89,239.26,259.61,261.76,-64.63,-335.75,-253.86,-76.19,7.89,174.7,0,250.89,-0.33
df_cut_4_n1_opt_disp_struct_5.xyz,Nucleus 2C :,-0.733449,0.01944,2.405791,44.63,-67.03,42.87,158.05,265.32,258.73,244.41,-326.03,-221.13,-87.42,-67.03,42.87,158.05,0,225.08,-0.02
df_cut_4_n1_opt_disp_struct_5.xyz,Nucleus 3C :,1.343908,0.40828,-0.61975,46.86,-68.96,37.34,172.19,231.84,264.88,259.1,-326.7,-226.89,-61.67,-68.96,37.34,172.19,0,241.15,-0.12
df_cut_4_n1_opt_disp_struct_5.xyz,Nucleus 4C :,-2.362486,-4.249981,-1.5145,48.03,-66.89,175.37,35.62,221.98,257.92,265.03,-51.0,-320.44,-229.39,-66.89,35.62,175.37,0,242.26,-0.15
df_cut_4_n1_opt_disp_struct_5.xyz,Nucleus 5C :,-2.229559,-2.845298,-0.949264,46.6,-69.31,36.78,172.34,231.67,264.35,259.63,-327.54,-227.05,-61.25,-69.31,36.78,172.34,0,241.65,-0.12
df_cut_4_n1_opt_disp_struct_5.xyz,Nucleus 6C :,-1.043769,-2.465879,-0.73068,44.92,-66.47,41.32,159.9,265.6,257.97,243.07,-324.74,-222.59,-84.57,-66.47,41.32,159.9,0,226.37,-0.05
df_cut_4_n1_opt_disp_struct_5.xyz,Nucleus 15C :,-3.319937,-2.223734,-0.807756,159.41,120.65,166.53,191.06,251.99,228.78,225.07,-57.16,-65.77,-104.67,120.65,166.53,191.06,0,70.41,0.3
df_cut_4_n1_opt_disp_struct_5.xyz,Nucleus 16C :,-1.538097,-4.896835,-1.194186,3.05,-84.83,26.38,67.61,209.75,266.73,257.92,-343.02,-240.08,-142.14,-84.83,26.38,67.61,0,152.44,0.46
df_cut_4_n1_opt_disp_struct_5.xyz,Nucleus 17O :,-3.323109,-4.706197,-1.250847,-27.7,-265.56,-39.33,221.79,399.88,427.5,421.63,-676.8,-455.03,-200.3,-265.56,-39.33,221.79,0,487.35,-0.07
df_cut_4_n1_opt_disp_struct_5.xyz,Nucleus 18O :,-2.320672,-4.184578,-2.609759,-35.71,-276.92,-45.66,215.46,424.38,397.36,403.26,-691.72,-452.16,-188.23,-276.92,-45.66,215.46,0,492.38,-0.06
df_cut_4_n1_opt_disp_struct_6.xyz,Nucleus 7H :,1.004732,0.618235,0.399603,29.08,34.99,25.78,26.47,45.02,25.95,23.14,-12.09,1.89,3.31,25.78,26.47,34.99,0,9.21,-0.85
df_cut_4_n1_opt_disp_struct_6.xyz,Nucleus 8H :,-0.479139,0.82372,0.426466,28.91,33.72,28.36,24.65,27.7,33.55,39.47,-0.15,-5.22,-8.62,24.65,28.36,33.72,0,9.07,-0.18
df_cut_4_n1_opt_disp_struct_6.xyz,Nucleus 9H :,-1.139424,1.29359,-0.715278,24.06,28.45,22.39,21.35,45.98,30.89,31.36,-23.6,-2.47,-9.97,21.35,22.39,28.45,0,7.1,-0.71
df_cut_4_n1_opt_disp_struct_6.xyz,Nucleus 10H :,-2.52968,1.410024,-0.731269,24.05,27.08,23.64,21.42,45.92,29.84,16.01,-22.32,-2.81,5.49,21.42,23.64,27.08,0,5.66,-0.22
df_cut_4_n1_opt_disp_struct_6.xyz,Nucleus 11H :,-3.272787,1.055261,0.391918,24.08,21.68,23.69,26.88,7.66,43.89,31.29,-20.2,14.02,-4.41,21.68,23.69,26.88,0,5.2,-0.22
df_cut_4_n1_opt_disp_struct_6.xyz,Nucleus 12H :,-2.626124,0.579825,1.530644,24.02,27.06,23.59,21.4,46.15,29.53,14.28,-22.6,-2.51,7.19,21.4,23.59,27.06,0,5.66,-0.23
df_cut_4_n1_opt_disp_struct_6.xyz,Nucleus 13H :,-1.23522,0.460846,1.547455,24.04,28.37,22.4,21.35,45.85,30.73,29.5,-23.43,-2.41,-8.13,21.35,22.4,28.37,0,7.02,-0.7
df_cut_4_n1_opt_disp_struct_6.xyz,Nucleus 14H :,1.55352,1.498202,0.765691,28.99,33.74,28.53,24.7,27.64,33.99,40.0,0.09,-5.6,-9.14,24.7,28.53,33.74,0,9.04,-0.15
df_cut_4_n1_opt_disp_struct_6.xyz,Nucleus 19H :,1.284892,-0.237829,1.022092,30.28,34.29,30.21,26.34,38.74,27.48,19.41,-4.52,2.75,6.97,26.34,30.21,34.29,0,7.95,-0.03
df_cut_4_n1_opt_disp_struct_6.xyz,Nucleus 20H :,-0.561879,1.500165,-1.613817,30.28,34.37,30.08,26.39,40.29,22.54,18.2,-5.95,7.46,8.29,26.39,30.08,34.37,0,7.98,-0.08
df_cut_4_n1_opt_disp_struct_6.xyz,Nucleus 21H :,-3.040816,1.720907,-1.638839,29.83,32.69,27.89,28.92,37.73,25.44,22.57,-5.19,2.6,6.35,27.89,28.92,32.69,0,4.8,-0.57
df_cut_4_n1_opt_disp_struct_6.xyz,Nucleus 0C :,-4.355684,1.123424,0.370599,159.95,186.89,137.66,155.29,251.98,243.76,233.7,-110.55,-60.6,-78.44,137.66,155.29,186.89,0,49.23,-0.28
df_cut_4_n1_opt_disp_struct_6.xyz,Nucleus 1C :,-3.211788,0.241502,2.381456,35.57,174.72,-75.82,7.81,238.98,259.81,262.48,-64.34,-335.56,-254.65,-75.82,7.81,174.72,0,250.54,-0.33
df_cut_4_n1_opt_disp_struct_6.xyz,Nucleus 2C :,-0.733449,0.01944,2.405791,44.58,-66.99,42.46,158.26,265.72,259.17,244.39,-326.32,-222.25,-86.99,-66.99,42.46,158.26,0,225.25,-0.03
df_cut_4_n1_opt_disp_struct_6.xyz,Nucleus 3C :,1.343908,0.40828,-0.61975,46.68,-69.2,36.83,172.41,231.87,265.3,259.09,-327.08,-227.94,-61.2,-69.2,36.83,172.41,0,241.61,-0.12
df_cut_4_n1_opt_disp_struct_6.xyz,Nucleus 4C :,-2.38083,-4.484101,-1.60024,48.47,-66.25,175.5,36.16,222.02,257.91,265.26,-50.65,-320.05,-229.09,-66.25,36.16,175.5,0,241.75,-0.15
df_cut_4_n1_opt_disp_struct_6.xyz,Nucleus 5C :,-2.247903,-3.079418,-1.035004,46.45,-69.52,36.32,172.56,231.66,264.82,259.58,-327.88,-228.07,-60.75,-69.52,36.32,172.56,0,242.08,-0.13
df_cut_4_n1_opt_disp_struct_6.xyz,Nucleus 6C :,-1.062113,-2.699999,-0.816421,44.92,-66.35,41.04,160.08,265.93,258.47,243.15,-324.99,-223.57,-84.22,-66.35,41.04,160.08,0,226.43,-0.05
df_cut_4_n1_opt_disp_struct_6.xyz,Nucleus 15C :,-3.338281,-2.457854,-0.893496,159.41,120.72,166.63,190.89,251.74,228.3,224.17,-57.03,-65.23,-103.71,120.72,166.63,190.89,0,70.17,0.31
df_cut_4_n1_opt_disp_struct_6.xyz,Nucleus 16C :,-1.556441,-5.130955,-1.279927,2.97,-85.34,26.86,67.39,209.3,266.96,257.42,-342.92,-239.94,-141.92,-85.34,26.86,67.39,0,152.73,0.47
df_cut_4_n1_opt_disp_struct_6.xyz,Nucleus 17O :,-3.341453,-4.940317,-1.336587,-26.02,-261.79,-37.13,220.86,399.78,427.71,422.67,-673.06,-452.62,-202.55,-261.79,-37.13,220.86,0,482.65,-0.07
df_cut_4_n1_opt_disp_struct_6.xyz,Nucleus 18O :,-2.339016,-4.418698,-2.6955,-32.77,-271.89,-43.17,216.74,424.9,396.95,403.19,-686.13,-450.34,-186.88,-271.89,-43.17,216.74,0,488.63,-0.06
df_cut_4_n1_opt_disp_struct_7.xyz,Nucleus 7H :,1.004732,0.618235,0.399603,29.05,34.94,25.75,26.47,44.96,25.9,23.18,-12.02,1.86,3.28,25.75,26.47,34.94,0,9.19,-0.84
df_cut_4_n1_opt_disp_struct_7.xyz,Nucleus 8H :,-0.479139,0.82372,0.426466,28.91,33.77,28.37,24.59,27.77,33.38,39.6,-0.17,-5.29,-8.56,24.59,28.37,33.77,0,9.18,-0.18
df_cut_4_n1_opt_disp_struct_7.xyz,Nucleus 9H :,-1.139424,1.29359,-0.715278,24.02,28.46,22.3,21.31,45.99,30.93,31.28,-23.68,-2.56,-9.89,21.31,22.3,28.46,0,7.15,-0.72
df_cut_4_n1_opt_disp_struct_7.xyz,Nucleus 10H :,-2.52968,1.410024,-0.731269,24.01,27.09,23.57,21.36,45.9,29.88,16.06,-22.35,-2.83,5.37,21.36,23.57,27.09,0,5.73,-0.23
df_cut_4_n1_opt_disp_struct_7.xyz,Nucleus 11H :,-3.272787,1.055261,0.391918,24.08,21.61,23.69,26.93,7.86,43.88,31.29,-20.19,13.75,-4.36,21.61,23.69,26.93,0,5.32,-0.22
df_cut_4_n1_opt_disp_struct_7.xyz,Nucleus 12H :,-2.626124,0.579825,1.530644,23.98,27.07,23.52,21.35,46.12,29.58,14.35,-22.62,-2.53,7.05,21.35,23.52,27.07,0,5.72,-0.24
df_cut_4_n1_opt_disp_struct_7.xyz,Nucleus 13H :,-1.23522,0.460846,1.547455,24.0,28.38,22.32,21.31,45.85,30.85,29.38,-23.5,-2.49,-8.08,21.31,22.32,28.38,0,7.07,-0.71
df_cut_4_n1_opt_disp_struct_7.xyz,Nucleus 14H :,1.55352,1.498202,0.765691,28.99,33.78,28.54,24.64,27.73,33.82,40.08,0.04,-5.66,-9.05,24.64,28.54,33.78,0,9.14,-0.15
df_cut_4_n1_opt_disp_struct_7.xyz,Nucleus 19H :,1.284892,-0.237829,1.022092,30.26,34.23,30.18,26.37,38.77,27.17,19.09,-4.62,3.03,7.34,26.37,30.18,34.23,0,7.86,-0.03
df_cut_4_n1_opt_disp_struct_7.xyz,Nucleus 20H :,-0.561879,1.500165,-1.613817,30.26,34.3,30.06,26.41,40.19,22.47,17.58,-5.91,7.57,8.87,26.41,30.06,34.3,0,7.89,-0.08
df_cut_4_n1_opt_disp_struct_7.xyz,Nucleus 21H :,-3.040816,1.720907,-1.638839,29.81,32.6,27.91,28.93,37.65,25.54,21.99,-5.19,2.51,6.95,27.91,28.93,32.6,0,4.69,-0.56
df_cut_4_n1_opt_disp_struct_7.xyz,Nucleus 0C :,-4.355684,1.123424,0.370599,160.05,186.97,137.73,155.44,251.89,243.92,234.1,-110.12,-60.96,-78.68,137.73,155.44,186.97,0,49.24,-0.28
df_cut_4_n1_opt_disp_struct_7.xyz,Nucleus 1C :,-3.211788,0.241502,2.381456,35.59,174.71,-75.57,7.63,238.73,260.14,263.16,-64.11,-335.64,-255.51,-75.57,7.63,174.71,0,250.28,-0.34
df_cut_4_n1_opt_disp_struct_7.xyz,Nucleus 2C :,-0.733449,0.01944,2.405791,44.55,-66.92,42.12,158.44,266.16,259.45,244.29,-326.42,-223.28,-86.56,-66.92,42.12,158.44,0,225.36,-0.03
df_cut_4_n1_opt_disp_struct_7.xyz,Nucleus 3C :,1.343908,0.40828,-0.61975,46.57,-69.32,36.43,172.59,231.89,265.78,259.02,-327.27,-228.95,-60.77,-69.32,36.43,172.59,0,241.91,-0.13
df_cut_4_n1_opt_disp_struct_7.xyz,Nucleus 4C :,-2.399174,-4.718221,-1.685981,48.78,-65.8,175.61,36.52,222.55,257.76,265.74,-50.57,-319.95,-229.21,-65.8,36.52,175.61,0,241.41,-0.15
df_cut_4_n1_opt_disp_struct_7.xyz,Nucleus 5C :,-2.266247,-3.313538,-1.120744,46.36,-69.62,35.95,172.75,231.65,265.36,259.46,-328.03,-229.07,-60.3,-69.62,35.95,172.75,0,242.37,-0.13
df_cut_4_n1_opt_disp_struct_7.xyz,Nucleus 6C :,-1.080456,-2.934119,-0.902161,44.94,-66.21,40.8,160.24,266.32,258.81,243.15,-325.08,-224.51,-83.86,-66.21,40.8,160.24,0,226.45,-0.05
df_cut_4_n1_opt_disp_struct_7.xyz,Nucleus 15C :,-3.356624,-2.691974,-0.979237,159.41,120.8,166.71,190.73,251.53,228.25,223.63,-57.1,-64.95,-103.1,120.8,166.71,190.73,0,69.93,0.31
df_cut_4_n1_opt_disp_struct_7.xyz,Nucleus 16C :,-1.574785,-5.365075,-1.365667,2.91,-85.79,27.22,67.29,208.69,267.14,256.94,-342.82,-239.83,-141.41,-85.79,27.22,67.29,0,153.08,0.48
df_cut_4_n1_opt_disp_struct_7.xyz,Nucleus 17O :,-3.359796,-5.174436,-1.422327,-25.64,-260.41,-36.39,219.87,399.72,428.33,423.76,-672.14,-451.53,-205.08,-260.41,-36.39,219.87,0,480.28,-0.07
df_cut_4_n1_opt_disp_struct_7.xyz,Nucleus 18O :,-2.357359,-4.652818,-2.78124,-31.22,-269.16,-41.77,217.27,425.65,396.65,403.7,-683.24,-449.47,-186.94,-269.16,-41.77,217.27,0,486.43,-0.07
df_cut_4_n1_opt_disp_struct_8.xyz,Nucleus 7H :,1.004732,0.618235,0.399603,29.03,34.89,25.73,26.47,44.89,25.84,23.18,-11.94,1.85,3.28,25.73,26.47,34.89,0,9.16,-0.84
df_cut_4_n1_opt_disp_struct_8.xyz,Nucleus 8H :,-0.479139,0.82372,0.426466,28.91,33.81,28.39,24.54,27.8,33.24,39.69,-0.18,-5.32,-8.49,24.54,28.39,33.81,0,9.27,-0.17
df_cut_4_n1_opt_disp_struct_8.xyz,Nucleus 9H :,-1.139424,1.29359,-0.715278,24.0,28.48,22.24,21.27,45.98,30.86,31.29,-23.72,-2.62,-9.81,21.27,22.24,28.48,0,7.21,-0.73
df_cut_4_n1_opt_disp_struct_8.xyz,Nucleus 10H :,-2.52968,1.410024,-0.731269,23.98,27.1,23.52,21.31,45.87,29.94,16.11,-22.36,-2.86,5.25,21.31,23.52,27.1,0,5.79,-0.24
df_cut_4_n1_opt_disp_struct_8.xyz,Nucleus 11H :,-3.272787,1.055261,0.391918,24.07,21.54,23.69,26.97,8.03,43.87,31.32,-20.19,13.51,-4.36,21.54,23.69,26.97,0,5.43,-0.21
df_cut_4_n1_opt_disp_struct_8.xyz,Nucleus 12H :,-2.626124,0.579825,1.530644,23.95,27.08,23.48,21.3,46.08,29.65,14.42,-22.62,-2.58,6.91,21.3,23.48,27.08,0,5.78,-0.24
df_cut_4_n1_opt_disp_struct_8.xyz,Nucleus 13H :,-1.23522,0.460846,1.547455,23.98,28.4,22.27,21.26,45.84,30.95,29.28,-23.52,-2.55,-8.05,21.26,22.27,28.4,0,7.14,-0.72
df_cut_4_n1_opt_disp_struct_8.xyz,Nucleus 14H :,1.55352,1.498202,0.765691,28.98,33.81,28.56,24.58,40.13,33.67,27.79,-0.0,-5.69,-8.95,24.58,28.56,33.81,0,9.23,-0.14
df_cut_4_n1_opt_disp_struct_8.xyz,Nucleus 19H :,1.284892,-0.237829,1.022092,30.24,34.17,30.16,26.4,38.83,26.93,18.83,-4.73,3.25,7.63,26.4,30.16,34.17,0,7.77,-0.03
df_cut_4_n1_opt_disp_struct_8.xyz,Nucleus 20H :,-0.561879,1.500165,-1.613817,30.24,34.24,30.05,26.43,40.12,22.44,17.05,-5.9,7.6,9.41,26.43,30.05,34.24,0,7.81,-0.07
df_cut_4_n1_opt_disp_struct_8.xyz,Nucleus 21H :,-3.040816,1.720907,-1.638839,29.79,32.53,27.93,28.92,37.61,25.69,21.47,-5.23,2.38,7.47,27.93,28.92,32.53,0,4.6,-0.57
df_cut_4_n1_opt_disp_struct_8.xyz,Nucleus 0C :,-4.355684,1.123424,0.370599,160.12,187.03,137.77,155.56,251.85,244.01,234.43,-109.72,-61.31,-78.9,137.77,155.56,187.03,0,49.26,-0.28
df_cut_4_n1_opt_disp_struct_8.xyz,Nucleus 1C :,-3.211788,0.241502,2.381456,35.57,174.72,-75.42,7.4,238.52,260.42,263.75,-63.9,-335.76,-256.33,-75.42,7.4,174.72,0,250.14,-0.34
df_cut_4_n1_opt_disp_struct_8.xyz,Nucleus 2C :,-0.733449,0.01944,2.405791,44.53,-66.84,41.85,158.59,266.62,259.65,244.18,-326.48,-224.19,-86.18,-66.84,41.85,158.59,0,225.43,-0.04
df_cut_4_n1_opt_disp_struct_8.xyz,Nucleus 3C :,1.343908,0.40828,-0.61975,46.49,-69.37,36.09,172.75,231.92,266.28,258.95,-327.42,-229.87,-60.4,-69.37,36.09,172.75,0,242.12,-0.13
df_cut_4_n1_opt_disp_struct_8.xyz,Nucleus 4C :,-2.417517,-4.952341,-1.771721,48.98,-65.49,175.69,36.74,223.08,257.61,266.29,-50.57,-319.93,-229.54,-65.49,36.74,175.69,0,241.18,-0.15
df_cut_4_n1_opt_disp_struct_8.xyz,Nucleus 5C :,-2.28459,-3.547657,-1.206485,46.3,-69.65,35.64,172.9,231.67,265.9,259.36,-328.15,-229.97,-59.92,-69.65,35.64,172.9,0,242.55,-0.13
df_cut_4_n1_opt_disp_struct_8.xyz,Nucleus 6C :,-1.0988,-3.168238,-0.987901,44.97,-66.08,40.61,160.37,266.74,259.06,243.11,-325.13,-225.36,-83.53,-66.08,40.61,160.37,0,226.45,-0.06
df_cut_4_n1_opt_disp_struct_8.xyz,Nucleus 15C :,-3.374968,-2.926094,-1.064977,159.42,120.86,166.79,190.6,251.37,228.62,223.52,-57.35,-64.93,-102.97,120.86,166.79,190.6,0,69.74,0.32
df_cut_4_n1_opt_disp_struct_8.xyz,Nucleus 16C :,-1.593128,-5.599195,-1.451407,2.88,-86.15,27.5,67.28,207.93,267.24,256.49,-342.69,-239.68,-140.66,-86.15,27.5,67.28,0,153.43,0.48
df_cut_4_n1_opt_disp_struct_8.xyz,Nucleus 17O :,-3.37814,-5.408556,-1.508068,-25.84,-260.25,-36.35,219.07,399.71,429.32,424.71,-672.71,-451.1,-207.47,-260.25,-36.35,219.07,0,479.32,-0.07
df_cut_4_n1_opt_disp_struct_8.xyz,Nucleus 18O :,-2.375703,-4.886937,-2.866981,-30.43,-267.76,-41.06,217.53,426.52,396.43,404.1,-682.03,-449.15,-187.16,-267.76,-41.06,217.53,0,485.29,-0.07
df_cut_4_n1_opt_disp_struct_9.xyz,Nucleus 7H :,1.004732,0.618235,0.399603,29.01,34.85,25.71,26.47,44.82,25.77,23.16,-11.86,1.84,3.29,25.71,26.47,34.85,0,9.14,-0.83
df_cut_4_n1_opt_disp_struct_9.xyz,Nucleus 8H :,-0.479139,0.82372,0.426466,28.92,33.85,28.41,24.49,39.76,33.12,27.83,-0.18,-5.35,-8.44,24.49,28.41,33.85,0,9.36,-0.16
df_cut_4_n1_opt_disp_struct_9.xyz,Nucleus 9H :,-1.139424,1.29359,-0.715278,23.98,28.49,22.21,21.23,45.94,31.3,30.77,-23.71,-2.63,-9.74,21.23,22.21,28.49,0,7.26,-0.73
df_cut_4_n1_opt_disp_struct_9.xyz,Nucleus 10H :,-2.52968,1.410024,-0.731269,23.95,27.11,23.49,21.26,45.83,29.98,16.15,-22.34,-2.89,5.14,21.26,23.49,27.11,0,5.85,-0.24
df_cut_4_n1_opt_disp_struct_9.xyz,Nucleus 11H :,-3.272787,1.055261,0.391918,24.05,21.47,23.69,26.99,8.2,43.87,31.38,-20.18,13.29,-4.39,21.47,23.69,26.99,0,5.52,-0.2
df_cut_4_n1_opt_disp_struct_9.xyz,Nucleus 12H :,-2.626124,0.579825,1.530644,23.93,27.1,23.45,21.25,46.03,29.71,14.48,-22.59,-2.63,6.79,21.25,23.45,27.1,0,5.85,-0.25
df_cut_4_n1_opt_disp_struct_9.xyz,Nucleus 13H :,-1.23522,0.460846,1.547455,23.96,28.42,22.24,21.22,45.8,31.01,29.18,-23.52,-2.59,-8.01,21.22,22.24,28.42,0,7.2,-0.72
df_cut_4_n1_opt_disp_struct_9.xyz,Nucleus 14H :,1.55352,1.498202,0.765691,28.98,33.84,28.57,24.53,40.17,33.54,27.83,-0.03,-5.71,-8.87,24.53,28.57,33.84,0,9.31,-0.13
df_cut_4_n1_opt_disp_struct_9.xyz,Nucleus 19H :,1.284892,-0.237829,1.022092,30.23,34.13,30.13,26.42,38.91,26.74,18.62,-4.86,3.41,7.87,26.42,30.13,34.13,0,7.71,-0.04
df_cut_4_n1_opt_disp_struct_9.xyz,Nucleus 20H :,-0.561879,1.500165,-1.613817,30.22,34.18,30.04,26.45,40.09,22.43,16.61,-5.92,7.6,9.87,26.45,30.04,34.18,0,7.73,-0.07
df_cut_4_n1_opt_disp_struct_9.xyz,Nucleus 21H :,-3.040816,1.720907,-1.638839,29.78,32.46,27.95,28.92,37.58,25.89,21.04,-5.28,2.2,7.9,27.95,28.92,32.46,0,4.51,-0.57
df_cut_4_n1_opt_disp_struct_9.xyz,Nucleus 0C :,-4.355684,1.123424,0.370599,160.17,187.08,137.79,155.65,251.86,244.05,234.74,-109.36,-61.65,-79.11,137.79,155.65,187.08,0,49.29,-0.28
df_cut_4_n1_opt_disp_struct_9.xyz,Nucleus 1C :,-3.211788,0.241502,2.381456,35.52,174.72,-75.31,7.14,238.35,260.77,264.27,-63.73,-335.99,-257.12,-75.31,7.14,174.72,0,250.03,-0.34
df_cut_4_n1_opt_disp_struct_9.xyz,Nucleus 2C :,-0.733449,0.01944,2.405791,44.52,-66.77,41.62,158.71,267.05,259.71,244.03,-326.43,-224.98,-85.83,-66.77,41.62,158.71,0,225.48,-0.04
df_cut_4_n1_opt_disp_struct_9.xyz,Nucleus 3C :,1.343908,0.40828,-0.61975,46.43,-69.4,35.8,172.88,231.93,266.73,258.86,-327.5,-230.67,-60.08,-69.4,35.8,172.88,0,242.28,-0.13
df_cut_4_n1_opt_disp_struct_9.xyz,Nucleus 4C :,-2.435861,-5.186461,-1.857462,49.13,-65.26,175.77,36.88,223.68,257.45,266.85,-50.58,-320.03,-229.96,-65.26,36.88,175.77,0,241.03,-0.15
df_cut_4_n1_opt_disp_struct_9.xyz,Nucleus 5C :,-2.302934,-3.781777,-1.292225,46.25,-69.67,35.38,173.03,231.66,266.39,259.24,-328.2,-230.77,-59.59,-69.67,35.38,173.03,0,242.7,-0.13
df_cut_4_n1_opt_disp_struct_9.xyz,Nucleus 6C :,-1.117144,-3.402358,-1.073642,44.98,-65.98,40.45,160.48,267.17,259.18,243.02,-325.1,-226.11,-83.22,-65.98,40.45,160.48,0,226.46,-0.06
df_cut_4_n1_opt_disp_struct_9.xyz,Nucleus 15C :,-3.393312,-3.160214,-1.150718,159.42,120.9,166.89,190.48,251.26,229.25,223.77,-103.24,-65.09,-57.67,120.9,166.89,190.48,0,69.58,0.32
df_cut_4_n1_opt_disp_struct_9.xyz,Nucleus 16C :,-1.611472,-5.833315,-1.537148,2.85,-86.45,27.72,67.27,207.1,267.27,256.09,-342.56,-239.52,-139.84,-86.45,27.72,67.27,0,153.72,0.49
df_cut_4_n1_opt_disp_struct_9.xyz,Nucleus 17O :,-3.396484,-5.642676,-1.593808,-26.32,-260.85,-36.62,218.5,399.72,425.53,430.59,-674.24,-450.97,-209.59,-260.85,-36.62,218.5,0,479.35,-0.06
df_cut_4_n1_opt_disp_struct_9.xyz,Nucleus 18O :,-2.394047,-5.121057,-2.952721,-30.07,-267.16,-40.7,217.64,427.48,396.24,403.99,-681.9,-449.07,-186.97,-267.16,-40.7,217.64,0,484.8,-0.07
dw_cut_4_n1_1f_opt.xyz,Nucleus 1H :,0.968697,-0.048796,-1.316757,29.37,34.97,24.12,29.01,39.72,25.25,27.48,3.09,-4.91,-2.52,24.12,29.01,34.97,0,10.85,-0.1
dw_cut_4_n1_1f_opt.xyz,Nucleus 2H :,1.717455,0.636891,-1.730257,28.21,33.97,24.0,26.66,41.98,20.51,27.72,-9.47,4.89,-1.01,24.0,26.66,33.97,0,9.97,-0.47
dw_cut_4_n1_1f_opt.xyz,Nucleus 6H :,1.24425,-1.070153,-1.616042,25.88,17.66,26.68,33.31,16.48,32.13,46.28,-13.75,-5.23,1.76,17.66,26.68,33.31,0,15.65,0.15
dw_cut_4_n1_1f_opt.xyz,Nucleus 12H :,0.894166,0.081254,0.161887,25.91,21.62,27.54,28.57,46.61,20.86,32.42,-20.46,2.16,-3.85,21.62,27.54,28.57,0,6.95,0.7
dw_cut_4_n1_1f_opt.xyz,Nucleus 14H :,1.681204,0.896116,0.952223,23.69,21.97,25.09,24.0,8.71,42.01,40.78,13.27,-17.08,-16.63,21.97,24.0,25.09,0,3.12,0.3
dw_cut_4_n1_1f_opt.xyz,Nucleus 16H :,1.299822,0.732245,2.256423,25.83,21.1,28.85,27.53,12.65,34.98,47.11,9.65,-6.18,-20.72,21.1,27.53,28.85,0,7.75,0.66
dw_cut_4_n1_1f_opt.xyz,Nucleus 17H :,1.670119,1.237253,3.038951,25.33,22.18,26.53,27.27,44.7,28.04,29.98,-18.17,-6.3,-2.28,22.18,26.53,27.27,0,5.09,0.71
dw_cut_4_n1_1f_opt.xyz,Nucleus 18H :,0.270312,-0.175535,2.34071,28.42,34.6,27.41,23.25,40.73,25.31,30.23,-8.99,1.41,-3.44,23.25,27.41,34.6,0,11.35,-0.27
dw_cut_4_n1_1f_opt.xyz,Nucleus 23H :,-0.009343,-0.600735,1.039563,30.17,34.3,27.9,28.32,38.05,22.07,23.6,-3.94,6.38,4.36,27.9,28.32,34.3,0,6.4,-0.87
dw_cut_4_n1_1f_opt.xyz,Nucleus 24H :,-1.042849,-1.541695,0.862145,30.46,25.05,35.32,31.0,39.11,15.9,29.1,-3.89,9.25,1.9,25.05,31.0,35.32,0,10.27,0.16
dw_cut_4_n1_1f_opt.xyz,Nucleus 25H :,-1.360604,-1.98594,-0.362953,30.24,35.32,30.08,25.32,40.77,21.59,20.58,-5.54,8.98,4.34,25.32,30.08,35.32,0,10.0,-0.05
dw_cut_4_n1_1f_opt.xyz,Nucleus 0C :,-1.753658,-2.027756,1.960702,168.7,185.38,161.45,159.27,252.38,233.9,236.92,-76.89,-73.82,-66.38,159.27,161.45,185.38,0,26.11,-0.83
dw_cut_4_n1_1f_opt.xyz,Nucleus 3C :,-2.506487,-2.792931,1.797383,68.98,151.81,62.94,-7.8,239.44,261.71,271.29,-89.09,-205.67,-270.74,-7.8,62.94,151.81,0,159.61,-0.11
dw_cut_4_n1_1f_opt.xyz,Nucleus 4C :,-1.448346,-1.584534,3.245059,68.9,-7.97,125.04,89.64,250.06,271.58,265.58,-273.49,-131.27,-175.76,-7.97,89.64,125.04,0,133.01,0.47
dw_cut_4_n1_1f_opt.xyz,Nucleus 7C :,-1.96903,-2.010158,4.095453,52.53,136.5,-20.57,41.65,257.63,270.49,265.42,-129.42,-283.18,-223.37,-20.57,41.65,136.5,0,157.07,-0.21
dw_cut_4_n1_1f_opt.xyz,Nucleus 8C :,-0.430174,-0.648507,3.459174,54.04,161.39,12.39,-11.66,228.72,254.03,240.71,-71.2,-231.96,-258.18,-11.66,12.39,161.39,0,173.05,-0.72
dw_cut_4_n1_1f_opt.xyz,Nucleus 9C :,-0.145898,-0.359562,4.466886,28.09,-42.33,31.8,94.8,228.53,255.59,260.41,-142.48,-216.87,-300.92,-42.33,31.8,94.8,0,137.13,0.08
dw_cut_4_n1_1f_opt.xyz,Nucleus 11C :,2.482154,1.566707,0.672443,79.17,-4.23,161.56,80.17,244.98,258.1,272.2,-83.98,-267.51,-186.29,-4.23,80.17,161.56,0,165.79,0.02
dw_cut_4_n1_1f_opt.xyz,Nucleus 13C :,0.006875,0.170933,-1.795896,58.47,168.77,57.56,-50.92,279.57,221.02,250.43,-55.34,-221.6,-298.67,-50.92,57.56,168.77,0,219.69,-0.01
dw_cut_4_n1_1f_opt.xyz,Nucleus 15C :,2.103497,-3.860183,2.318659,83.52,169.88,81.34,-0.65,242.42,268.11,264.01,-73.16,-186.35,-264.45,-0.65,81.34,169.88,0,170.53,-0.04
dw_cut_4_n1_1f_opt.xyz,Nucleus 19C :,1.024735,-2.794591,2.235232,156.62,118.41,193.4,158.04,255.69,230.68,226.21,-107.91,-58.3,-76.52,118.41,158.04,193.4,0,74.99,0.06
dw_cut_4_n1_1f_opt.xyz,Nucleus 20C :,0.1151,-2.894351,3.108196,10.19,-95.41,108.5,17.47,205.3,261.67,269.75,-97.3,-361.02,-247.85,-95.41,17.47,108.5,0,203.91,0.11
dw_cut_4_n1_1f_opt.xyz,Nucleus 5N :,1.170436,-1.936656,1.320808,136.77,89.95,167.09,153.26,296.95,335.36,325.24,-234.9,-131.59,-180.78,89.95,153.26,167.09,0,77.14,0.64
dw_cut_4_n1_1f_opt.xyz,Nucleus 21O :,1.754477,-4.751627,1.78117,-183.67,-622.17,-64.67,135.83,449.36,392.66,418.85,-1067.75,-461.1,-283.02,-622.17,-64.67,135.83,0,758.0,0.47
dw_cut_4_n1_1f_opt.xyz,Nucleus 22O :,3.043314,-3.540052,1.853975,-174.43,-579.66,-46.3,102.66,444.0,413.04,399.69,-1019.75,-454.45,-305.83,-579.66,-46.3,102.66,0,682.32,0.56
dw_cut_4_n1_1f_opt.xyz,Nucleus 10F :,2.279286,-4.156206,3.358042,348.33,401.91,308.05,335.03,489.61,458.08,469.67,-68.5,-141.99,-161.89,308.05,335.03,401.91,0,93.86,-0.43
dw_cut_4_n1_1f_opt_disp_struct_0.xyz,Nucleus 1H :,0.968697,-0.048796,-1.316757,29.43,35.2,23.98,29.1,39.98,25.81,28.08,2.61,-5.34,-2.87,23.98,29.1,35.2,0,11.22,-0.09
dw_cut_4_n1_1f_opt_disp_struct_0.xyz,Nucleus 2H :,1.717455,0.636891,-1.730257,28.29,33.89,24.02,26.95,43.1,21.21,27.56,-10.71,4.49,-0.79,24.02,26.95,33.89,0,9.87,-0.41
dw_cut_4_n1_1f_opt_disp_struct_0.xyz,Nucleus 6H :,1.24425,-1.070153,-1.616042,25.37,17.43,26.07,32.61,16.49,32.07,47.1,-15.16,1.37,-5.76,17.43,26.07,32.61,0,15.18,0.14
dw_cut_4_n1_1f_opt_disp_struct_0.xyz,Nucleus 12H :,0.894166,0.081254,0.161887,25.43,21.59,26.46,28.23,47.2,19.68,32.68,-21.61,2.8,-4.47,21.59,26.46,28.23,0,6.64,0.47
dw_cut_4_n1_1f_opt_disp_struct_0.xyz,Nucleus 14H :,1.681204,0.896116,0.952223,23.79,21.49,25.79,24.1,6.37,42.03,40.17,15.19,-14.56,-17.81,21.49,24.1,25.79,0,4.3,0.22
dw_cut_4_n1_1f_opt_disp_struct_0.xyz,Nucleus 16H :,1.299822,0.732245,2.256423,25.28,20.87,28.45,26.51,11.26,35.0,47.6,10.33,-6.62,-21.73,20.87,26.51,28.45,0,7.58,0.49
dw_cut_4_n1_1f_opt_disp_struct_0.xyz,Nucleus 17H :,1.670119,1.237253,3.038951,25.13,21.91,26.27,27.2,44.83,28.5,30.63,-18.55,-7.11,-2.91,21.91,26.27,27.2,0,5.29,0.65
dw_cut_4_n1_1f_opt_disp_struct_0.xyz,Nucleus 18H :,0.270312,-0.175535,2.34071,28.61,34.73,27.65,23.46,41.16,25.92,31.25,-9.67,1.09,-3.91,23.46,27.65,34.73,0,11.27,-0.26
dw_cut_4_n1_1f_opt_disp_struct_0.xyz,Nucleus 23H :,-0.009343,-0.600735,1.039563,30.18,34.16,28.32,28.05,38.2,21.9,22.41,-4.28,6.47,5.84,28.05,28.32,34.16,0,6.11,-0.91
dw_cut_4_n1_1f_opt_disp_struct_0.xyz,Nucleus 24H :,-1.042849,-1.541695,0.862145,30.63,35.26,25.64,30.98,38.95,15.44,28.73,10.27,-3.79,2.28,25.64,30.98,35.26,0,9.62,0.11
dw_cut_4_n1_1f_opt_disp_struct_0.xyz,Nucleus 25H :,-1.360604,-1.98594,-0.362953,30.42,35.3,30.08,25.87,40.84,20.81,19.29,-5.66,9.54,6.42,25.87,30.08,35.3,0,9.43,-0.11
dw_cut_4_n1_1f_opt_disp_struct_0.xyz,Nucleus 0C :,-1.753658,-2.027756,1.960702,168.83,185.84,161.39,159.26,253.24,235.19,237.97,-77.97,-75.5,-66.44,159.26,161.39,185.84,0,26.58,-0.84
dw_cut_4_n1_1f_opt_disp_struct_0.xyz,Nucleus 3C :,-2.506487,-2.792931,1.797383,63.49,149.93,55.72,-15.18,240.24,261.29,272.08,-91.08,-214.21,-277.85,-15.18,55.72,149.93,0,165.11,-0.14
dw_cut_4_n1_1f_opt_disp_struct_0.xyz,Nucleus 4C :,-1.448346,-1.584534,3.245059,66.05,-13.72,125.42,86.45,252.05,272.7,266.65,-280.46,-132.79,-180.0,-13.72,86.45,125.42,0,139.14,0.44
dw_cut_4_n1_1f_opt_disp_struct_0.xyz,Nucleus 7C :,-1.96903,-2.010158,4.095453,43.43,136.35,-33.17,27.12,257.63,274.68,269.47,-133.7,-300.56,-237.21,-33.17,27.12,136.35,0,169.52,-0.29
dw_cut_4_n1_1f_opt_disp_struct_0.xyz,Nucleus 8C :,-0.430174,-0.648507,3.459174,48.56,163.15,3.44,-20.92,232.59,249.33,258.71,-70.75,-249.36,-274.85,-20.92,3.44,163.15,0,184.07,-0.74
dw_cut_4_n1_1f_opt_disp_struct_0.xyz,Nucleus 9C :,-0.145898,-0.359562,4.466886,17.74,-55.46,29.2,79.49,232.34,257.43,262.93,-154.88,-227.19,-317.39,-55.46,29.2,79.49,0,134.95,0.25
dw_cut_4_n1_1f_opt_disp_struct_0.xyz,Nucleus 11C :,2.482154,1.566707,0.672443,73.88,162.11,-10.55,70.09,244.7,260.83,274.04,-83.48,-276.22,-198.21,-10.55,70.09,162.11,0,172.66,-0.07
dw_cut_4_n1_1f_opt_disp_struct_0.xyz,Nucleus 13C :,0.006875,0.170933,-1.795896,50.71,170.15,45.22,-63.25,278.91,222.06,249.55,-52.21,-233.4,-312.78,-63.25,45.22,170.15,0,233.4,-0.07
dw_cut_4_n1_1f_opt_disp_struct_0.xyz,Nucleus 15C :,2.268825,-4.046011,2.343851,76.08,169.73,68.83,-10.31,243.55,272.11,264.55,-74.67,-202.4,-274.89,-10.31,68.83,169.73,0,180.04,-0.12
dw_cut_4_n1_1f_opt_disp_struct_0.xyz,Nucleus 19C :,1.190063,-2.980418,2.260425,158.43,119.77,193.35,162.17,255.45,230.16,224.47,-104.92,-57.12,-72.74,119.77,162.17,193.35,0,73.58,0.15
dw_cut_4_n1_1f_opt_disp_struct_0.xyz,Nucleus 20C :,0.280428,-3.080178,3.133388,8.47,-83.74,90.62,18.54,201.82,259.39,267.94,-111.5,-347.53,-244.7,-83.74,18.54,90.62,0,174.36,0.17
dw_cut_4_n1_1f_opt_disp_struct_0.xyz,Nucleus 5N :,1.335765,-2.122484,1.346,130.95,78.5,166.46,147.88,298.63,336.49,327.28,-132.79,-188.23,-248.54,78.5,147.88,166.46,0,87.96,0.58
dw_cut_4_n1_1f_opt_disp_struct_0.xyz,Nucleus 21O :,1.919806,-4.937454,1.806363,-125.89,-479.29,-58.26,159.89,394.79,426.84,436.26,-912.54,-455.88,-267.13,-479.29,-58.26,159.89,0,639.18,0.32
dw_cut_4_n1_1f_opt_disp_struct_0.xyz,Nucleus 22O :,3.208642,-3.72588,1.879167,-122.83,-454.0,-59.94,145.46,402.11,420.62,442.16,-888.24,-470.21,-274.92,-454.0,-59.94,145.46,0,599.46,0.31
dw_cut_4_n1_1f_opt_disp_struct_0.xyz,Nucleus 10F :,2.444615,-4.342034,3.383235,329.66,398.37,273.96,316.65,459.12,470.74,489.6,-72.28,-185.67,-172.53,273.96,316.65,398.37,0,124.41,-0.31
dw_cut_4_n1_1f_opt_disp_struct_1.xyz,Nucleus 1H :,0.968697,-0.048796,-1.316757,29.46,35.33,23.93,29.12,40.24,26.43,28.53,1.94,-5.88,-2.9,23.93,29.12,35.33,0,11.4,-0.09
dw_cut_4_n1_1f_opt_disp_struct_1.xyz,Nucleus 2H :,1.717455,0.636891,-1.730257,28.33,33.9,23.98,27.12,43.91,22.23,27.44,-11.51,3.62,-0.7,23.98,27.12,33.9,0,9.92,-0.37
dw_cut_4_n1_1f_opt_disp_struct_1.xyz,Nucleus 6H :,1.24425,-1.070153,-1.616042,25.06,17.24,25.74,32.19,47.92,16.48,31.82,-16.36,1.18,-5.86,17.24,25.74,32.19,0,14.95,0.14
dw_cut_4_n1_1f_opt_disp_struct_1.xyz,Nucleus 12H :,0.894166,0.081254,0.161887,25.1,21.51,25.81,27.99,47.65,18.78,32.7,-22.41,3.36,-4.77,21.51,25.81,27.99,0,6.48,0.33
dw_cut_4_n1_1f_opt_disp_struct_1.xyz,Nucleus 14H :,1.681204,0.896116,0.952223,23.93,21.21,26.24,24.34,4.88,42.72,38.3,16.42,-12.14,-18.41,21.21,24.34,26.24,0,5.03,0.24
dw_cut_4_n1_1f_opt_disp_struct_1.xyz,Nucleus 16H :,1.299822,0.732245,2.256423,24.93,20.67,28.19,25.93,10.27,34.43,47.97,10.87,-6.3,-22.46,20.67,25.93,28.19,0,7.52,0.4
dw_cut_4_n1_1f_opt_disp_struct_1.xyz,Nucleus 17H :,1.670119,1.237253,3.038951,25.0,21.75,26.12,27.13,44.92,28.87,31.13,-18.78,-7.52,-3.63,21.75,26.12,27.13,0,5.38,0.62
dw_cut_4_n1_1f_opt_disp_struct_1.xyz,Nucleus 18H :,0.270312,-0.175535,2.34071,28.74,34.85,27.78,23.6,41.62,26.58,32.04,-10.23,0.57,-4.35,23.6,27.78,34.85,0,11.25,-0.26
dw_cut_4_n1_1f_opt_disp_struct_1.xyz,Nucleus 23H :,-0.009343,-0.600735,1.039563,30.12,33.96,28.51,27.88,38.2,21.13,21.67,-4.51,7.34,6.51,27.88,28.51,33.96,0,6.08,-0.79
dw_cut_4_n1_1f_opt_disp_struct_1.xyz,Nucleus 24H :,-1.042849,-1.541695,0.862145,30.63,35.15,25.87,30.88,38.8,15.08,28.14,10.86,-3.77,2.8,25.87,30.88,35.15,0,9.28,0.08
dw_cut_4_n1_1f_opt_disp_struct_1.xyz,Nucleus 25H :,-1.360604,-1.98594,-0.362953,30.44,35.16,30.04,26.12,40.76,20.2,17.67,-5.69,8.32,10.08,26.12,30.04,35.16,0,9.04,-0.13
dw_cut_4_n1_1f_opt_disp_struct_1.xyz,Nucleus 0C :,-1.753658,-2.027756,1.960702,168.99,186.15,161.54,159.28,254.04,239.14,236.31,-79.01,-77.16,-66.35,159.28,161.54,186.15,0,26.87,-0.83
dw_cut_4_n1_1f_opt_disp_struct_1.xyz,Nucleus 3C :,-2.506487,-2.792931,1.797383,61.68,149.74,52.71,-17.4,240.82,261.39,273.47,-91.65,-218.52,-280.45,-17.4,52.71,149.74,0,167.14,-0.16
dw_cut_4_n1_1f_opt_disp_struct_1.xyz,Nucleus 4C :,-1.448346,-1.584534,3.245059,64.41,-16.82,125.79,84.25,253.93,273.51,266.45,-283.99,-133.42,-183.26,-16.82,84.25,125.79,0,142.61,0.42
dw_cut_4_n1_1f_opt_disp_struct_1.xyz,Nucleus 7C :,-1.96903,-2.010158,4.095453,39.2,136.48,-39.7,20.81,258.75,277.24,272.27,-136.51,-310.57,-243.61,-39.7,20.81,136.48,0,176.18,-0.31
dw_cut_4_n1_1f_opt_disp_struct_1.xyz,Nucleus 8C :,-0.430174,-0.648507,3.459174,49.96,163.57,5.23,-18.92,233.66,256.57,261.39,-70.57,-253.98,-277.18,-18.92,5.23,163.57,0,182.49,-0.74
dw_cut_4_n1_1f_opt_disp_struct_1.xyz,Nucleus 9C :,-0.145898,-0.359562,4.466886,12.98,-63.61,26.96,75.58,234.76,260.53,265.48,-159.6,-233.6,-328.64,-63.61,26.96,75.58,0,139.19,0.3
dw_cut_4_n1_1f_opt_disp_struct_1.xyz,Nucleus 11C :,2.482154,1.566707,0.672443,71.4,162.62,-13.92,65.5,243.0,263.82,274.54,-81.76,-281.3,-204.1,-13.92,65.5,162.62,0,176.54,-0.1
dw_cut_4_n1_1f_opt_disp_struct_1.xyz,Nucleus 13C :,0.006875,0.170933,-1.795896,48.53,170.85,40.47,-65.73,218.41,277.59,251.7,-47.72,-236.92,-317.47,-65.73,40.47,170.85,0,236.58,-0.1
dw_cut_4_n1_1f_opt_disp_struct_1.xyz,Nucleus 15C :,2.434154,-4.231838,2.369043,72.64,170.04,63.22,-15.35,243.11,273.48,266.2,-74.39,-209.08,-281.42,-15.35,63.22,170.04,0,185.39,-0.15
dw_cut_4_n1_1f_opt_disp_struct_1.xyz,Nucleus 19C :,1.355392,-3.166245,2.285617,159.17,120.29,193.01,164.22,255.03,228.69,222.36,-102.31,-56.05,-70.19,120.29,164.22,193.01,0,72.72,0.21
dw_cut_4_n1_1f_opt_disp_struct_1.xyz,Nucleus 20C :,0.445757,-3.266005,3.15858,5.91,-81.47,79.22,19.97,199.74,257.79,266.6,-120.69,-344.02,-241.7,-81.47,19.97,79.22,0,160.69,0.26
dw_cut_4_n1_1f_opt_disp_struct_1.xyz,Nucleus 5N :,1.501094,-2.308311,1.371192,127.53,72.06,166.75,143.77,299.62,337.12,328.79,-133.18,-193.1,-256.67,72.06,143.77,166.75,0,94.69,0.51
dw_cut_4_n1_1f_opt_disp_struct_1.xyz,Nucleus 21O :,2.085135,-5.123282,1.831555,-85.07,184.56,-58.66,-381.1,396.82,423.24,429.03,-804.38,-458.16,-241.74,-381.1,-58.66,184.56,0,565.66,0.14
dw_cut_4_n1_1f_opt_disp_struct_1.xyz,Nucleus 22O :,3.373971,-3.911707,1.904359,-79.77,-359.41,-62.18,182.28,400.83,420.74,436.78,-782.65,-476.29,-238.73,-359.41,-62.18,182.28,0,541.69,0.1
dw_cut_4_n1_1f_opt_disp_struct_1.xyz,Nucleus 10F :,2.609943,-4.527861,3.408427,319.73,398.03,254.31,306.85,460.14,471.48,489.5,-73.25,-206.05,-182.61,254.31,306.85,398.03,0,143.72,-0.27
dw_cut_4_n1_1f_opt_disp_struct_10.xyz,Nucleus 1H :,0.968697,-0.048796,-1.316757,29.33,35.24,23.74,29.02,40.47,27.33,29.21,-6.5,0.22,-2.74,23.74,29.02,35.24,0,11.5,-0.08
dw_cut_4_n1_1f_opt_disp_struct_10.xyz,Nucleus 2H :,1.717455,0.636891,-1.730257,28.35,34.28,23.81,26.95,44.94,24.47,26.87,-11.83,2.18,-1.6,23.81,26.95,34.28,0,10.47,-0.4
dw_cut_4_n1_1f_opt_disp_struct_10.xyz,Nucleus 6H :,1.24425,-1.070153,-1.616042,24.34,16.64,25.19,31.2,49.36,15.32,30.6,-18.58,1.57,-5.25,16.64,25.19,31.2,0,14.56,0.18
dw_cut_4_n1_1f_opt_disp_struct_10.xyz,Nucleus 12H :,0.894166,0.081254,0.161887,24.47,20.92,24.75,27.74,47.27,17.82,30.56,-22.46,3.18,-2.96,20.92,24.75,27.74,0,6.82,0.12
dw_cut_4_n1_1f_opt_disp_struct_10.xyz,Nucleus 14H :,1.681204,0.896116,0.952223,24.03,20.4,26.99,24.71,4.74,31.97,43.81,15.7,-5.02,-19.1,20.4,24.71,26.99,0,6.59,0.31
dw_cut_4_n1_1f_opt_disp_struct_10.xyz,Nucleus 16H :,1.299822,0.732245,2.256423,24.34,20.02,27.93,25.07,9.24,31.07,47.49,10.87,-3.17,-22.48,20.02,25.07,27.93,0,7.91,0.28
dw_cut_4_n1_1f_opt_disp_struct_10.xyz,Nucleus 17H :,1.670119,1.237253,3.038951,24.56,21.21,25.5,26.98,44.92,28.74,31.25,-19.28,-7.49,-4.45,21.21,25.5,26.98,0,5.77,0.49
dw_cut_4_n1_1f_opt_disp_struct_10.xyz,Nucleus 18H :,0.270312,-0.175535,2.34071,28.86,34.88,27.91,23.79,42.53,27.73,32.79,-0.31,-10.62,-5.54,23.79,27.91,34.88,0,11.09,-0.26
dw_cut_4_n1_1f_opt_disp_struct_10.xyz,Nucleus 23H :,-0.009343,-0.600735,1.039563,29.81,32.71,28.82,27.9,16.0,23.46,37.47,12.8,4.73,-5.02,27.9,28.82,32.71,0,4.81,-0.62
dw_cut_4_n1_1f_opt_disp_struct_10.xyz,Nucleus 24H :,-1.042849,-1.541695,0.862145,30.33,34.3,26.32,30.36,38.76,13.96,25.54,-4.66,12.41,4.96,26.32,30.36,34.3,0,7.98,0.01
dw_cut_4_n1_1f_opt_disp_struct_10.xyz,Nucleus 25H :,-1.360604,-1.98594,-0.362953,30.16,34.04,30.01,26.44,39.53,20.08,12.33,-5.53,9.91,14.18,26.44,30.01,34.04,0,7.6,-0.06
dw_cut_4_n1_1f_opt_disp_struct_10.xyz,Nucleus 0C :,-1.753658,-2.027756,1.960702,169.9,186.31,163.25,160.13,255.93,241.64,237.31,-67.66,-79.74,-77.79,160.13,163.25,186.31,0,26.18,-0.76
dw_cut_4_n1_1f_opt_disp_struct_10.xyz,Nucleus 3C :,-2.506487,-2.792931,1.797383,62.28,149.24,53.35,-15.76,240.52,273.27,262.4,-91.32,-219.58,-278.47,-15.76,53.35,149.24,0,165.0,-0.16
dw_cut_4_n1_1f_opt_disp_struct_10.xyz,Nucleus 4C :,-1.448346,-1.584534,3.245059,59.27,-24.64,126.96,75.5,255.72,265.03,273.59,-291.36,-132.34,-192.83,-24.64,75.5,126.96,0,151.6,0.32
dw_cut_4_n1_1f_opt_disp_struct_10.xyz,Nucleus 7C :,-1.96903,-2.010158,4.095453,37.38,136.41,-41.35,17.09,262.68,270.51,274.08,-132.5,-313.51,-249.11,-41.35,17.09,136.41,0,177.76,-0.34
dw_cut_4_n1_1f_opt_disp_struct_10.xyz,Nucleus 8C :,-0.430174,-0.648507,3.459174,59.67,162.76,20.36,-4.1,234.38,266.68,265.75,-71.71,-246.11,-269.98,-4.1,20.36,162.76,0,166.86,-0.71
dw_cut_4_n1_1f_opt_disp_struct_10.xyz,Nucleus 9C :,-0.145898,-0.359562,4.466886,11.3,-67.29,74.29,26.91,234.9,267.41,264.81,-333.84,-161.13,-238.24,-67.29,26.91,74.29,0,141.58,0.33
dw_cut_4_n1_1f_opt_disp_struct_10.xyz,Nucleus 11C :,2.482154,1.566707,0.672443,69.53,164.12,-16.23,60.7,239.52,265.74,270.45,-76.24,-282.12,-208.77,-16.23,60.7,164.12,0,180.35,-0.15
dw_cut_4_n1_1f_opt_disp_struct_10.xyz,Nucleus 13C :,0.006875,0.170933,-1.795896,51.57,171.93,41.61,-58.84,216.09,272.32,255.55,-44.26,-230.66,-314.35,-58.84,41.61,171.93,0,230.77,-0.13
dw_cut_4_n1_1f_opt_disp_struct_10.xyz,Nucleus 15C :,3.922112,-5.904284,2.595773,70.23,171.53,58.12,-18.97,243.45,271.31,265.88,-72.48,-211.94,-285.54,-18.97,58.12,171.53,0,190.5,-0.19
dw_cut_4_n1_1f_opt_disp_struct_10.xyz,Nucleus 19C :,2.84335,-4.838691,2.512347,159.53,121.02,190.85,166.72,252.06,225.4,216.73,-96.03,-54.53,-65.02,121.02,166.72,190.85,0,69.83,0.31
dw_cut_4_n1_1f_opt_disp_struct_10.xyz,Nucleus 20C :,1.933715,-4.938451,3.385311,2.85,-86.09,67.25,27.39,203.45,256.22,265.76,-136.22,-342.36,-238.29,-86.09,27.39,67.25,0,153.34,0.48
dw_cut_4_n1_1f_opt_disp_struct_10.xyz,Nucleus 5N :,2.989051,-3.980757,1.597922,120.34,59.59,168.39,133.04,298.5,337.61,330.25,-130.43,-204.24,-270.67,59.59,133.04,168.39,0,108.8,0.35
dw_cut_4_n1_1f_opt_disp_struct_10.xyz,Nucleus 21O :,3.573092,-6.795728,2.058285,-25.93,219.44,-36.76,-260.46,426.31,404.43,395.49,-185.94,-443.71,-674.36,-260.46,-36.76,219.44,0,479.9,-0.07
dw_cut_4_n1_1f_opt_disp_struct_10.xyz,Nucleus 22O :,4.861929,-5.584153,2.131089,-31.0,215.31,-264.62,-43.69,400.29,437.87,426.21,-221.46,-677.15,-458.75,-264.62,-43.69,215.31,0,479.93,-0.08
dw_cut_4_n1_1f_opt_disp_struct_10.xyz,Nucleus 10F :,4.097901,-6.200307,3.635157,304.82,397.18,226.77,290.52,487.25,469.02,461.46,-71.46,-235.13,-196.67,226.77,290.52,397.18,0,170.41,-0.25
dw_cut_4_n1_1f_opt_disp_struct_11.xyz,Nucleus 1H :,0.968697,-0.048796,-1.316757,29.32,35.23,23.72,29.0,40.43,27.26,29.19,-6.44,0.24,-2.73,23.72,29.0,35.23,0,11.51,-0.08
dw_cut_4_n1_1f_opt_disp_struct_11.xyz,Nucleus 2H :,1.717455,0.636891,-1.730257,28.35,34.33,23.8,26.93,44.9,24.42,26.79,-11.73,2.25,-1.56,23.8,26.93,34.33,0,10.53,-0.4
dw_cut_4_n1_1f_opt_disp_struct_11.xyz,Nucleus 6H :,1.24425,-1.070153,-1.616042,24.32,16.6,25.18,31.17,49.28,15.27,30.56,-18.5,1.54,-5.2,16.6,25.18,31.17,0,14.57,0.18
dw_cut_4_n1_1f_opt_disp_struct_11.xyz,Nucleus 12H :,0.894166,0.081254,0.161887,24.45,20.87,24.75,27.74,47.11,17.84,30.47,-22.3,3.11,-2.88,20.87,24.75,27.74,0,6.87,0.13
dw_cut_4_n1_1f_opt_disp_struct_11.xyz,Nucleus 14H :,1.681204,0.896116,0.952223,24.03,20.36,27.0,24.72,4.87,31.84,43.77,15.52,-4.87,-19.05,20.36,24.72,27.0,0,6.64,0.31
dw_cut_4_n1_1f_opt_disp_struct_11.xyz,Nucleus 16H :,1.299822,0.732245,2.256423,24.33,19.98,27.93,25.08,9.34,31.04,47.33,10.73,-3.14,-22.31,19.98,25.08,27.93,0,7.95,0.28
dw_cut_4_n1_1f_opt_disp_struct_11.xyz,Nucleus 17H :,1.670119,1.237253,3.038951,24.54,21.17,25.47,26.98,44.85,28.69,31.2,-19.23,-7.49,-4.4,21.17,25.47,26.98,0,5.81,0.48
dw_cut_4_n1_1f_opt_disp_struct_11.xyz,Nucleus 18H :,0.270312,-0.175535,2.34071,28.85,34.86,27.91,23.79,42.47,27.67,32.7,-0.26,-10.52,-5.5,23.79,27.91,34.86,0,11.07,-0.25
dw_cut_4_n1_1f_opt_disp_struct_11.xyz,Nucleus 23H :,-0.009343,-0.600735,1.039563,29.79,32.63,28.82,27.92,15.68,23.76,37.47,13.11,4.46,-5.1,27.92,28.82,32.63,0,4.71,-0.62
dw_cut_4_n1_1f_opt_disp_struct_11.xyz,Nucleus 24H :,-1.042849,-1.541695,0.862145,30.3,34.26,26.33,30.32,38.87,13.93,25.47,-4.81,12.47,4.99,26.33,30.32,34.26,0,7.93,0.01
dw_cut_4_n1_1f_opt_disp_struct_11.xyz,Nucleus 25H :,-1.360604,-1.98594,-0.362953,30.14,33.97,30.01,26.45,39.49,20.18,12.05,-5.58,9.82,14.47,26.45,30.01,33.97,0,7.52,-0.05
dw_cut_4_n1_1f_opt_disp_struct_11.xyz,Nucleus 0C :,-1.753658,-2.027756,1.960702,169.94,186.3,163.34,160.17,255.99,241.42,237.23,-67.75,-79.53,-77.57,160.17,163.34,186.3,0,26.13,-0.76
dw_cut_4_n1_1f_opt_disp_struct_11.xyz,Nucleus 3C :,-2.506487,-2.792931,1.797383,62.3,149.2,53.36,-15.65,240.37,272.83,262.37,-91.19,-219.17,-278.29,-15.65,53.36,149.2,0,164.85,-0.16
dw_cut_4_n1_1f_opt_disp_struct_11.xyz,Nucleus 4C :,-1.448346,-1.584534,3.245059,59.0,-25.02,127.0,75.02,255.43,265.16,273.49,-291.67,-132.25,-193.14,-25.02,75.02,127.0,0,152.02,0.32
dw_cut_4_n1_1f_opt_disp_struct_11.xyz,Nucleus 7C :,-1.96903,-2.010158,4.095453,37.47,136.38,-41.12,17.14,262.5,270.4,273.39,-131.98,-312.81,-249.1,-41.12,17.14,136.38,0,177.5,-0.34
dw_cut_4_n1_1f_opt_disp_struct_11.xyz,Nucleus 8C :,-0.430174,-0.648507,3.459174,59.83,162.73,20.68,-3.91,234.48,266.04,265.71,-71.82,-245.28,-269.64,-3.91,20.68,162.73,0,166.64,-0.7
dw_cut_4_n1_1f_opt_disp_struct_11.xyz,Nucleus 9C :,-0.145898,-0.359562,4.466886,11.39,-67.11,74.29,26.99,234.56,267.12,264.63,-333.31,-160.83,-238.01,-67.11,26.99,74.29,0,141.4,0.33
dw_cut_4_n1_1f_opt_disp_struct_11.xyz,Nucleus 11C :,2.482154,1.566707,0.672443,69.53,164.17,-16.17,60.59,239.35,265.29,270.3,-75.96,-281.64,-208.74,-16.17,60.59,164.17,0,180.34,-0.15
dw_cut_4_n1_1f_opt_disp_struct_11.xyz,Nucleus 13C :,0.006875,0.170933,-1.795896,51.67,171.97,41.66,-58.63,216.4,271.99,255.38,-44.47,-230.27,-314.02,-58.63,41.66,171.97,0,230.6,-0.13
dw_cut_4_n1_1f_opt_disp_struct_11.xyz,Nucleus 15C :,4.08744,-6.090111,2.620966,70.23,171.58,58.02,-18.91,243.25,271.3,265.39,-72.18,-211.95,-285.13,-18.91,58.02,171.58,0,190.49,-0.19
dw_cut_4_n1_1f_opt_disp_struct_11.xyz,Nucleus 19C :,3.008678,-5.024519,2.537539,159.51,120.97,190.75,166.82,251.97,226.19,217.33,-96.75,-55.13,-65.08,120.97,166.82,190.75,0,69.78,0.31
dw_cut_4_n1_1f_opt_disp_struct_11.xyz,Nucleus 20C :,2.099043,-5.124279,3.410503,2.81,-86.33,67.22,27.54,203.08,255.89,265.97,-135.88,-342.24,-238.38,-86.33,27.54,67.22,0,153.55,0.48
dw_cut_4_n1_1f_opt_disp_struct_11.xyz,Nucleus 5N :,3.15438,-4.166584,1.623115,120.07,59.18,168.44,132.59,298.46,337.43,330.19,-130.27,-204.56,-271.04,59.18,132.59,168.44,0,109.26,0.34
dw_cut_4_n1_1f_opt_disp_struct_11.xyz,Nucleus 21O :,3.738421,-6.981555,2.083477,-25.9,220.01,-36.89,-260.82,427.31,403.83,395.06,-184.47,-444.11,-675.32,-260.82,-36.89,220.01,0,480.83,-0.07
dw_cut_4_n1_1f_opt_disp_struct_11.xyz,Nucleus 22O :,5.027257,-5.76998,2.156282,-31.54,215.32,-265.55,-44.39,400.48,439.86,426.8,-223.37,-679.4,-458.98,-265.55,-44.39,215.32,0,480.87,-0.08
dw_cut_4_n1_1f_opt_disp_struct_11.xyz,Nucleus 10F :,4.26323,-6.386134,3.660349,304.4,397.14,226.07,290.0,487.1,468.72,461.33,-71.21,-235.67,-197.05,226.07,290.0,397.14,0,171.07,-0.25
dw_cut_4_n1_1f_opt_disp_struct_12.xyz,Nucleus 1H :,0.968697,-0.048796,-1.316757,29.3,35.21,23.7,28.99,40.38,27.18,29.17,-6.39,0.26,-2.72,23.7,28.99,35.21,0,11.51,-0.08
dw_cut_4_n1_1f_opt_disp_struct_12.xyz,Nucleus 2H :,1.717455,0.636891,-1.730257,28.37,34.37,23.8,26.93,44.86,24.37,26.71,-11.63,2.31,-1.52,23.8,26.93,34.37,0,10.57,-0.41
dw_cut_4_n1_1f_opt_disp_struct_12.xyz,Nucleus 6H :,1.24425,-1.070153,-1.616042,24.29,16.57,25.16,31.15,49.19,15.24,30.52,-18.42,1.52,-5.17,16.57,25.16,31.15,0,14.58,0.18
dw_cut_4_n1_1f_opt_disp_struct_12.xyz,Nucleus 12H :,0.894166,0.081254,0.161887,24.44,20.82,24.75,27.74,46.97,17.85,30.41,-22.15,3.06,-2.82,20.82,24.75,27.74,0,6.92,0.13
dw_cut_4_n1_1f_opt_disp_struct_12.xyz,Nucleus 14H :,1.681204,0.896116,0.952223,24.02,20.32,27.02,24.73,4.96,31.74,43.74,15.39,-4.75,-19.01,20.32,24.73,27.02,0,6.7,0.32
dw_cut_4_n1_1f_opt_disp_struct_12.xyz,Nucleus 16H :,1.299822,0.732245,2.256423,24.32,19.93,27.94,25.08,9.42,31.04,47.2,10.6,-3.13,-22.17,19.93,25.08,27.94,0,8.01,0.28
dw_cut_4_n1_1f_opt_disp_struct_12.xyz,Nucleus 17H :,1.670119,1.237253,3.038951,24.52,21.13,25.45,26.98,44.79,28.65,31.16,-19.19,-7.49,-4.36,21.13,25.45,26.98,0,5.85,0.48
dw_cut_4_n1_1f_opt_disp_struct_12.xyz,Nucleus 18H :,0.270312,-0.175535,2.34071,28.84,34.85,27.9,23.78,42.42,27.61,32.62,-0.22,-10.44,-5.46,23.78,27.9,34.85,0,11.07,-0.25
dw_cut_4_n1_1f_opt_disp_struct_12.xyz,Nucleus 23H :,-0.009343,-0.600735,1.039563,29.78,32.56,28.83,27.94,15.33,24.02,37.46,13.47,4.22,-5.17,27.94,28.83,32.56,0,4.62,-0.62
dw_cut_4_n1_1f_opt_disp_struct_12.xyz,Nucleus 24H :,-1.042849,-1.541695,0.862145,30.29,34.22,26.36,30.29,38.97,13.81,25.37,-4.95,12.61,5.06,26.36,30.29,34.22,0,7.86,0.0
dw_cut_4_n1_1f_opt_disp_struct_12.xyz,Nucleus 25H :,-1.360604,-1.98594,-0.362953,30.13,26.46,30.01,33.91,39.46,20.23,11.74,-5.61,9.76,14.8,26.46,30.01,33.91,0,7.45,-0.05
dw_cut_4_n1_1f_opt_disp_struct_12.xyz,Nucleus 0C :,-1.753658,-2.027756,1.960702,169.97,186.28,163.42,160.2,256.04,241.21,237.16,-67.82,-79.33,-77.37,160.2,163.42,186.28,0,26.08,-0.75
dw_cut_4_n1_1f_opt_disp_struct_12.xyz,Nucleus 3C :,-2.506487,-2.792931,1.797383,62.31,149.16,53.36,-15.59,240.26,272.5,262.37,-91.12,-218.88,-278.2,-15.59,53.36,149.16,0,164.75,-0.16
dw_cut_4_n1_1f_opt_disp_struct_12.xyz,Nucleus 4C :,-1.448346,-1.584534,3.245059,58.78,-25.32,127.05,74.61,255.21,265.19,273.41,-291.92,-132.15,-193.4,-25.32,74.61,127.05,0,152.37,0.31
dw_cut_4_n1_1f_opt_disp_struct_12.xyz,Nucleus 7C :,-1.96903,-2.010158,4.095453,37.54,136.36,-40.92,17.18,262.32,270.37,272.78,-131.55,-312.19,-249.11,-40.92,17.18,136.36,0,177.28,-0.34
dw_cut_4_n1_1f_opt_disp_struct_12.xyz,Nucleus 8C :,-0.430174,-0.648507,3.459174,59.94,162.67,20.92,-3.77,234.57,265.46,265.71,-71.95,-244.63,-269.36,-3.77,20.92,162.67,0,166.44,-0.7
dw_cut_4_n1_1f_opt_disp_struct_12.xyz,Nucleus 9C :,-0.145898,-0.359562,4.466886,11.46,-66.97,74.29,27.05,234.32,266.86,264.47,-332.86,-160.59,-237.84,-66.97,27.05,74.29,0,141.26,0.33
dw_cut_4_n1_1f_opt_disp_struct_12.xyz,Nucleus 11C :,2.482154,1.566707,0.672443,69.53,164.22,-16.12,60.5,239.2,264.89,270.19,-75.7,-281.24,-208.75,-16.12,60.5,164.22,0,180.34,-0.15
dw_cut_4_n1_1f_opt_disp_struct_12.xyz,Nucleus 13C :,0.006875,0.170933,-1.795896,51.74,172.01,41.7,-58.48,216.62,271.72,255.26,-44.62,-229.98,-313.77,-58.48,41.7,172.01,0,230.49,-0.13
dw_cut_4_n1_1f_opt_disp_struct_12.xyz,Nucleus 15C :,4.252769,-6.275939,2.646158,70.23,171.63,57.91,-18.86,243.1,271.28,264.99,-71.9,-211.99,-284.79,-18.86,57.91,171.63,0,190.49,-0.19
dw_cut_4_n1_1f_opt_disp_struct_12.xyz,Nucleus 19C :,3.174007,-5.210346,2.562731,159.5,120.93,190.65,166.91,251.91,226.73,217.71,-97.24,-55.55,-65.07,120.93,166.91,190.65,0,69.72,0.32
dw_cut_4_n1_1f_opt_disp_struct_12.xyz,Nucleus 20C :,2.264372,-5.310106,3.435695,2.75,-86.55,67.16,27.65,202.82,255.61,266.22,-135.68,-342.15,-238.56,-86.55,27.65,67.16,0,153.71,0.49
dw_cut_4_n1_1f_opt_disp_struct_12.xyz,Nucleus 5N :,3.319708,-4.352412,1.648307,119.87,58.85,168.52,132.23,298.42,337.3,330.09,-130.11,-204.82,-271.29,58.85,132.23,168.52,0,109.67,0.34
dw_cut_4_n1_1f_opt_disp_struct_12.xyz,Nucleus 21O :,3.90375,-7.167382,2.10867,-25.9,220.55,-37.06,-261.2,428.2,403.47,394.69,-183.34,-444.49,-676.23,-261.2,-37.06,220.55,0,481.75,-0.07
dw_cut_4_n1_1f_opt_disp_struct_12.xyz,Nucleus 22O :,5.192586,-5.955808,2.181474,-32.06,215.53,-266.66,-45.05,400.61,441.55,427.39,-224.77,-681.77,-459.2,-266.66,-45.05,215.53,0,482.19,-0.08
dw_cut_4_n1_1f_opt_disp_struct_12.xyz,Nucleus 10F :,4.428558,-6.571962,3.685542,304.02,397.09,225.48,289.5,486.95,468.46,461.2,-71.02,-236.1,-197.4,225.48,289.5,397.09,0,171.61,-0.25
dw_cut_4_n1_1f_opt_disp_struct_13.xyz,Nucleus 1H :,0.968697,-0.048796,-1.316757,29.3,35.21,23.71,28.99,40.36,27.14,29.16,-6.34,0.28,-2.7,23.71,28.99,35.21,0,11.5,-0.08
dw_cut_4_n1_1f_opt_disp_struct_13.xyz,Nucleus 2H :,1.717455,0.636891,-1.730257,28.4,34.42,23.85,26.94,44.83,24.35,26.66,-11.52,2.37,-1.48,23.85,26.94,34.42,0,10.57,-0.41
dw_cut_4_n1_1f_opt_disp_struct_13.xyz,Nucleus 6H :,1.24425,-1.070153,-1.616042,24.28,16.54,25.18,31.12,49.11,15.21,30.51,-18.34,1.48,-5.14,16.54,25.18,31.12,0,14.58,0.19
dw_cut_4_n1_1f_opt_disp_struct_13.xyz,Nucleus 12H :,0.894166,0.081254,0.161887,24.43,20.77,24.72,27.79,46.86,17.83,30.37,-22.06,3.03,-2.75,20.77,24.72,27.79,0,7.02,0.12
dw_cut_4_n1_1f_opt_disp_struct_13.xyz,Nucleus 14H :,1.681204,0.896116,0.952223,23.99,20.2,27.07,24.7,4.97,31.67,43.72,15.27,-4.62,-19.02,20.2,24.7,27.07,0,6.87,0.31
dw_cut_4_n1_1f_opt_disp_struct_13.xyz,Nucleus 16H :,1.299822,0.732245,2.256423,24.28,19.81,27.98,25.06,9.43,31.04,47.09,10.45,-3.09,-22.07,19.81,25.06,27.98,0,8.17,0.29
dw_cut_4_n1_1f_opt_disp_struct_13.xyz,Nucleus 17H :,1.670119,1.237253,3.038951,24.52,21.11,25.43,27.02,44.75,28.62,31.14,-19.15,-7.49,-4.3,21.11,25.43,27.02,0,5.91,0.46
dw_cut_4_n1_1f_opt_disp_struct_13.xyz,Nucleus 18H :,0.270312,-0.175535,2.34071,28.87,34.85,27.92,23.83,42.38,27.57,32.57,-0.17,-10.34,-5.42,23.83,27.92,34.85,0,11.02,-0.26
dw_cut_4_n1_1f_opt_disp_struct_13.xyz,Nucleus 23H :,-0.009343,-0.600735,1.039563,29.7,32.47,28.73,27.89,14.83,24.15,37.42,13.89,4.03,-5.22,27.89,28.73,32.47,0,4.58,-0.64
dw_cut_4_n1_1f_opt_disp_struct_13.xyz,Nucleus 24H :,-1.042849,-1.541695,0.862145,30.21,34.15,26.25,30.23,39.02,13.48,25.21,-5.07,12.84,5.15,26.25,30.23,34.15,0,7.9,0.01
dw_cut_4_n1_1f_opt_disp_struct_13.xyz,Nucleus 25H :,-1.360604,-1.98594,-0.362953,30.07,26.41,29.95,33.84,39.4,20.21,11.33,-5.62,9.74,15.14,26.41,29.95,33.84,0,7.43,-0.05
dw_cut_4_n1_1f_opt_disp_struct_13.xyz,Nucleus 0C :,-1.753658,-2.027756,1.960702,170.03,186.2,163.61,160.29,256.04,241.12,237.12,-67.92,-79.13,-77.13,160.29,163.61,186.2,0,25.91,-0.74
dw_cut_4_n1_1f_opt_disp_struct_13.xyz,Nucleus 3C :,-2.506487,-2.792931,1.797383,62.3,149.12,53.47,-15.69,240.2,272.34,262.38,-91.1,-218.62,-278.29,-15.69,53.47,149.12,0,164.81,-0.16
dw_cut_4_n1_1f_opt_disp_struct_13.xyz,Nucleus 4C :,-1.448346,-1.584534,3.245059,58.6,-25.59,127.23,74.16,255.12,265.12,273.36,-292.17,-131.91,-193.72,-25.59,74.16,127.23,0,152.82,0.31
dw_cut_4_n1_1f_opt_disp_struct_13.xyz,Nucleus 7C :,-1.96903,-2.010158,4.095453,37.66,136.57,-40.66,17.06,262.27,270.32,272.48,-131.16,-311.7,-249.24,-40.66,17.06,136.57,0,177.23,-0.35
dw_cut_4_n1_1f_opt_disp_struct_13.xyz,Nucleus 8C :,-0.430174,-0.648507,3.459174,59.92,162.42,21.12,-3.79,234.58,265.24,265.68,-72.2,-244.28,-269.26,-3.79,21.12,162.42,0,166.21,-0.7
dw_cut_4_n1_1f_opt_disp_struct_13.xyz,Nucleus 9C :,-0.145898,-0.359562,4.466886,11.51,-66.86,74.38,27.02,234.21,266.7,264.41,-332.57,-160.38,-237.83,-66.86,27.02,74.38,0,141.24,0.33
dw_cut_4_n1_1f_opt_disp_struct_13.xyz,Nucleus 11C :,2.482154,1.566707,0.672443,69.54,164.39,-16.08,60.3,239.09,264.68,270.11,-75.39,-280.99,-208.9,-16.08,60.3,164.39,0,180.47,-0.15
dw_cut_4_n1_1f_opt_disp_struct_13.xyz,Nucleus 13C :,0.006875,0.170933,-1.795896,51.72,171.99,41.65,-58.47,216.66,271.55,255.22,-44.68,-229.85,-313.74,-58.47,41.65,171.99,0,230.46,-0.13
dw_cut_4_n1_1f_opt_disp_struct_13.xyz,Nucleus 15C :,4.418097,-6.461766,2.67135,70.24,171.85,57.68,-18.8,242.99,271.26,264.74,-71.53,-212.16,-284.57,-18.8,57.68,171.85,0,190.65,-0.2
dw_cut_4_n1_1f_opt_disp_struct_13.xyz,Nucleus 19C :,3.339335,-5.396173,2.587924,159.17,120.39,190.51,166.62,251.84,226.64,217.31,-97.42,-55.84,-65.01,120.39,166.62,190.51,0,70.12,0.32
dw_cut_4_n1_1f_opt_disp_struct_13.xyz,Nucleus 20C :,2.4297,-5.495933,3.460887,2.74,-86.7,67.13,27.78,202.67,255.4,266.62,-135.56,-342.08,-238.83,-86.7,27.78,67.13,0,153.83,0.49
dw_cut_4_n1_1f_opt_disp_struct_13.xyz,Nucleus 5N :,3.485037,-4.538239,1.673499,119.65,58.4,168.74,131.82,298.38,337.24,329.97,-129.84,-205.17,-271.62,58.4,131.82,168.74,0,110.34,0.33
dw_cut_4_n1_1f_opt_disp_struct_13.xyz,Nucleus 21O :,4.069078,-7.35321,2.133862,-25.58,221.84,-37.08,-261.5,428.9,403.96,394.57,-182.7,-444.67,-676.8,-261.5,-37.08,221.84,0,483.34,-0.07
dw_cut_4_n1_1f_opt_disp_struct_13.xyz,Nucleus 22O :,5.357915,-6.141635,2.206666,-32.56,215.85,-267.92,-45.61,400.6,443.13,427.81,-226.01,-683.87,-459.34,-267.92,-45.61,215.85,0,483.77,-0.08
dw_cut_4_n1_1f_opt_disp_struct_13.xyz,Nucleus 10F :,4.593887,-6.757789,3.710734,303.52,396.98,224.86,288.72,486.82,468.32,461.11,-71.02,-236.61,-198.05,224.86,288.72,396.98,0,172.12,-0.26
dw_cut_4_n1_1f_opt_disp_struct_14.xyz,Nucleus 1H :,0.968697,-0.048796,-1.316757,29.27,35.19,23.65,28.97,40.32,27.06,29.14,-6.31,0.3,-2.7,23.65,28.97,35.19,0,11.54,-0.08
dw_cut_4_n1_1f_opt_disp_struct_14.xyz,Nucleus 2H :,1.717455,0.636891,-1.730257,28.39,34.44,23.8,26.92,44.77,24.3,26.59,-11.47,2.42,-1.45,23.8,26.92,34.44,0,10.64,-0.41
dw_cut_4_n1_1f_opt_disp_struct_14.xyz,Nucleus 6H :,1.24425,-1.070153,-1.616042,24.26,16.51,25.14,31.12,49.01,15.18,30.46,-18.25,1.49,-5.13,16.51,25.14,31.12,0,14.61,0.18
dw_cut_4_n1_1f_opt_disp_struct_14.xyz,Nucleus 12H :,0.894166,0.081254,0.161887,24.42,20.75,24.75,27.75,46.73,17.86,30.33,-21.91,2.98,-2.74,20.75,24.75,27.75,0,7.0,0.14
dw_cut_4_n1_1f_opt_disp_struct_14.xyz,Nucleus 14H :,1.681204,0.896116,0.952223,24.01,20.25,27.04,24.73,5.08,31.58,43.69,15.2,-4.57,-18.95,20.25,24.73,27.04,0,6.79,0.32
dw_cut_4_n1_1f_opt_disp_struct_14.xyz,Nucleus 16H :,1.299822,0.732245,2.256423,24.3,19.86,27.95,25.08,9.54,31.05,46.97,10.39,-3.12,-21.93,19.86,25.08,27.95,0,8.09,0.29
dw_cut_4_n1_1f_opt_disp_struct_14.xyz,Nucleus 17H :,1.670119,1.237253,3.038951,24.48,21.07,25.41,26.97,44.68,28.57,31.09,-19.11,-7.49,-4.29,21.07,25.41,26.97,0,5.9,0.47
dw_cut_4_n1_1f_opt_disp_struct_14.xyz,Nucleus 18H :,0.270312,-0.175535,2.34071,28.83,34.83,27.89,23.78,42.32,27.51,32.48,-0.15,-10.28,-5.39,23.78,27.89,34.83,0,11.05,-0.26
dw_cut_4_n1_1f_opt_disp_struct_14.xyz,Nucleus 23H :,-0.009343,-0.600735,1.039563,29.75,32.45,28.84,27.97,14.47,24.4,37.43,14.37,3.88,-5.27,27.97,28.84,32.45,0,4.48,-0.61
dw_cut_4_n1_1f_opt_disp_struct_14.xyz,Nucleus 24H :,-1.042849,-1.541695,0.862145,30.26,34.16,26.4,30.23,39.11,13.31,25.1,-5.17,13.15,5.28,26.4,30.23,34.16,0,7.76,-0.01
dw_cut_4_n1_1f_opt_disp_struct_14.xyz,Nucleus 25H :,-1.360604,-1.98594,-0.362953,30.1,26.48,30.0,33.82,39.37,20.23,10.99,-5.63,9.77,15.57,26.48,30.0,33.82,0,7.34,-0.04
dw_cut_4_n1_1f_opt_disp_struct_14.xyz,Nucleus 0C :,-1.753658,-2.027756,1.960702,170.01,186.24,163.55,160.25,256.13,240.85,237.04,-67.95,-79.01,-77.02,160.25,163.55,186.24,0,25.99,-0.75
dw_cut_4_n1_1f_opt_disp_struct_14.xyz,Nucleus 3C :,-2.506487,-2.792931,1.797383,62.31,149.09,53.34,-15.51,240.12,272.1,262.41,-91.04,-218.54,-278.13,-15.51,53.34,149.09,0,164.6,-0.16
dw_cut_4_n1_1f_opt_disp_struct_14.xyz,Nucleus 4C :,-1.448346,-1.584534,3.245059,58.44,-25.8,127.15,73.96,255.03,265.0,273.31,-292.26,-131.99,-193.78,-25.8,73.96,127.15,0,152.95,0.3
dw_cut_4_n1_1f_opt_disp_struct_14.xyz,Nucleus 7C :,-1.96903,-2.010158,4.095453,37.66,136.35,-40.6,17.22,262.12,270.24,271.84,-130.94,-311.23,-249.08,-40.6,17.22,136.35,0,176.95,-0.35
dw_cut_4_n1_1f_opt_disp_struct_14.xyz,Nucleus 8C :,-0.430174,-0.648507,3.459174,60.07,162.54,21.28,-3.6,234.7,264.88,265.62,-72.18,-243.81,-268.98,-3.6,21.28,162.54,0,166.14,-0.7
dw_cut_4_n1_1f_opt_disp_struct_14.xyz,Nucleus 9C :,-0.145898,-0.359562,4.466886,11.56,-66.75,74.3,27.13,234.02,266.46,264.25,-332.19,-160.23,-237.63,-66.75,27.13,74.3,0,141.05,0.33
dw_cut_4_n1_1f_opt_disp_struct_14.xyz,Nucleus 11C :,2.482154,1.566707,0.672443,69.54,164.3,-16.03,60.35,238.96,264.26,270.07,-75.25,-280.61,-208.81,-16.03,60.35,164.3,0,180.33,-0.15
dw_cut_4_n1_1f_opt_disp_struct_14.xyz,Nucleus 13C :,0.006875,0.170933,-1.795896,51.85,172.08,41.73,-58.25,216.91,271.36,255.09,-44.84,-229.58,-313.39,-58.25,41.73,172.08,0,230.33,-0.13
dw_cut_4_n1_1f_opt_disp_struct_14.xyz,Nucleus 15C :,4.583426,-6.647593,2.696542,70.23,171.72,57.75,-18.78,242.85,271.21,264.32,-71.39,-212.06,-284.22,-18.78,57.75,171.72,0,190.5,-0.2
dw_cut_4_n1_1f_opt_disp_struct_14.xyz,Nucleus 19C :,3.504664,-5.582001,2.613116,159.47,120.87,190.48,167.06,251.81,227.04,217.62,-97.32,-55.92,-64.83,120.87,167.06,190.48,0,69.61,0.33
dw_cut_4_n1_1f_opt_disp_struct_14.xyz,Nucleus 20C :,2.595029,-5.681761,3.48608,2.63,-86.9,67.06,27.74,202.57,255.16,266.87,-135.54,-342.04,-239.13,-86.9,27.74,67.06,0,153.96,0.49
dw_cut_4_n1_1f_opt_disp_struct_14.xyz,Nucleus 5N :,3.650366,-4.724066,1.698691,119.57,58.36,168.65,131.7,298.38,337.12,329.82,-129.86,-205.22,-271.52,58.36,131.7,168.65,0,110.29,0.33
dw_cut_4_n1_1f_opt_disp_struct_14.xyz,Nucleus 21O :,4.234407,-7.539037,2.159054,-25.88,221.44,-37.31,-261.76,429.69,403.56,394.25,-182.49,-445.06,-677.58,-261.76,-37.31,221.44,0,483.2,-0.07
dw_cut_4_n1_1f_opt_disp_struct_14.xyz,Nucleus 22O :,5.523243,-6.327462,2.231858,-32.89,216.14,-268.69,-46.12,400.71,444.41,428.41,-226.86,-685.85,-459.48,-268.69,-46.12,216.14,0,484.83,-0.08
dw_cut_4_n1_1f_opt_disp_struct_14.xyz,Nucleus 10F :,4.759215,-6.943616,3.735926,303.4,397.0,224.56,288.65,486.62,468.03,460.95,-70.76,-236.71,-197.92,224.56,288.65,397.0,0,172.44,-0.26
dw_cut_4_n1_1f_opt_disp_struct_15.xyz,Nucleus 1H :,0.968697,-0.048796,-1.316757,29.26,35.18,23.64,28.96,40.3,27.0,29.11,-6.28,0.32,-2.68,23.64,28.96,35.18,0,11.54,-0.08
dw_cut_4_n1_1f_opt_disp_struct_15.xyz,Nucleus 2H :,1.717455,0.636891,-1.730257,28.4,34.47,23.79,26.93,44.73,24.28,26.54,-11.4,2.46,-1.42,23.79,26.93,34.47,0,10.68,-0.41
dw_cut_4_n1_1f_opt_disp_struct_15.xyz,Nucleus 6H :,1.24425,-1.070153,-1.616042,24.24,16.48,25.13,31.1,48.93,15.15,30.43,-18.18,1.48,-5.1,16.48,25.13,31.1,0,14.62,0.18
dw_cut_4_n1_1f_opt_disp_struct_15.xyz,Nucleus 12H :,0.894166,0.081254,0.161887,24.41,20.72,24.76,27.76,46.63,17.86,30.31,-21.8,2.95,-2.72,20.72,24.76,27.76,0,7.04,0.15
dw_cut_4_n1_1f_opt_disp_struct_15.xyz,Nucleus 14H :,1.681204,0.896116,0.952223,24.0,20.22,27.05,24.74,5.12,31.53,43.67,15.13,-4.51,-18.92,20.22,24.74,27.05,0,6.83,0.33
dw_cut_4_n1_1f_opt_disp_struct_15.xyz,Nucleus 16H :,1.299822,0.732245,2.256423,24.29,19.83,27.96,25.09,9.59,31.05,46.88,10.31,-3.12,-21.83,19.83,25.09,27.96,0,8.13,0.3
dw_cut_4_n1_1f_opt_disp_struct_15.xyz,Nucleus 17H :,1.670119,1.237253,3.038951,24.47,21.04,25.4,26.97,44.63,28.54,31.05,-19.07,-7.49,-4.25,21.04,25.4,26.97,0,5.93,0.47
dw_cut_4_n1_1f_opt_disp_struct_15.xyz,Nucleus 18H :,0.270312,-0.175535,2.34071,28.82,34.82,27.88,23.77,42.28,27.47,32.42,-0.12,-10.22,-5.36,23.77,27.88,34.82,0,11.05,-0.26
dw_cut_4_n1_1f_opt_disp_struct_15.xyz,Nucleus 23H :,-0.009343,-0.600735,1.039563,29.75,32.41,28.84,27.99,13.94,24.51,37.4,14.91,3.78,-5.3,27.99,28.84,32.41,0,4.42,-0.62
dw_cut_4_n1_1f_opt_disp_struct_15.xyz,Nucleus 24H :,-1.042849,-1.541695,0.862145,30.25,34.14,26.41,30.2,39.17,12.93,24.93,-5.26,13.55,5.43,26.41,30.2,34.14,0,7.73,-0.02
dw_cut_4_n1_1f_opt_disp_struct_15.xyz,Nucleus 25H :,-1.360604,-1.98594,-0.362953,30.09,26.49,30.0,33.78,39.32,20.17,10.55,-5.63,9.82,16.03,26.49,30.0,33.78,0,7.29,-0.04
dw_cut_4_n1_1f_opt_disp_struct_15.xyz,Nucleus 0C :,-1.753658,-2.027756,1.960702,170.03,186.23,163.59,160.26,256.17,240.69,236.98,-67.99,-78.89,-76.87,160.26,163.59,186.23,0,25.97,-0.74
dw_cut_4_n1_1f_opt_disp_struct_15.xyz,Nucleus 3C :,-2.506487,-2.792931,1.797383,62.31,149.07,53.32,-15.47,240.07,271.96,262.44,-91.01,-218.43,-278.1,-15.47,53.32,149.07,0,164.54,-0.16
dw_cut_4_n1_1f_opt_disp_struct_15.xyz,Nucleus 4C :,-1.448346,-1.584534,3.245059,58.28,-26.0,127.17,73.68,255.02,264.81,273.27,-292.39,-131.94,-193.92,-26.0,73.68,127.17,0,153.17,0.3
dw_cut_4_n1_1f_opt_disp_struct_15.xyz,Nucleus 7C :,-1.96903,-2.010158,4.095453,37.7,136.33,-40.47,17.25,262.09,270.17,271.47,-130.74,-310.87,-249.01,-40.47,17.25,136.33,0,176.8,-0.35
dw_cut_4_n1_1f_opt_disp_struct_15.xyz,Nucleus 8C :,-0.430174,-0.648507,3.459174,60.14,162.52,21.43,-3.53,234.73,264.73,265.56,-72.23,-243.54,-268.82,-3.53,21.43,162.52,0,166.05,-0.7
dw_cut_4_n1_1f_opt_disp_struct_15.xyz,Nucleus 9C :,-0.145898,-0.359562,4.466886,11.6,-66.65,74.29,27.17,233.95,266.3,264.19,-331.95,-160.12,-237.57,-66.65,27.17,74.29,0,140.94,0.33
dw_cut_4_n1_1f_opt_disp_struct_15.xyz,Nucleus 11C :,2.482154,1.566707,0.672443,69.55,164.32,-15.99,60.31,238.87,264.01,270.04,-75.07,-280.37,-208.84,-15.99,60.31,164.32,0,180.31,-0.15
dw_cut_4_n1_1f_opt_disp_struct_15.xyz,Nucleus 13C :,0.006875,0.170933,-1.795896,51.9,172.1,41.74,-58.15,217.02,271.24,255.03,-44.92,-229.45,-313.23,-58.15,41.74,172.1,0,230.25,-0.13
dw_cut_4_n1_1f_opt_disp_struct_15.xyz,Nucleus 15C :,4.748755,-6.833421,2.721735,70.23,171.75,57.69,-18.74,242.72,271.17,264.06,-71.17,-212.09,-283.98,-18.74,57.69,171.75,0,190.49,-0.2
dw_cut_4_n1_1f_opt_disp_struct_15.xyz,Nucleus 19C :,3.669993,-5.767828,2.638308,159.44,120.82,190.41,167.08,251.76,226.81,217.11,-96.88,-55.88,-64.61,120.82,167.08,190.41,0,69.59,0.33
dw_cut_4_n1_1f_opt_disp_struct_15.xyz,Nucleus 20C :,2.760358,-5.867588,3.511272,2.59,-87.04,67.07,27.74,202.5,254.99,267.27,-135.46,-342.0,-239.52,-87.04,27.74,67.07,0,154.11,0.49
dw_cut_4_n1_1f_opt_disp_struct_15.xyz,Nucleus 5N :,3.815694,-4.909894,1.723884,119.43,58.15,168.68,131.47,298.38,337.05,329.68,-129.82,-205.39,-271.6,58.15,131.47,168.68,0,110.53,0.33
dw_cut_4_n1_1f_opt_disp_struct_15.xyz,Nucleus 21O :,4.399735,-7.724864,2.184246,-25.83,221.89,-37.42,-261.97,430.3,404.16,394.21,-182.87,-445.28,-678.03,-261.97,-37.42,221.89,0,483.86,-0.07
dw_cut_4_n1_1f_opt_disp_struct_15.xyz,Nucleus 22O :,5.688572,-6.51329,2.257051,-33.1,216.49,-269.33,-46.47,400.7,445.78,428.79,-227.84,-687.23,-459.5,-269.33,-46.47,216.49,0,485.82,-0.08
dw_cut_4_n1_1f_opt_disp_struct_15.xyz,Nucleus 10F :,4.924544,-7.129444,3.761118,303.18,396.97,224.21,288.37,486.46,467.87,460.83,-70.65,-236.92,-198.03,224.21,288.37,396.97,0,172.76,-0.26
dw_cut_4_n1_1f_opt_disp_struct_16.xyz,Nucleus 1H :,0.968697,-0.048796,-1.316757,29.25,35.17,23.62,28.95,40.28,26.96,29.09,-6.25,0.34,-2.67,23.62,28.95,35.17,0,11.55,-0.08
dw_cut_4_n1_1f_opt_disp_struct_16.xyz,Nucleus 2H :,1.717455,0.636891,-1.730257,28.41,34.5,23.79,26.93,44.69,24.26,26.5,-11.33,2.49,-1.39,23.79,26.93,34.5,0,10.71,-0.41
dw_cut_4_n1_1f_opt_disp_struct_16.xyz,Nucleus 6H :,1.24425,-1.070153,-1.616042,24.22,16.45,25.13,31.09,48.86,15.13,30.4,-18.11,1.47,-5.08,16.45,25.13,31.09,0,14.64,0.19
dw_cut_4_n1_1f_opt_disp_struct_16.xyz,Nucleus 12H :,0.894166,0.081254,0.161887,24.4,20.69,24.76,27.76,46.55,17.86,30.3,-21.71,2.92,-2.71,20.69,24.76,27.76,0,7.07,0.15
dw_cut_4_n1_1f_opt_disp_struct_16.xyz,Nucleus 14H :,1.681204,0.896116,0.952223,24.0,20.19,27.06,24.75,5.16,31.47,43.65,15.06,-4.45,-18.9,20.19,24.75,27.06,0,6.87,0.33
dw_cut_4_n1_1f_opt_disp_struct_16.xyz,Nucleus 16H :,1.299822,0.732245,2.256423,24.28,19.8,27.96,25.09,9.63,31.05,46.79,10.24,-3.12,-21.73,19.8,25.09,27.96,0,8.16,0.3
dw_cut_4_n1_1f_opt_disp_struct_16.xyz,Nucleus 17H :,1.670119,1.237253,3.038951,24.46,21.01,25.39,26.97,44.59,28.51,31.02,-19.04,-7.49,-4.21,21.01,25.39,26.97,0,5.96,0.47
dw_cut_4_n1_1f_opt_disp_struct_16.xyz,Nucleus 18H :,0.270312,-0.175535,2.34071,28.82,34.81,27.88,23.76,42.24,27.43,32.35,-0.1,-10.15,-5.33,23.76,27.88,34.81,0,11.05,-0.26
dw_cut_4_n1_1f_opt_disp_struct_16.xyz,Nucleus 23H :,-0.009343,-0.600735,1.039563,29.74,32.37,28.85,28.0,13.38,24.59,37.37,15.49,3.71,-5.32,28.0,28.85,32.37,0,4.37,-0.61
dw_cut_4_n1_1f_opt_disp_struct_16.xyz,Nucleus 24H :,-1.042849,-1.541695,0.862145,30.24,34.12,26.43,30.17,39.21,12.49,24.75,-5.34,14.0,5.59,26.43,30.17,34.12,0,7.69,-0.03
dw_cut_4_n1_1f_opt_disp_struct_16.xyz,Nucleus 25H :,-1.360604,-1.98594,-0.362953,30.08,26.5,29.99,33.74,39.26,20.1,10.08,-5.62,9.89,16.51,26.5,29.99,33.74,0,7.24,-0.04
dw_cut_4_n1_1f_opt_disp_struct_16.xyz,Nucleus 0C :,-1.753658,-2.027756,1.960702,170.04,186.22,163.64,160.27,256.2,240.55,236.93,-68.03,-78.78,-76.73,160.27,163.64,186.22,0,25.95,-0.74
dw_cut_4_n1_1f_opt_disp_struct_16.xyz,Nucleus 3C :,-2.506487,-2.792931,1.797383,62.3,149.04,53.3,-15.45,240.03,271.84,262.46,-91.0,-218.35,-278.08,-15.45,53.3,149.04,0,164.49,-0.16
dw_cut_4_n1_1f_opt_disp_struct_16.xyz,Nucleus 4C :,-1.448346,-1.584534,3.245059,58.16,-26.17,127.2,73.45,255.05,264.59,273.23,-292.48,-131.88,-194.04,-26.17,73.45,127.2,0,153.37,0.3
dw_cut_4_n1_1f_opt_disp_struct_16.xyz,Nucleus 7C :,-1.96903,-2.010158,4.095453,37.74,136.32,-40.36,17.27,262.1,270.07,271.12,-130.56,-310.59,-248.92,-40.36,17.27,136.32,0,176.68,-0.35
dw_cut_4_n1_1f_opt_disp_struct_16.xyz,Nucleus 8C :,-0.430174,-0.648507,3.459174,60.18,162.48,21.55,-3.48,234.74,264.66,265.49,-72.28,-243.35,-268.7,-3.48,21.55,162.48,0,165.96,-0.7
dw_cut_4_n1_1f_opt_disp_struct_16.xyz,Nucleus 9C :,-0.145898,-0.359562,4.466886,11.63,-66.58,74.29,27.19,233.9,266.17,264.16,-331.76,-160.03,-237.53,-66.58,27.19,74.29,0,140.87,0.33
dw_cut_4_n1_1f_opt_disp_struct_16.xyz,Nucleus 11C :,2.482154,1.566707,0.672443,69.55,164.35,-15.96,60.27,238.79,263.79,270.03,-74.91,-280.16,-208.89,-15.96,60.27,164.35,0,180.31,-0.15
dw_cut_4_n1_1f_opt_disp_struct_16.xyz,Nucleus 13C :,0.006875,0.170933,-1.795896,51.93,172.12,41.74,-58.07,217.11,271.14,254.97,-44.99,-229.35,-313.09,-58.07,41.74,172.12,0,230.19,-0.13
dw_cut_4_n1_1f_opt_disp_struct_16.xyz,Nucleus 15C :,4.914083,-7.019248,2.746927,70.24,171.78,57.64,-18.71,242.58,271.13,263.83,-70.96,-212.11,-283.76,-18.71,57.64,171.78,0,190.49,-0.2
dw_cut_4_n1_1f_opt_disp_struct_16.xyz,Nucleus 19C :,3.835321,-5.953655,2.6635,159.42,120.81,190.35,167.1,251.7,226.45,216.42,-96.22,-55.74,-64.36,120.81,167.1,190.35,0,69.54,0.33
dw_cut_4_n1_1f_opt_disp_struct_16.xyz,Nucleus 20C :,2.925686,-6.053415,3.536464,2.55,-87.17,67.08,27.74,202.43,254.85,267.69,-135.38,-342.0,-239.94,-87.17,27.74,67.08,0,154.25,0.49
dw_cut_4_n1_1f_opt_disp_struct_16.xyz,Nucleus 5N :,3.981023,-5.095721,1.749076,119.33,57.98,168.72,131.28,298.39,336.99,329.54,-129.78,-205.52,-271.63,57.98,131.28,168.72,0,110.74,0.32
dw_cut_4_n1_1f_opt_disp_struct_16.xyz,Nucleus 21O :,4.565064,-7.910692,2.209439,-25.8,222.2,-37.49,-262.1,430.88,404.93,394.22,-183.61,-445.45,-678.36,-262.1,-37.49,222.2,0,484.3,-0.07
dw_cut_4_n1_1f_opt_disp_struct_16.xyz,Nucleus 22O :,5.8539,-6.699117,2.282243,-33.25,216.79,-269.79,-46.76,400.67,447.2,429.12,-228.94,-688.31,-459.5,-269.79,-46.76,216.79,0,486.58,-0.08
dw_cut_4_n1_1f_opt_disp_struct_16.xyz,Nucleus 10F :,5.089873,-7.315271,3.78631,302.98,396.94,223.91,288.08,486.3,467.73,460.73,-70.56,-237.09,-198.17,223.91,288.08,396.94,0,173.03,-0.26
dw_cut_4_n1_1f_opt_disp_struct_17.xyz,Nucleus 1H :,0.968697,-0.048796,-1.316757,29.23,35.16,23.6,28.94,40.26,26.91,29.06,-6.23,0.36,-2.65,23.6,28.94,35.16,0,11.56,-0.08
dw_cut_4_n1_1f_opt_disp_struct_17.xyz,Nucleus 2H :,1.717455,0.636891,-1.730257,28.42,34.52,23.79,26.94,44.65,24.24,26.46,-11.27,2.52,-1.36,23.79,26.94,34.52,0,10.73,-0.41
dw_cut_4_n1_1f_opt_disp_struct_17.xyz,Nucleus 6H :,1.24425,-1.070153,-1.616042,24.21,16.43,25.12,31.09,48.79,15.12,30.38,-18.04,1.46,-5.06,16.43,25.12,31.09,0,14.66,0.19
dw_cut_4_n1_1f_opt_disp_struct_17.xyz,Nucleus 12H :,0.894166,0.081254,0.161887,24.39,20.66,24.76,27.76,46.47,17.86,30.3,-21.62,2.89,-2.69,20.66,24.76,27.76,0,7.1,0.16
dw_cut_4_n1_1f_opt_disp_struct_17.xyz,Nucleus 14H :,1.681204,0.896116,0.952223,24.0,20.17,27.06,24.76,5.19,31.43,43.63,15.01,-4.39,-18.87,20.17,24.76,27.06,0,6.89,0.33
dw_cut_4_n1_1f_opt_disp_struct_17.xyz,Nucleus 16H :,1.299822,0.732245,2.256423,24.28,19.78,27.97,25.1,9.66,31.05,46.71,10.19,-3.11,-21.65,19.78,25.1,27.97,0,8.19,0.3
dw_cut_4_n1_1f_opt_disp_struct_17.xyz,Nucleus 17H :,1.670119,1.237253,3.038951,24.45,20.99,25.38,26.97,44.55,28.49,30.98,-19.01,-7.49,-4.17,20.99,25.38,26.97,0,5.98,0.47
dw_cut_4_n1_1f_opt_disp_struct_17.xyz,Nucleus 18H :,0.270312,-0.175535,2.34071,28.81,34.8,27.87,23.75,42.2,27.39,32.29,-0.07,-10.1,-5.29,23.75,27.87,34.8,0,11.05,-0.26
dw_cut_4_n1_1f_opt_disp_struct_17.xyz,Nucleus 23H :,-0.009343,-0.600735,1.039563,29.73,32.33,28.85,28.01,12.8,24.64,37.35,16.08,3.66,-5.35,28.01,28.85,32.33,0,4.32,-0.61
dw_cut_4_n1_1f_opt_disp_struct_17.xyz,Nucleus 24H :,-1.042849,-1.541695,0.862145,30.23,34.1,26.44,30.14,39.25,12.04,24.57,-5.41,14.48,5.76,26.44,30.14,34.1,0,7.66,-0.04
dw_cut_4_n1_1f_opt_disp_struct_17.xyz,Nucleus 25H :,-1.360604,-1.98594,-0.362953,30.07,26.51,29.98,33.71,39.21,20.02,9.6,-5.61,9.97,17.01,26.51,29.98,33.71,0,7.2,-0.04
dw_cut_4_n1_1f_opt_disp_struct_17.xyz,Nucleus 0C :,-1.753658,-2.027756,1.960702,170.06,186.21,163.68,160.28,256.22,240.42,236.88,-68.06,-78.68,-76.61,160.28,163.68,186.21,0,25.93,-0.74
dw_cut_4_n1_1f_opt_disp_struct_17.xyz,Nucleus 3C :,-2.506487,-2.792931,1.797383,62.29,149.02,53.28,-15.43,240.0,271.72,262.49,-90.99,-218.28,-278.07,-15.43,53.28,149.02,0,164.45,-0.16
dw_cut_4_n1_1f_opt_disp_struct_17.xyz,Nucleus 4C :,-1.448346,-1.584534,3.245059,58.05,-26.31,127.23,73.24,255.09,264.36,273.2,-292.54,-131.82,-194.12,-26.31,73.24,127.23,0,153.54,0.3
dw_cut_4_n1_1f_opt_disp_struct_17.xyz,Nucleus 7C :,-1.96903,-2.010158,4.095453,37.77,136.31,-40.27,17.28,262.11,270.0,270.82,-130.41,-310.35,-248.83,-40.27,17.28,136.31,0,176.58,-0.35
dw_cut_4_n1_1f_opt_disp_struct_17.xyz,Nucleus 8C :,-0.430174,-0.648507,3.459174,60.22,162.45,21.65,-3.44,234.75,264.6,265.41,-72.33,-243.2,-268.58,-3.44,21.65,162.45,0,165.89,-0.7
dw_cut_4_n1_1f_opt_disp_struct_17.xyz,Nucleus 9C :,-0.145898,-0.359562,4.466886,11.66,-66.51,74.29,27.2,233.87,266.05,264.15,-331.62,-159.96,-237.51,-66.51,27.2,74.29,0,140.8,0.33
dw_cut_4_n1_1f_opt_disp_struct_17.xyz,Nucleus 11C :,2.482154,1.566707,0.672443,69.56,164.37,-15.93,60.24,238.73,263.6,270.03,-74.76,-279.98,-208.93,-15.93,60.24,164.37,0,180.3,-0.16
dw_cut_4_n1_1f_opt_disp_struct_17.xyz,Nucleus 13C :,0.006875,0.170933,-1.795896,51.96,172.14,41.75,-58.0,217.18,271.06,254.92,-45.05,-229.26,-312.97,-58.0,41.75,172.14,0,230.14,-0.13
dw_cut_4_n1_1f_opt_disp_struct_17.xyz,Nucleus 15C :,5.079412,-7.205075,2.772119,70.24,171.8,57.6,-18.68,242.45,271.1,263.63,-70.75,-212.13,-283.56,-18.68,57.6,171.8,0,190.48,-0.2
dw_cut_4_n1_1f_opt_disp_struct_17.xyz,Nucleus 19C :,4.00065,-6.139483,2.688693,159.4,120.8,190.29,167.11,251.66,226.04,215.65,-95.47,-55.56,-64.12,120.8,167.11,190.29,0,69.49,0.33
dw_cut_4_n1_1f_opt_disp_struct_17.xyz,Nucleus 20C :,3.091015,-6.239243,3.561656,2.52,-87.28,67.1,27.73,202.35,254.73,268.12,-135.28,-342.0,-240.37,-87.28,27.73,67.1,0,154.38,0.49
dw_cut_4_n1_1f_opt_disp_struct_17.xyz,Nucleus 5N :,4.146351,-5.281548,1.774268,119.24,57.84,168.76,131.13,298.41,336.93,329.41,-129.76,-205.62,-271.65,57.84,131.13,168.76,0,110.92,0.32
dw_cut_4_n1_1f_opt_disp_struct_17.xyz,Nucleus 21O :,4.730393,-8.096519,2.234631,-25.78,222.39,-37.55,-262.18,431.44,405.78,394.23,-184.57,-445.6,-678.63,-262.18,-37.55,222.39,0,484.57,-0.07
dw_cut_4_n1_1f_opt_disp_struct_17.xyz,Nucleus 22O :,6.019229,-6.884944,2.307435,-33.34,216.97,-270.04,-46.95,400.64,448.63,429.43,-230.17,-689.1,-459.45,-270.04,-46.95,216.97,0,487.01,-0.08
dw_cut_4_n1_1f_opt_disp_struct_17.xyz,Nucleus 10F :,5.255201,-7.501098,3.811503,302.8,396.91,223.66,287.83,486.16,467.61,460.63,-70.49,-237.23,-198.27,223.66,287.83,396.91,0,173.25,-0.26
dw_cut_4_n1_1f_opt_disp_struct_18.xyz,Nucleus 1H :,0.968697,-0.048796,-1.316757,29.23,35.16,23.59,28.93,40.25,26.87,29.02,-6.21,0.38,-2.64,23.59,28.93,35.16,0,11.57,-0.08
dw_cut_4_n1_1f_opt_disp_struct_18.xyz,Nucleus 2H :,1.717455,0.636891,-1.730257,28.43,34.54,23.79,26.95,44.62,24.22,26.43,-11.22,2.56,-1.32,23.79,26.95,34.54,0,10.75,-0.41
dw_cut_4_n1_1f_opt_disp_struct_18.xyz,Nucleus 6H :,1.24425,-1.070153,-1.616042,24.2,16.41,25.11,31.08,48.72,15.1,30.35,-17.97,1.45,-5.03,16.41,25.11,31.08,0,14.67,0.19
dw_cut_4_n1_1f_opt_disp_struct_18.xyz,Nucleus 12H :,0.894166,0.081254,0.161887,24.39,20.64,24.77,27.77,46.39,17.85,30.3,-21.54,2.86,-2.69,20.64,24.77,27.77,0,7.13,0.16
dw_cut_4_n1_1f_opt_disp_struct_18.xyz,Nucleus 14H :,1.681204,0.896116,0.952223,23.99,20.15,27.07,24.76,5.21,31.38,43.62,14.97,-4.34,-18.85,20.15,24.76,27.07,0,6.92,0.33
dw_cut_4_n1_1f_opt_disp_struct_18.xyz,Nucleus 16H :,1.299822,0.732245,2.256423,24.28,19.75,27.97,25.11,9.68,31.05,46.63,10.14,-3.11,-21.57,19.75,25.11,27.97,0,8.22,0.3
dw_cut_4_n1_1f_opt_disp_struct_18.xyz,Nucleus 17H :,1.670119,1.237253,3.038951,24.44,20.97,25.37,26.97,44.51,28.46,30.94,-18.98,-7.49,-4.14,20.97,25.37,26.97,0,6.0,0.46
dw_cut_4_n1_1f_opt_disp_struct_18.xyz,Nucleus 18H :,0.270312,-0.175535,2.34071,28.8,34.79,27.86,23.75,42.16,27.35,32.24,-0.05,-10.04,-5.26,23.75,27.86,34.79,0,11.04,-0.26
dw_cut_4_n1_1f_opt_disp_struct_18.xyz,Nucleus 23H :,-0.009343,-0.600735,1.039563,29.72,32.3,28.85,28.02,12.2,24.67,37.33,16.7,3.63,-5.37,28.02,28.85,32.3,0,4.28,-0.61
dw_cut_4_n1_1f_opt_disp_struct_18.xyz,Nucleus 24H :,-1.042849,-1.541695,0.862145,30.22,34.09,26.45,30.12,39.29,11.55,24.39,-5.48,14.97,5.93,26.45,30.12,34.09,0,7.64,-0.04
dw_cut_4_n1_1f_opt_disp_struct_18.xyz,Nucleus 25H :,-1.360604,-1.98594,-0.362953,30.06,26.52,29.98,33.68,39.16,19.92,9.12,-5.6,10.06,17.51,26.52,29.98,33.68,0,7.16,-0.03
dw_cut_4_n1_1f_opt_disp_struct_18.xyz,Nucleus 0C :,-1.753658,-2.027756,1.960702,170.07,186.2,163.71,160.29,256.24,240.3,236.83,-68.09,-78.58,-76.5,160.29,163.71,186.2,0,25.91,-0.74
dw_cut_4_n1_1f_opt_disp_struct_18.xyz,Nucleus 3C :,-2.506487,-2.792931,1.797383,62.28,148.99,53.27,-15.42,239.97,271.62,262.51,-90.99,-218.21,-278.06,-15.42,53.27,148.99,0,164.41,-0.16
dw_cut_4_n1_1f_opt_disp_struct_18.xyz,Nucleus 4C :,-1.448346,-1.584534,3.245059,57.96,-26.44,127.25,73.07,255.14,264.12,273.16,-292.59,-131.76,-194.2,-26.44,73.07,127.25,0,153.69,0.29
dw_cut_4_n1_1f_opt_disp_struct_18.xyz,Nucleus 7C :,-1.96903,-2.010158,4.095453,37.8,136.3,-40.18,17.29,262.12,269.92,270.54,-130.28,-310.16,-248.74,-40.18,17.29,136.3,0,176.48,-0.35
dw_cut_4_n1_1f_opt_disp_struct_18.xyz,Nucleus 8C :,-0.430174,-0.648507,3.459174,60.25,162.42,21.73,-3.41,234.75,264.58,265.33,-72.36,-243.08,-268.48,-3.41,21.73,162.42,0,165.83,-0.7
dw_cut_4_n1_1f_opt_disp_struct_18.xyz,Nucleus 9C :,-0.145898,-0.359562,4.466886,11.68,-66.45,74.29,27.21,233.86,265.94,264.15,-159.9,-237.49,-331.5,-66.45,27.21,74.29,0,140.74,0.33
dw_cut_4_n1_1f_opt_disp_struct_18.xyz,Nucleus 11C :,2.482154,1.566707,0.672443,69.57,164.39,-15.9,60.21,238.67,263.43,270.04,-74.63,-279.82,-208.97,-15.9,60.21,164.39,0,180.29,-0.16
dw_cut_4_n1_1f_opt_disp_struct_18.xyz,Nucleus 13C :,0.006875,0.170933,-1.795896,51.99,172.16,41.75,-57.94,217.25,270.99,254.88,-45.1,-229.18,-312.87,-57.94,41.75,172.16,0,230.1,-0.13
dw_cut_4_n1_1f_opt_disp_struct_18.xyz,Nucleus 15C :,5.244741,-7.390903,2.797311,70.25,171.82,57.57,-18.65,242.31,271.06,263.45,-70.56,-212.15,-283.37,-18.65,57.57,171.82,0,190.47,-0.2
dw_cut_4_n1_1f_opt_disp_struct_18.xyz,Nucleus 19C :,4.165979,-6.32531,2.713885,159.39,120.81,190.24,167.12,251.61,225.59,214.82,-94.64,-55.33,-63.88,120.81,167.12,190.24,0,69.43,0.33
dw_cut_4_n1_1f_opt_disp_struct_18.xyz,Nucleus 20C :,3.256344,-6.42507,3.586849,2.49,-87.38,67.12,27.72,202.24,254.63,268.55,-135.15,-342.01,-240.8,-87.38,27.72,67.12,0,154.5,0.49
dw_cut_4_n1_1f_opt_disp_struct_18.xyz,Nucleus 5N :,4.31168,-5.467376,1.79946,119.17,57.72,168.79,131.0,298.44,336.87,329.29,-129.75,-205.7,-271.65,57.72,131.0,168.79,0,111.07,0.32
dw_cut_4_n1_1f_opt_disp_struct_18.xyz,Nucleus 21O :,4.895721,-8.282346,2.259823,-25.77,222.53,-37.6,-262.24,432.0,406.7,394.24,-185.67,-445.72,-678.86,-262.24,-37.6,222.53,0,484.77,-0.07
dw_cut_4_n1_1f_opt_disp_struct_18.xyz,Nucleus 22O :,6.184558,-7.070772,2.332627,-33.38,217.1,-270.15,-47.1,400.62,450.1,429.71,-231.49,-689.7,-459.38,-270.15,-47.1,217.1,0,487.25,-0.08
dw_cut_4_n1_1f_opt_disp_struct_18.xyz,Nucleus 10F :,5.42053,-7.686926,3.836695,302.65,396.89,223.44,287.61,486.02,467.51,460.53,-70.42,-237.34,-198.35,223.44,287.61,396.89,0,173.45,-0.26
dw_cut_4_n1_1f_opt_disp_struct_19.xyz,Nucleus 1H :,0.968697,-0.048796,-1.316757,29.22,35.15,23.57,28.93,40.23,26.84,28.99,-6.19,0.41,-2.62,23.57,28.93,35.15,0,11.58,-0.08
dw_cut_4_n1_1f_opt_disp_struct_19.xyz,Nucleus 2H :,1.717455,0.636891,-1.730257,28.44,34.56,23.8,26.95,44.58,24.21,26.39,-11.17,2.58,-1.28,23.8,26.95,34.56,0,10.76,-0.42
dw_cut_4_n1_1f_opt_disp_struct_19.xyz,Nucleus 6H :,1.24425,-1.070153,-1.616042,24.19,16.39,25.11,31.07,48.65,15.09,30.32,-17.91,1.44,-5.01,16.39,25.11,31.07,0,14.68,0.19
dw_cut_4_n1_1f_opt_disp_struct_19.xyz,Nucleus 12H :,0.894166,0.081254,0.161887,24.39,20.62,24.77,27.77,46.33,17.85,30.3,-21.47,2.84,-2.68,20.62,24.77,27.77,0,7.15,0.16
dw_cut_4_n1_1f_opt_disp_struct_19.xyz,Nucleus 14H :,1.681204,0.896116,0.952223,23.99,20.13,27.07,24.77,5.23,31.34,43.6,14.93,-4.29,-18.83,20.13,24.77,27.07,0,6.94,0.34
dw_cut_4_n1_1f_opt_disp_struct_19.xyz,Nucleus 16H :,1.299822,0.732245,2.256423,24.27,19.73,27.97,25.11,9.7,31.05,46.56,10.1,-3.1,-21.49,19.73,25.11,27.97,0,8.24,0.31
dw_cut_4_n1_1f_opt_disp_struct_19.xyz,Nucleus 17H :,1.670119,1.237253,3.038951,24.43,20.95,25.37,26.97,44.48,28.44,30.9,-18.95,-7.49,-4.1,20.95,25.37,26.97,0,6.02,0.47
dw_cut_4_n1_1f_opt_disp_struct_19.xyz,Nucleus 18H :,0.270312,-0.175535,2.34071,28.79,34.78,27.86,23.74,42.13,27.31,32.19,-0.03,-9.99,-5.23,23.74,27.86,34.78,0,11.04,-0.25
dw_cut_4_n1_1f_opt_disp_struct_19.xyz,Nucleus 23H :,-0.009343,-0.600735,1.039563,29.71,32.28,28.84,28.02,11.6,24.7,37.32,17.32,3.61,-5.39,28.02,28.84,32.28,0,4.26,-0.61
dw_cut_4_n1_1f_opt_disp_struct_19.xyz,Nucleus 24H :,-1.042849,-1.541695,0.862145,30.21,34.07,26.46,30.09,39.33,11.07,24.2,-5.55,15.47,6.1,26.46,30.09,34.07,0,7.61,-0.05
dw_cut_4_n1_1f_opt_disp_struct_19.xyz,Nucleus 25H :,-1.360604,-1.98594,-0.362953,30.05,26.52,29.97,33.66,39.12,19.83,8.62,-5.59,10.16,18.02,26.52,29.97,33.66,0,7.14,-0.03
dw_cut_4_n1_1f_opt_disp_struct_19.xyz,Nucleus 0C :,-1.753658,-2.027756,1.960702,170.08,186.19,163.74,160.3,256.26,240.19,236.79,-68.11,-78.49,-76.4,160.3,163.74,186.19,0,25.89,-0.73
dw_cut_4_n1_1f_opt_disp_struct_19.xyz,Nucleus 3C :,-2.506487,-2.792931,1.797383,62.27,148.98,53.25,-15.41,239.95,271.53,262.52,-90.99,-218.15,-278.05,-15.41,53.25,148.98,0,164.39,-0.16
dw_cut_4_n1_1f_opt_disp_struct_19.xyz,Nucleus 4C :,-1.448346,-1.584534,3.245059,57.88,-26.55,127.27,72.91,255.2,263.89,273.13,-292.62,-131.71,-194.25,-26.55,72.91,127.27,0,153.82,0.29
dw_cut_4_n1_1f_opt_disp_struct_19.xyz,Nucleus 7C :,-1.96903,-2.010158,4.095453,37.83,136.3,-40.11,17.29,262.14,269.83,270.31,-130.16,-309.99,-248.65,-40.11,17.29,136.3,0,176.41,-0.35
dw_cut_4_n1_1f_opt_disp_struct_19.xyz,Nucleus 8C :,-0.430174,-0.648507,3.459174,60.27,162.4,21.8,-3.39,234.76,264.58,265.26,-72.4,-242.98,-268.4,-3.39,21.8,162.4,0,165.79,-0.7
dw_cut_4_n1_1f_opt_disp_struct_19.xyz,Nucleus 9C :,-0.145898,-0.359562,4.466886,11.7,-66.4,74.29,27.22,233.85,265.85,264.16,-159.86,-237.48,-331.4,-66.4,27.22,74.29,0,140.69,0.33
dw_cut_4_n1_1f_opt_disp_struct_19.xyz,Nucleus 11C :,2.482154,1.566707,0.672443,69.57,164.4,-15.87,60.19,238.61,263.28,270.04,-74.52,-279.68,-209.01,-15.87,60.19,164.4,0,180.27,-0.16
dw_cut_4_n1_1f_opt_disp_struct_19.xyz,Nucleus 13C :,0.006875,0.170933,-1.795896,52.01,172.17,41.75,-57.88,217.3,270.93,254.84,-45.15,-229.11,-312.77,-57.88,41.75,172.17,0,230.05,-0.13
dw_cut_4_n1_1f_opt_disp_struct_19.xyz,Nucleus 15C :,5.410069,-7.57673,2.822503,70.25,171.84,57.54,-18.63,242.18,271.03,263.3,-70.39,-212.16,-283.2,-18.63,57.54,171.84,0,190.47,-0.2
dw_cut_4_n1_1f_opt_disp_struct_19.xyz,Nucleus 19C :,4.331307,-6.511137,2.739077,159.38,120.82,190.19,167.12,251.58,225.11,213.95,-93.77,-55.08,-63.66,120.82,167.12,190.19,0,69.37,0.33
dw_cut_4_n1_1f_opt_disp_struct_19.xyz,Nucleus 20C :,3.421672,-6.610897,3.612041,2.46,-87.48,67.14,27.72,202.11,254.54,268.98,-135.0,-342.02,-241.23,-87.48,27.72,67.14,0,154.62,0.49
dw_cut_4_n1_1f_opt_disp_struct_19.xyz,Nucleus 5N :,4.477009,-5.653203,1.824653,119.1,57.61,168.82,130.88,298.47,336.81,329.18,-129.75,-205.76,-271.65,57.61,130.88,168.82,0,111.21,0.32
dw_cut_4_n1_1f_opt_disp_struct_19.xyz,Nucleus 21O :,5.06105,-8.468174,2.285015,-25.76,222.62,-37.63,-262.27,432.57,407.62,394.25,-186.83,-445.82,-679.08,-262.27,-37.63,222.62,0,484.89,-0.07
dw_cut_4_n1_1f_opt_disp_struct_19.xyz,Nucleus 22O :,6.349886,-7.256599,2.35782,-33.39,217.19,-270.17,-47.2,400.59,451.58,429.99,-232.87,-690.18,-459.3,-270.17,-47.2,217.19,0,487.36,-0.09
dw_cut_4_n1_1f_opt_disp_struct_19.xyz,Nucleus 10F :,5.585859,-7.872753,3.861887,302.51,396.87,223.25,287.42,485.9,467.41,460.45,-70.36,-237.44,-198.42,223.25,287.42,396.87,0,173.62,-0.26
dw_cut_4_n1_1f_opt_disp_struct_2.xyz,Nucleus 1H :,0.968697,-0.048796,-1.316757,29.47,35.38,23.9,29.12,40.46,26.96,28.86,1.31,-6.32,-2.87,23.9,29.12,35.38,0,11.48,-0.09
dw_cut_4_n1_1f_opt_disp_struct_2.xyz,Nucleus 2H :,1.717455,0.636891,-1.730257,28.34,33.92,23.93,27.18,44.45,23.21,27.35,-12.01,2.82,-0.79,23.93,27.18,33.92,0,9.99,-0.35
dw_cut_4_n1_1f_opt_disp_struct_2.xyz,Nucleus 6H :,1.24425,-1.070153,-1.616042,24.87,17.11,25.57,31.93,48.58,16.43,31.54,-17.29,1.14,-5.78,17.11,25.57,31.93,0,14.82,0.14
dw_cut_4_n1_1f_opt_disp_struct_2.xyz,Nucleus 12H :,0.894166,0.081254,0.161887,24.9,21.43,25.43,27.85,48.0,18.1,32.54,-22.95,3.82,-4.8,21.43,25.43,27.85,0,6.42,0.25
dw_cut_4_n1_1f_opt_disp_struct_2.xyz,Nucleus 14H :,1.681204,0.896116,0.952223,24.03,21.04,26.51,24.53,3.92,36.44,43.29,17.22,-9.98,-18.8,21.04,24.53,26.51,0,5.47,0.27
dw_cut_4_n1_1f_opt_disp_struct_2.xyz,Nucleus 16H :,1.299822,0.732245,2.256423,24.73,20.54,28.03,25.61,9.58,33.61,48.3,11.29,-5.61,-22.99,20.54,25.61,28.03,0,7.49,0.35
dw_cut_4_n1_1f_opt_disp_struct_2.xyz,Nucleus 17H :,1.670119,1.237253,3.038951,24.91,21.65,26.01,27.07,45.02,29.11,31.47,-18.99,-7.67,-4.2,21.65,26.01,27.07,0,5.42,0.61
dw_cut_4_n1_1f_opt_disp_struct_2.xyz,Nucleus 18H :,0.270312,-0.175535,2.34071,28.82,34.93,27.85,23.68,42.05,27.14,32.62,-10.67,0.11,-4.79,23.68,27.85,34.93,0,11.25,-0.26
dw_cut_4_n1_1f_opt_disp_struct_2.xyz,Nucleus 23H :,-0.009343,-0.600735,1.039563,30.05,33.75,28.61,27.78,38.12,20.1,21.56,-4.63,8.45,6.53,27.78,28.61,33.75,0,5.97,-0.72
dw_cut_4_n1_1f_opt_disp_struct_2.xyz,Nucleus 24H :,-1.042849,-1.541695,0.862145,30.59,35.0,25.99,30.78,38.64,14.82,27.56,-3.77,11.22,3.3,25.99,30.78,35.0,0,9.01,0.06
dw_cut_4_n1_1f_opt_disp_struct_2.xyz,Nucleus 25H :,-1.360604,-1.98594,-0.362953,30.41,35.0,30.0,26.22,40.59,19.78,16.41,-5.67,9.63,10.49,26.22,30.0,35.0,0,8.78,-0.14
dw_cut_4_n1_1f_opt_disp_struct_2.xyz,Nucleus 0C :,-1.753658,-2.027756,1.960702,169.16,186.34,161.79,159.36,254.67,240.3,237.0,-79.78,-78.4,-66.3,159.36,161.79,186.34,0,26.98,-0.82
dw_cut_4_n1_1f_opt_disp_struct_2.xyz,Nucleus 3C :,-2.506487,-2.792931,1.797383,61.35,149.73,51.99,-17.67,241.29,261.74,274.99,-91.96,-220.75,-281.25,-17.67,51.99,149.73,0,167.4,-0.17
dw_cut_4_n1_1f_opt_disp_struct_2.xyz,Nucleus 4C :,-1.448346,-1.584534,3.245059,63.34,-18.66,126.04,82.64,255.46,274.16,265.64,-285.92,-133.59,-185.74,-18.66,82.64,126.04,0,144.7,0.4
dw_cut_4_n1_1f_opt_disp_struct_2.xyz,Nucleus 7C :,-1.96903,-2.010158,4.095453,37.45,136.53,-42.4,18.23,259.9,279.25,273.83,-138.26,-315.4,-246.96,-42.4,18.23,136.53,0,178.93,-0.32
dw_cut_4_n1_1f_opt_disp_struct_2.xyz,Nucleus 8C :,-0.430174,-0.648507,3.459174,52.66,163.63,9.15,-14.8,233.76,263.83,261.54,-70.44,-254.59,-276.13,-14.8,9.15,163.63,0,178.43,-0.73
dw_cut_4_n1_1f_opt_disp_struct_2.xyz,Nucleus 9C :,-0.145898,-0.359562,4.466886,11.07,-67.32,26.01,74.53,236.09,263.49,267.59,-161.87,-237.36,-334.72,-67.32,26.01,74.53,0,141.85,0.32
dw_cut_4_n1_1f_opt_disp_struct_2.xyz,Nucleus 11C :,2.482154,1.566707,0.672443,70.34,162.99,-15.46,63.49,241.3,266.34,274.45,-80.07,-283.99,-207.0,-15.46,63.49,162.99,0,178.45,-0.12
dw_cut_4_n1_1f_opt_disp_struct_2.xyz,Nucleus 13C :,0.006875,0.170933,-1.795896,48.53,171.18,39.35,-64.94,214.79,253.95,276.2,-44.24,-236.7,-318.42,-64.94,39.35,171.18,0,236.12,-0.12
dw_cut_4_n1_1f_opt_disp_struct_2.xyz,Nucleus 15C :,2.599483,-4.417665,2.394235,71.17,170.35,60.83,-17.67,242.58,273.73,267.92,-74.03,-211.35,-285.36,-17.67,60.83,170.35,0,188.02,-0.16
dw_cut_4_n1_1f_opt_disp_struct_2.xyz,Nucleus 19C :,1.520721,-3.352073,2.310809,159.48,120.53,192.67,165.23,254.54,227.05,220.54,-100.23,-55.06,-68.41,120.53,165.23,192.67,0,72.14,0.24
dw_cut_4_n1_1f_opt_disp_struct_2.xyz,Nucleus 20C :,0.611086,-3.451833,3.183773,4.32,-81.54,72.96,21.55,199.77,257.05,265.6,-126.9,-343.05,-239.5,-81.54,21.55,72.96,0,154.5,0.33
dw_cut_4_n1_1f_opt_disp_struct_2.xyz,Nucleus 5N :,1.666422,-2.494138,1.396384,125.48,68.31,167.05,141.09,299.79,337.56,329.64,-132.99,-196.23,-261.34,68.31,141.09,167.05,0,98.74,0.47
dw_cut_4_n1_1f_opt_disp_struct_2.xyz,Nucleus 21O :,2.250463,-5.309109,1.856747,-58.7,201.08,-54.94,-322.24,397.96,415.63,423.66,-218.03,-455.62,-739.71,-322.24,-54.94,201.08,0,523.32,0.02
dw_cut_4_n1_1f_opt_disp_struct_2.xyz,Nucleus 22O :,3.5393,-4.097534,1.929552,-52.92,203.65,-307.12,-55.3,399.21,418.74,431.95,-215.12,-720.88,-472.68,-307.12,-55.3,203.65,0,510.77,-0.01
dw_cut_4_n1_1f_opt_disp_struct_2.xyz,Nucleus 10F :,2.775272,-4.713688,3.433619,314.48,397.89,243.85,301.69,460.95,471.77,489.31,-73.71,-217.44,-187.45,243.85,301.69,397.89,0,154.04,-0.25
dw_cut_4_n1_1f_opt_disp_struct_3.xyz,Nucleus 1H :,0.968697,-0.048796,-1.316757,29.46,35.39,23.87,29.11,40.59,27.31,29.09,-6.61,0.85,-2.86,23.87,29.11,35.39,0,11.52,-0.09
dw_cut_4_n1_1f_opt_disp_struct_3.xyz,Nucleus 2H :,1.717455,0.636891,-1.730257,28.34,33.96,23.89,27.17,44.81,23.91,27.29,-12.3,2.31,-1.0,23.89,27.17,33.96,0,10.07,-0.35
dw_cut_4_n1_1f_opt_disp_struct_3.xyz,Nucleus 6H :,1.24425,-1.070153,-1.616042,24.74,17.01,25.47,31.75,49.03,16.3,31.32,-17.93,1.2,-5.69,17.01,25.47,31.75,0,14.74,0.15
dw_cut_4_n1_1f_opt_disp_struct_3.xyz,Nucleus 12H :,0.894166,0.081254,0.161887,24.78,21.36,25.21,27.77,48.21,17.7,32.24,-23.24,4.05,-4.61,21.36,25.21,27.77,0,6.41,0.2
dw_cut_4_n1_1f_opt_disp_struct_3.xyz,Nucleus 14H :,1.681204,0.896116,0.952223,24.08,20.93,26.65,24.66,3.38,34.98,43.66,17.63,-8.37,-19.04,20.93,24.66,26.65,0,5.72,0.3
dw_cut_4_n1_1f_opt_disp_struct_3.xyz,Nucleus 16H :,1.299822,0.732245,2.256423,24.61,20.45,27.95,25.42,9.14,32.84,48.54,11.56,-4.92,-23.33,20.45,25.42,27.95,0,7.5,0.32
dw_cut_4_n1_1f_opt_disp_struct_3.xyz,Nucleus 17H :,1.670119,1.237253,3.038951,24.84,21.57,25.91,27.03,45.11,29.21,31.63,-19.18,-7.72,-4.54,21.57,25.91,27.03,0,5.46,0.59
dw_cut_4_n1_1f_opt_disp_struct_3.xyz,Nucleus 18H :,0.270312,-0.175535,2.34071,28.86,34.95,27.89,23.73,42.39,27.52,33.0,-0.17,-10.99,-5.18,23.73,27.89,34.95,0,11.22,-0.26
dw_cut_4_n1_1f_opt_disp_struct_3.xyz,Nucleus 23H :,-0.009343,-0.600735,1.039563,29.99,33.56,28.66,27.75,38.0,19.35,21.63,-4.68,9.26,6.42,27.75,28.66,33.56,0,5.81,-0.69
dw_cut_4_n1_1f_opt_disp_struct_3.xyz,Nucleus 24H :,-1.042849,-1.541695,0.862145,30.54,34.87,26.05,30.7,38.5,14.63,27.08,-3.79,11.47,3.73,26.05,30.7,34.87,0,8.82,0.05
dw_cut_4_n1_1f_opt_disp_struct_3.xyz,Nucleus 25H :,-1.360604,-1.98594,-0.362953,30.37,34.83,29.99,26.28,40.39,19.58,15.54,-5.62,10.28,10.94,26.28,29.99,34.83,0,8.55,-0.13
dw_cut_4_n1_1f_opt_disp_struct_3.xyz,Nucleus 0C :,-1.753658,-2.027756,1.960702,169.31,186.42,162.03,159.49,255.12,241.2,237.34,-66.41,-80.21,-79.1,159.49,162.03,186.42,0,26.93,-0.81
dw_cut_4_n1_1f_opt_disp_struct_3.xyz,Nucleus 3C :,-2.506487,-2.792931,1.797383,61.46,149.65,52.14,-17.4,241.79,262.13,276.25,-92.41,-221.94,-281.43,-17.4,52.14,149.65,0,167.05,-0.17
dw_cut_4_n1_1f_opt_disp_struct_3.xyz,Nucleus 4C :,-1.448346,-1.584534,3.245059,62.54,-19.93,126.24,81.32,256.52,264.86,274.54,-287.16,-133.52,-187.61,-19.93,81.32,126.24,0,146.17,0.39
dw_cut_4_n1_1f_opt_disp_struct_3.xyz,Nucleus 7C :,-1.96903,-2.010158,4.095453,36.85,136.52,-43.23,17.26,260.44,280.59,274.42,-138.73,-317.24,-248.92,-43.23,17.26,136.52,0,179.75,-0.33
dw_cut_4_n1_1f_opt_disp_struct_3.xyz,Nucleus 8C :,-0.430174,-0.648507,3.459174,54.94,163.49,12.58,-11.26,233.93,266.57,263.5,-70.69,-253.87,-274.63,-11.26,12.58,163.49,0,174.75,-0.73
dw_cut_4_n1_1f_opt_disp_struct_3.xyz,Nucleus 9C :,-0.145898,-0.359562,4.466886,10.5,-68.57,74.26,25.82,236.8,265.23,268.72,-162.85,-239.2,-337.2,-68.57,25.82,74.26,0,142.83,0.32
dw_cut_4_n1_1f_opt_disp_struct_3.xyz,Nucleus 11C :,2.482154,1.566707,0.672443,69.93,163.26,-16.07,62.6,240.32,267.87,274.01,-78.91,-285.17,-208.34,-16.07,62.6,163.26,0,179.33,-0.12
dw_cut_4_n1_1f_opt_disp_struct_3.xyz,Nucleus 13C :,0.006875,0.170933,-1.795896,49.2,171.37,39.6,-63.38,212.52,255.55,275.21,-42.17,-235.49,-318.03,-63.38,39.6,171.37,0,234.75,-0.12
dw_cut_4_n1_1f_opt_disp_struct_3.xyz,Nucleus 15C :,2.764811,-4.603493,2.419428,70.62,170.6,59.9,-18.63,242.49,273.69,268.91,-73.88,-211.87,-287.47,-18.63,59.9,170.6,0,189.23,-0.17
dw_cut_4_n1_1f_opt_disp_struct_3.xyz,Nucleus 19C :,1.686049,-3.5379,2.336001,159.61,120.73,192.33,165.77,254.05,225.69,219.14,-98.6,-54.23,-67.23,120.73,165.77,192.33,0,71.6,0.26
dw_cut_4_n1_1f_opt_disp_struct_3.xyz,Nucleus 20C :,0.776414,-3.63766,3.208965,3.58,-82.25,69.89,23.09,201.34,256.99,264.86,-131.5,-342.79,-238.18,-82.25,23.09,69.89,0,152.14,0.38
dw_cut_4_n1_1f_opt_disp_struct_3.xyz,Nucleus 5N :,1.831751,-2.679966,1.421577,124.2,66.01,167.33,139.27,299.41,337.93,330.0,-132.41,-198.35,-263.96,66.01,139.27,167.33,0,101.32,0.45
dw_cut_4_n1_1f_opt_disp_struct_3.xyz,Nucleus 21O :,2.415792,-5.494936,1.881939,-43.41,210.39,-49.29,-291.33,398.23,408.86,420.34,-200.82,-450.73,-706.1,-291.33,-49.29,210.39,0,501.72,-0.04
dw_cut_4_n1_1f_opt_disp_struct_3.xyz,Nucleus 22O :,3.704628,-4.283362,1.954744,-38.95,213.04,-281.99,-47.91,398.53,417.93,429.01,-204.97,-690.85,-466.52,-281.99,-47.91,213.04,0,495.03,-0.05
dw_cut_4_n1_1f_opt_disp_struct_3.xyz,Nucleus 10F :,2.940601,-4.899516,3.458811,311.56,397.75,238.28,298.65,461.44,471.66,489.05,-73.81,-223.56,-190.1,238.28,298.65,397.75,0,159.47,-0.24
dw_cut_4_n1_1f_opt_disp_struct_4.xyz,Nucleus 1H :,0.968697,-0.048796,-1.316757,29.45,35.38,23.86,29.1,40.65,27.5,29.22,-6.75,0.55,-2.84,23.86,29.1,35.38,0,11.52,-0.09
dw_cut_4_n1_1f_opt_disp_struct_4.xyz,Nucleus 2H :,1.717455,0.636891,-1.730257,28.33,34.0,23.86,27.14,45.02,24.3,27.24,-12.4,2.07,-1.23,23.86,27.14,34.0,0,10.14,-0.35
dw_cut_4_n1_1f_opt_disp_struct_4.xyz,Nucleus 6H :,1.24425,-1.070153,-1.616042,24.65,16.93,25.4,31.61,49.29,16.11,31.15,-18.33,1.34,-5.62,16.93,25.4,31.61,0,14.68,0.15
dw_cut_4_n1_1f_opt_disp_struct_4.xyz,Nucleus 12H :,0.894166,0.081254,0.161887,24.69,21.29,25.05,27.74,48.24,17.55,31.89,-23.33,4.04,-4.3,21.29,25.05,27.74,0,6.45,0.17
dw_cut_4_n1_1f_opt_disp_struct_4.xyz,Nucleus 14H :,1.681204,0.896116,0.952223,24.09,20.83,26.75,24.7,3.25,33.96,43.86,17.63,-7.24,-19.18,20.83,24.7,26.75,0,5.92,0.31
dw_cut_4_n1_1f_opt_disp_struct_4.xyz,Nucleus 16H :,1.299822,0.732245,2.256423,24.53,20.37,27.92,25.29,8.9,32.25,48.58,11.67,-4.36,-23.46,20.37,25.29,27.92,0,7.55,0.3
dw_cut_4_n1_1f_opt_disp_struct_4.xyz,Nucleus 17H :,1.670119,1.237253,3.038951,24.78,21.5,25.83,27.01,45.17,29.2,31.65,-19.32,-7.68,-4.68,21.5,25.83,27.01,0,5.51,0.57
dw_cut_4_n1_1f_opt_disp_struct_4.xyz,Nucleus 18H :,0.270312,-0.175535,2.34071,28.88,34.96,27.91,23.76,42.6,27.73,33.2,-0.32,-11.13,-5.45,23.76,27.91,34.96,0,11.2,-0.26
dw_cut_4_n1_1f_opt_disp_struct_4.xyz,Nucleus 23H :,-0.009343,-0.600735,1.039563,29.95,33.39,28.71,27.75,37.85,18.73,21.8,-4.7,9.92,6.23,27.75,28.71,33.39,0,5.64,-0.66
dw_cut_4_n1_1f_opt_disp_struct_4.xyz,Nucleus 24H :,-1.042849,-1.541695,0.862145,30.5,34.75,26.1,30.64,38.41,14.44,26.67,-3.83,11.7,4.09,26.1,30.64,34.75,0,8.65,0.05
dw_cut_4_n1_1f_opt_disp_struct_4.xyz,Nucleus 25H :,-1.360604,-1.98594,-0.362953,30.33,34.68,29.99,26.31,40.19,19.52,14.88,-5.56,10.43,11.52,26.31,29.99,34.68,0,8.37,-0.12
dw_cut_4_n1_1f_opt_disp_struct_4.xyz,Nucleus 0C :,-1.753658,-2.027756,1.960702,169.45,186.44,162.28,159.64,255.41,241.76,237.47,-66.59,-80.37,-79.32,159.64,162.28,186.44,0,26.8,-0.8
dw_cut_4_n1_1f_opt_disp_struct_4.xyz,Nucleus 3C :,-2.506487,-2.792931,1.797383,61.68,149.59,52.47,-17.02,242.1,262.44,276.81,-92.68,-222.42,-281.22,-17.02,52.47,149.59,0,166.61,-0.17
dw_cut_4_n1_1f_opt_disp_struct_4.xyz,Nucleus 4C :,-1.448346,-1.584534,3.245059,61.88,-20.93,126.41,80.16,257.15,264.29,274.65,-288.1,-133.37,-188.98,-20.93,80.16,126.41,0,147.34,0.37
dw_cut_4_n1_1f_opt_disp_struct_4.xyz,Nucleus 7C :,-1.96903,-2.010158,4.095453,36.73,136.53,-43.25,16.91,260.79,274.52,280.5,-138.22,-317.54,-249.85,-43.25,16.91,136.53,0,179.78,-0.33
dw_cut_4_n1_1f_opt_disp_struct_4.xyz,Nucleus 8C :,-0.430174,-0.648507,3.459174,56.56,163.35,15.07,-8.75,234.07,268.22,264.59,-70.95,-252.88,-273.38,-8.75,15.07,163.35,0,172.1,-0.72
dw_cut_4_n1_1f_opt_disp_struct_4.xyz,Nucleus 9C :,-0.145898,-0.359562,4.466886,10.45,-68.79,74.21,25.92,237.17,265.82,269.07,-163.15,-239.83,-337.74,-68.79,25.92,74.21,0,143.0,0.32
dw_cut_4_n1_1f_opt_disp_struct_4.xyz,Nucleus 11C :,2.482154,1.566707,0.672443,69.74,163.47,-16.32,62.08,240.04,268.43,273.28,-78.22,-285.4,-208.9,-16.32,62.08,163.47,0,179.79,-0.13
dw_cut_4_n1_1f_opt_disp_struct_4.xyz,Nucleus 13C :,0.006875,0.170933,-1.795896,49.86,171.52,40.11,-62.05,211.68,256.43,274.6,-41.33,-234.38,-317.42,-62.05,40.11,171.52,0,233.57,-0.13
dw_cut_4_n1_1f_opt_disp_struct_4.xyz,Nucleus 15C :,2.93014,-4.78932,2.44462,70.4,170.82,59.4,-19.02,242.95,273.32,269.07,-73.87,-211.99,-288.27,-19.02,59.4,170.82,0,189.84,-0.17
dw_cut_4_n1_1f_opt_disp_struct_4.xyz,Nucleus 19C :,1.851378,-3.723727,2.361193,159.65,120.87,192.01,166.08,253.6,224.61,217.98,-97.29,-53.55,-66.39,120.87,166.08,192.01,0,71.14,0.27
dw_cut_4_n1_1f_opt_disp_struct_4.xyz,Nucleus 20C :,0.941743,-3.823487,3.234157,3.18,-83.09,68.32,24.32,202.94,257.23,264.46,-134.65,-342.73,-237.7,-83.09,24.32,68.32,0,151.41,0.42
dw_cut_4_n1_1f_opt_disp_struct_4.xyz,Nucleus 5N :,1.997079,-2.865793,1.446769,123.23,64.32,167.56,137.82,298.94,338.2,330.14,-131.85,-200.0,-265.73,64.32,137.82,167.56,0,103.24,0.42
dw_cut_4_n1_1f_opt_disp_struct_4.xyz,Nucleus 21O :,2.581121,-5.680764,1.907132,-34.9,214.85,-44.09,-275.46,419.71,404.93,397.95,-191.87,-446.5,-688.92,-275.46,-44.09,214.85,0,490.31,-0.06
dw_cut_4_n1_1f_opt_disp_struct_4.xyz,Nucleus 22O :,3.869957,-4.469189,1.979936,-32.22,216.77,-270.48,-42.95,398.62,419.28,427.58,-202.79,-677.84,-461.5,-270.48,-42.95,216.77,0,487.25,-0.07
dw_cut_4_n1_1f_opt_disp_struct_4.xyz,Nucleus 10F :,3.105929,-5.085343,3.484004,309.72,397.64,234.87,296.65,461.67,471.34,488.7,-73.62,-227.22,-191.7,234.87,296.65,397.64,0,162.77,-0.24
dw_cut_4_n1_1f_opt_disp_struct_5.xyz,Nucleus 1H :,0.968697,-0.048796,-1.316757,29.43,35.36,23.84,29.08,40.67,27.57,29.27,-6.79,0.38,-2.82,23.84,29.08,35.36,0,11.52,-0.09
dw_cut_4_n1_1f_opt_disp_struct_5.xyz,Nucleus 2H :,1.717455,0.636891,-1.730257,28.33,34.04,23.84,27.1,45.09,24.48,27.2,-12.38,1.99,-1.4,23.84,27.1,34.04,0,10.2,-0.36
dw_cut_4_n1_1f_opt_disp_struct_5.xyz,Nucleus 6H :,1.24425,-1.070153,-1.616042,24.57,16.88,25.35,31.49,49.43,15.89,31.03,-18.55,1.49,-5.56,16.88,25.35,31.49,0,14.61,0.16
dw_cut_4_n1_1f_opt_disp_struct_5.xyz,Nucleus 12H :,0.894166,0.081254,0.161887,24.63,21.22,24.94,27.72,48.14,17.55,31.54,-23.28,3.88,-3.96,21.22,24.94,27.72,0,6.5,0.14
dw_cut_4_n1_1f_opt_disp_struct_5.xyz,Nucleus 14H :,1.681204,0.896116,0.952223,24.09,20.74,26.82,24.72,3.44,33.29,43.94,17.35,-6.5,-19.23,20.74,24.72,26.82,0,6.08,0.31
dw_cut_4_n1_1f_opt_disp_struct_5.xyz,Nucleus 16H :,1.299822,0.732245,2.256423,24.47,20.31,27.9,25.21,8.83,31.84,48.47,11.64,-3.96,-23.4,20.31,25.21,27.9,0,7.59,0.29
dw_cut_4_n1_1f_opt_disp_struct_5.xyz,Nucleus 17H :,1.670119,1.237253,3.038951,24.73,21.44,25.75,26.99,45.18,29.12,31.59,-19.4,-7.61,-4.71,21.44,25.75,26.99,0,5.55,0.55
dw_cut_4_n1_1f_opt_disp_struct_5.xyz,Nucleus 18H :,0.270312,-0.175535,2.34071,28.88,34.95,27.92,23.77,42.7,27.84,33.24,-0.4,-11.14,-5.6,23.77,27.92,34.95,0,11.18,-0.26
dw_cut_4_n1_1f_opt_disp_struct_5.xyz,Nucleus 23H :,-0.009343,-0.600735,1.039563,29.92,33.24,28.75,27.77,37.71,18.17,22.02,-4.7,10.53,6.02,27.77,28.75,33.24,0,5.47,-0.64
dw_cut_4_n1_1f_opt_disp_struct_5.xyz,Nucleus 24H :,-1.042849,-1.541695,0.862145,30.46,34.64,26.15,30.59,38.38,14.28,26.32,-3.91,11.91,4.4,26.15,30.59,34.64,0,8.49,0.05
dw_cut_4_n1_1f_opt_disp_struct_5.xyz,Nucleus 25H :,-1.360604,-1.98594,-0.362953,30.29,34.54,30.0,26.34,40.0,19.53,14.32,-5.5,10.43,12.09,26.34,30.0,34.54,0,8.2,-0.11
dw_cut_4_n1_1f_opt_disp_struct_5.xyz,Nucleus 0C :,-1.753658,-2.027756,1.960702,169.57,186.44,162.5,159.76,255.59,242.05,237.52,-66.82,-80.41,-79.22,159.76,162.5,186.44,0,26.68,-0.79
dw_cut_4_n1_1f_opt_disp_struct_5.xyz,Nucleus 3C :,-2.506487,-2.792931,1.797383,61.88,149.52,52.78,-16.67,242.07,262.62,276.67,-92.64,-222.35,-280.73,-16.67,52.78,149.52,0,166.19,-0.16
dw_cut_4_n1_1f_opt_disp_struct_5.xyz,Nucleus 4C :,-1.448346,-1.584534,3.245059,61.29,-21.79,126.54,79.13,257.37,264.01,274.57,-288.88,-133.19,-190.0,-21.79,79.13,126.54,0,148.33,0.36
dw_cut_4_n1_1f_opt_disp_struct_5.xyz,Nucleus 7C :,-1.96903,-2.010158,4.095453,36.79,136.51,-42.97,16.84,261.33,274.22,279.21,-137.24,-317.16,-249.97,-42.97,16.84,136.51,0,179.48,-0.33
dw_cut_4_n1_1f_opt_disp_struct_5.xyz,Nucleus 8C :,-0.430174,-0.648507,3.459174,57.67,163.25,16.81,-7.06,234.05,268.92,265.23,-71.03,-251.75,-272.42,-7.06,16.81,163.25,0,170.31,-0.72
dw_cut_4_n1_1f_opt_disp_struct_5.xyz,Nucleus 9C :,-0.145898,-0.359562,4.466886,10.59,-68.59,74.21,26.14,237.18,265.82,269.0,-163.07,-239.8,-337.36,-68.59,26.14,74.21,0,142.8,0.33
dw_cut_4_n1_1f_opt_disp_struct_5.xyz,Nucleus 11C :,2.482154,1.566707,0.672443,69.65,163.63,-16.41,61.72,240.07,268.35,272.49,-77.82,-285.1,-209.05,-16.41,61.72,163.63,0,180.04,-0.13
dw_cut_4_n1_1f_opt_disp_struct_5.xyz,Nucleus 13C :,0.006875,0.170933,-1.795896,50.39,171.61,40.6,-61.03,212.07,256.68,274.18,-41.51,-233.49,-316.75,-61.03,40.6,171.61,0,232.64,-0.13
dw_cut_4_n1_1f_opt_disp_struct_5.xyz,Nucleus 15C :,3.095469,-4.975147,2.469812,70.31,170.99,59.09,-19.15,243.61,272.65,268.76,-73.88,-211.97,-288.23,-19.15,59.09,170.99,0,190.14,-0.18
dw_cut_4_n1_1f_opt_disp_struct_5.xyz,Nucleus 19C :,2.016706,-3.909555,2.386386,159.65,120.95,191.73,166.28,253.2,223.75,216.93,-96.15,-53.0,-65.76,120.95,166.28,191.73,0,70.78,0.28
dw_cut_4_n1_1f_opt_disp_struct_5.xyz,Nucleus 20C :,1.107071,-4.009315,3.259349,3.01,-83.85,67.61,25.27,203.88,257.42,264.44,-136.3,-342.72,-237.69,-83.85,25.27,67.61,0,151.46,0.44
dw_cut_4_n1_1f_opt_disp_struct_5.xyz,Nucleus 5N :,2.162408,-3.05162,1.471961,122.47,63.04,167.74,136.64,298.66,338.35,330.21,-131.48,-201.28,-267.04,63.04,136.64,167.74,0,104.7,0.41
dw_cut_4_n1_1f_opt_disp_struct_5.xyz,Nucleus 21O :,2.746449,-5.866591,1.932324,-30.3,216.96,-40.49,-267.36,420.33,403.9,397.41,-188.41,-444.0,-680.12,-267.36,-40.49,216.96,0,484.32,-0.06
dw_cut_4_n1_1f_opt_disp_struct_5.xyz,Nucleus 22O :,4.035286,-4.655016,2.005128,-29.56,217.75,-265.61,-40.82,398.96,421.6,427.14,-204.48,-673.14,-458.78,-265.61,-40.82,217.75,0,483.36,-0.07
dw_cut_4_n1_1f_opt_disp_struct_5.xyz,Nucleus 10F :,3.271258,-5.27117,3.509196,308.46,397.58,232.6,295.19,461.76,470.93,488.32,-73.25,-229.6,-192.81,232.6,295.19,397.58,0,164.98,-0.24
dw_cut_4_n1_1f_opt_disp_struct_6.xyz,Nucleus 1H :,0.968697,-0.048796,-1.316757,29.41,35.33,23.83,29.07,40.65,27.57,29.28,-6.76,0.27,-2.79,23.83,29.07,35.33,0,11.5,-0.09
dw_cut_4_n1_1f_opt_disp_struct_6.xyz,Nucleus 2H :,1.717455,0.636891,-1.730257,28.32,34.09,23.83,27.05,45.1,24.55,27.15,-12.29,1.99,-1.52,23.83,27.05,34.09,0,10.26,-0.37
dw_cut_4_n1_1f_opt_disp_struct_6.xyz,Nucleus 6H :,1.24425,-1.070153,-1.616042,24.51,16.82,25.32,31.39,49.5,15.71,30.92,-18.67,1.58,-5.49,16.82,25.32,31.39,0,14.57,0.17
dw_cut_4_n1_1f_opt_disp_struct_6.xyz,Nucleus 12H :,0.894166,0.081254,0.161887,24.58,21.14,24.87,27.72,47.99,17.62,31.24,-23.15,3.68,-3.65,21.14,24.87,27.72,0,6.58,0.13
dw_cut_4_n1_1f_opt_disp_struct_6.xyz,Nucleus 14H :,1.681204,0.896116,0.952223,24.08,20.64,26.87,24.73,3.75,32.84,43.95,16.93,-6.0,-19.24,20.64,24.73,26.87,0,6.23,0.31
dw_cut_4_n1_1f_opt_disp_struct_6.xyz,Nucleus 16H :,1.299822,0.732245,2.256423,24.43,20.24,27.9,25.15,8.86,31.54,48.29,11.52,-3.67,-23.24,20.24,25.15,27.9,0,7.66,0.28
dw_cut_4_n1_1f_opt_disp_struct_6.xyz,Nucleus 17H :,1.670119,1.237253,3.038951,24.69,21.39,25.68,26.99,45.16,29.02,31.51,-19.42,-7.54,-4.67,21.39,25.68,26.99,0,5.6,0.53
dw_cut_4_n1_1f_opt_disp_struct_6.xyz,Nucleus 18H :,0.270312,-0.175535,2.34071,28.88,34.94,27.92,23.78,42.72,27.88,33.19,-0.43,-11.06,-5.65,23.78,27.92,34.94,0,11.16,-0.26
dw_cut_4_n1_1f_opt_disp_struct_6.xyz,Nucleus 23H :,-0.009343,-0.600735,1.039563,29.89,33.11,28.77,27.8,37.6,17.62,22.27,-4.73,11.11,5.8,27.8,28.77,33.11,0,5.31,-0.63
dw_cut_4_n1_1f_opt_disp_struct_6.xyz,Nucleus 24H :,-1.042849,-1.541695,0.862145,30.42,34.55,26.18,30.54,38.39,14.13,26.03,-4.02,12.1,4.65,26.18,30.54,34.55,0,8.37,0.04
dw_cut_4_n1_1f_opt_disp_struct_6.xyz,Nucleus 25H :,-1.360604,-1.98594,-0.362953,30.26,34.42,30.0,26.37,39.83,19.59,13.79,-5.46,10.39,12.65,26.37,30.0,34.42,0,8.05,-0.1
dw_cut_4_n1_1f_opt_disp_struct_6.xyz,Nucleus 0C :,-1.753658,-2.027756,1.960702,169.66,186.42,162.7,159.87,255.7,242.15,237.52,-67.05,-80.38,-78.95,159.87,162.7,186.42,0,26.55,-0.79
dw_cut_4_n1_1f_opt_disp_struct_6.xyz,Nucleus 3C :,-2.506487,-2.792931,1.797383,62.04,149.48,53.0,-16.37,241.78,262.67,276.1,-92.36,-221.95,-280.12,-16.37,53.0,149.48,0,165.85,-0.16
dw_cut_4_n1_1f_opt_disp_struct_6.xyz,Nucleus 4C :,-1.448346,-1.584534,3.245059,60.75,-22.56,126.62,78.19,257.28,264.01,274.38,-289.57,-133.03,-190.82,-22.56,78.19,126.62,0,149.18,0.35
dw_cut_4_n1_1f_opt_disp_struct_6.xyz,Nucleus 7C :,-1.96903,-2.010158,4.095453,36.92,136.48,-42.61,16.88,261.93,273.5,277.69,-136.11,-316.55,-249.72,-42.61,16.88,136.48,0,179.09,-0.34
dw_cut_4_n1_1f_opt_disp_struct_6.xyz,Nucleus 8C :,-0.430174,-0.648507,3.459174,58.42,163.15,18.03,-5.93,234.03,268.99,265.54,-71.09,-250.53,-271.7,-5.93,18.03,163.15,0,169.08,-0.72
dw_cut_4_n1_1f_opt_disp_struct_6.xyz,Nucleus 9C :,-0.145898,-0.359562,4.466886,10.75,-68.31,74.22,26.35,236.88,268.76,265.63,-162.77,-239.54,-336.69,-68.31,26.35,74.22,0,142.53,0.33
dw_cut_4_n1_1f_opt_disp_struct_6.xyz,Nucleus 11C :,2.482154,1.566707,0.672443,69.6,163.78,-16.41,61.44,240.13,267.92,271.82,-77.49,-284.54,-209.03,-16.41,61.44,163.78,0,180.19,-0.14
dw_cut_4_n1_1f_opt_disp_struct_6.xyz,Nucleus 13C :,0.006875,0.170933,-1.795896,50.81,171.74,40.98,-60.28,213.0,256.6,273.83,-42.11,-232.76,-316.12,-60.28,40.98,171.74,0,232.02,-0.13
dw_cut_4_n1_1f_opt_disp_struct_6.xyz,Nucleus 15C :,3.260797,-5.160975,2.495004,70.28,171.14,58.85,-19.16,244.06,271.99,268.25,-73.76,-211.94,-287.76,-19.16,58.85,171.14,0,190.3,-0.18
dw_cut_4_n1_1f_opt_disp_struct_6.xyz,Nucleus 19C :,2.182035,-4.095382,2.411578,159.62,120.97,191.52,166.37,252.86,223.21,216.07,-95.28,-52.68,-65.32,120.97,166.37,191.52,0,70.55,0.29
dw_cut_4_n1_1f_opt_disp_struct_6.xyz,Nucleus 20C :,1.2724,-4.195142,3.284542,2.97,-84.46,67.4,25.97,204.31,257.4,264.69,-136.94,-342.68,-237.88,-84.46,25.97,67.4,0,151.86,0.45
dw_cut_4_n1_1f_opt_disp_struct_6.xyz,Nucleus 5N :,2.327737,-3.237448,1.497153,121.82,61.98,167.89,135.59,298.55,338.36,330.25,-131.25,-202.31,-268.15,61.98,135.59,167.89,0,105.91,0.39
dw_cut_4_n1_1f_opt_disp_struct_6.xyz,Nucleus 21O :,2.911778,-6.052418,1.957516,-27.92,217.98,-38.43,-263.31,421.44,404.22,396.96,-187.65,-442.98,-675.74,-263.31,-38.43,217.98,0,481.29,-0.07
dw_cut_4_n1_1f_opt_disp_struct_6.xyz,Nucleus 22O :,4.200614,-4.840844,2.030321,-28.87,217.42,-263.6,-40.44,399.32,423.65,427.75,-207.78,-671.86,-457.7,-263.6,-40.44,217.42,0,481.02,-0.07
dw_cut_4_n1_1f_opt_disp_struct_6.xyz,Nucleus 10F :,3.436586,-5.456998,3.534388,307.46,397.49,230.9,293.98,461.78,470.52,487.99,-72.84,-231.32,-193.76,230.9,293.98,397.49,0,166.59,-0.24
dw_cut_4_n1_1f_opt_disp_struct_7.xyz,Nucleus 1H :,0.968697,-0.048796,-1.316757,29.39,35.31,23.81,29.06,40.62,27.54,29.27,-6.7,0.22,-2.77,23.81,29.06,35.31,0,11.5,-0.09
dw_cut_4_n1_1f_opt_disp_struct_7.xyz,Nucleus 2H :,1.717455,0.636891,-1.730257,28.33,34.14,23.83,27.02,45.07,24.57,27.1,-12.17,2.01,-1.6,23.83,27.02,34.14,0,10.31,-0.38
dw_cut_4_n1_1f_opt_disp_struct_7.xyz,Nucleus 6H :,1.24425,-1.070153,-1.616042,24.46,16.77,25.28,31.32,49.51,15.56,30.82,-18.71,1.62,-5.42,16.77,25.28,31.32,0,14.55,0.17
dw_cut_4_n1_1f_opt_disp_struct_7.xyz,Nucleus 12H :,0.894166,0.081254,0.161887,24.54,21.08,24.82,27.72,47.81,17.69,31.0,-22.99,3.51,-3.4,21.08,24.82,27.72,0,6.64,0.13
dw_cut_4_n1_1f_opt_disp_struct_7.xyz,Nucleus 14H :,1.681204,0.896116,0.952223,24.07,20.57,26.91,24.72,4.09,32.53,43.93,16.53,-5.65,-19.22,20.57,24.72,26.91,0,6.34,0.31
dw_cut_4_n1_1f_opt_disp_struct_7.xyz,Nucleus 16H :,1.299822,0.732245,2.256423,24.4,20.18,27.9,25.12,8.94,31.34,48.08,11.36,-3.47,-23.05,20.18,25.12,27.9,0,7.72,0.28
dw_cut_4_n1_1f_opt_disp_struct_7.xyz,Nucleus 17H :,1.670119,1.237253,3.038951,24.65,21.34,25.62,26.99,45.11,28.93,31.43,-19.41,-7.5,-4.61,21.34,25.62,26.99,0,5.65,0.52
dw_cut_4_n1_1f_opt_disp_struct_7.xyz,Nucleus 18H :,0.270312,-0.175535,2.34071,28.88,34.92,27.92,23.79,42.7,27.88,33.1,-0.43,-10.95,-5.65,23.79,27.92,34.92,0,11.13,-0.26
dw_cut_4_n1_1f_opt_disp_struct_7.xyz,Nucleus 23H :,-0.009343,-0.600735,1.039563,29.87,32.99,28.79,27.83,37.53,17.1,22.53,11.65,5.57,-4.77,27.83,28.79,32.99,0,5.16,-0.63
dw_cut_4_n1_1f_opt_disp_struct_7.xyz,Nucleus 24H :,-1.042849,-1.541695,0.862145,30.39,34.47,26.22,30.49,38.45,14.01,25.82,-4.16,12.25,4.82,26.22,30.49,34.47,0,8.25,0.04
dw_cut_4_n1_1f_opt_disp_struct_7.xyz,Nucleus 25H :,-1.360604,-1.98594,-0.362953,30.24,34.31,30.01,26.39,39.7,19.67,13.32,-5.44,10.3,13.14,26.39,30.01,34.31,0,7.92,-0.09
dw_cut_4_n1_1f_opt_disp_struct_7.xyz,Nucleus 0C :,-1.753658,-2.027756,1.960702,169.74,186.39,162.87,159.95,255.77,242.13,237.5,-67.25,-80.3,-78.63,159.95,162.87,186.39,0,26.44,-0.78
dw_cut_4_n1_1f_opt_disp_struct_7.xyz,Nucleus 3C :,-2.506487,-2.792931,1.797383,62.14,149.42,53.16,-16.15,241.4,275.33,262.64,-92.03,-221.36,-279.55,-16.15,53.16,149.42,0,165.57,-0.16
dw_cut_4_n1_1f_opt_disp_struct_7.xyz,Nucleus 4C :,-1.448346,-1.584534,3.245059,60.3,-23.21,126.72,77.38,256.97,264.21,274.15,-290.14,-132.83,-191.48,-23.21,77.38,126.72,0,149.93,0.34
dw_cut_4_n1_1f_opt_disp_struct_7.xyz,Nucleus 7C :,-1.96903,-2.010158,4.095453,37.05,136.46,-42.24,16.94,262.43,272.44,276.53,-135.0,-315.82,-249.44,-42.24,16.94,136.46,0,178.7,-0.34
dw_cut_4_n1_1f_opt_disp_struct_7.xyz,Nucleus 8C :,-0.430174,-0.648507,3.459174,58.91,163.05,18.89,-5.2,234.05,268.71,265.73,-71.18,-249.35,-271.21,-5.2,18.89,163.05,0,168.25,-0.71
dw_cut_4_n1_1f_opt_disp_struct_7.xyz,Nucleus 9C :,-0.145898,-0.359562,4.466886,10.93,-68.0,74.25,26.54,236.38,268.44,265.41,-162.35,-239.19,-335.91,-68.0,26.54,74.25,0,142.25,0.33
dw_cut_4_n1_1f_opt_disp_struct_7.xyz,Nucleus 11C :,2.482154,1.566707,0.672443,69.56,163.88,-16.39,61.2,240.05,267.38,271.31,-77.18,-283.91,-208.96,-16.39,61.2,163.88,0,180.27,-0.14
dw_cut_4_n1_1f_opt_disp_struct_7.xyz,Nucleus 13C :,0.006875,0.170933,-1.795896,51.1,171.79,41.24,-59.74,214.1,256.3,273.47,-42.88,-232.15,-315.54,-59.74,41.24,171.79,0,231.53,-0.13
dw_cut_4_n1_1f_opt_disp_struct_7.xyz,Nucleus 15C :,3.426126,-5.346802,2.520197,70.25,171.26,58.63,-19.14,244.13,271.56,267.67,-73.51,-211.92,-287.18,-19.14,58.63,171.26,0,190.4,-0.18
dw_cut_4_n1_1f_opt_disp_struct_7.xyz,Nucleus 19C :,2.347364,-4.281209,2.43677,159.58,120.99,191.31,166.45,252.57,223.16,215.58,-94.79,-52.73,-65.05,120.99,166.45,191.31,0,70.32,0.29
dw_cut_4_n1_1f_opt_disp_struct_7.xyz,Nucleus 20C :,1.437729,-4.380969,3.309734,2.94,-84.99,67.33,26.49,204.41,257.19,265.03,-137.11,-342.63,-238.06,-84.99,26.49,67.33,0,152.32,0.46
dw_cut_4_n1_1f_opt_disp_struct_7.xyz,Nucleus 5N :,2.493065,-3.423275,1.522346,121.33,61.18,168.03,134.77,298.53,338.25,330.28,-131.05,-203.03,-269.0,61.18,134.77,168.03,0,106.85,0.38
dw_cut_4_n1_1f_opt_disp_struct_7.xyz,Nucleus 21O :,3.077106,-6.238246,1.982708,-26.69,218.5,-37.3,-261.28,422.71,404.88,396.61,-187.84,-442.72,-673.72,-261.28,-37.3,218.5,0,479.78,-0.07
dw_cut_4_n1_1f_opt_disp_struct_7.xyz,Nucleus 22O :,4.365943,-5.026671,2.055513,-29.09,216.83,-263.1,-41.0,399.6,429.7,424.66,-211.37,-672.24,-457.61,-263.1,-41.0,216.83,0,479.93,-0.07
dw_cut_4_n1_1f_opt_disp_struct_7.xyz,Nucleus 10F :,3.601915,-5.642825,3.55958,306.65,397.42,229.59,292.94,487.74,470.11,461.75,-72.41,-232.63,-194.61,229.59,292.94,397.42,0,167.83,-0.25
dw_cut_4_n1_1f_opt_disp_struct_8.xyz,Nucleus 1H :,0.968697,-0.048796,-1.316757,29.37,35.28,23.78,29.04,40.57,27.48,29.26,-6.64,0.2,-2.76,23.78,29.04,35.28,0,11.5,-0.09
dw_cut_4_n1_1f_opt_disp_struct_8.xyz,Nucleus 2H :,1.717455,0.636891,-1.730257,28.33,34.19,23.82,26.99,45.03,24.55,27.03,-12.05,2.06,-1.63,23.82,26.99,34.19,0,10.37,-0.39
dw_cut_4_n1_1f_opt_disp_struct_8.xyz,Nucleus 6H :,1.24425,-1.070153,-1.616042,24.41,16.72,25.25,31.27,49.49,15.46,30.74,-18.7,1.62,-5.36,16.72,25.25,31.27,0,14.55,0.17
dw_cut_4_n1_1f_opt_disp_struct_8.xyz,Nucleus 12H :,0.894166,0.081254,0.161887,24.51,21.02,24.79,27.72,47.62,17.75,30.81,-22.81,3.36,-3.21,21.02,24.79,27.72,0,6.7,0.13
dw_cut_4_n1_1f_opt_disp_struct_8.xyz,Nucleus 14H :,1.681204,0.896116,0.952223,24.06,20.51,26.94,24.72,4.35,32.31,43.89,16.19,-5.4,-19.18,20.51,24.72,26.94,0,6.43,0.31
dw_cut_4_n1_1f_opt_disp_struct_8.xyz,Nucleus 16H :,1.299822,0.732245,2.256423,24.38,20.13,27.91,25.09,9.04,31.21,47.86,11.2,-3.33,-22.85,20.13,25.09,27.91,0,7.78,0.27
dw_cut_4_n1_1f_opt_disp_struct_8.xyz,Nucleus 17H :,1.670119,1.237253,3.038951,24.62,21.29,25.57,26.99,45.05,28.85,31.36,-19.38,-7.49,-4.56,21.29,25.57,26.99,0,5.7,0.5
dw_cut_4_n1_1f_opt_disp_struct_8.xyz,Nucleus 18H :,0.270312,-0.175535,2.34071,28.87,34.91,27.92,23.79,42.65,27.84,32.99,-0.4,-10.83,-5.62,23.79,27.92,34.91,0,11.12,-0.26
dw_cut_4_n1_1f_opt_disp_struct_8.xyz,Nucleus 23H :,-0.009343,-0.600735,1.039563,29.85,32.88,28.81,27.86,37.49,16.66,22.82,12.11,5.31,-4.85,27.86,28.81,32.88,0,5.02,-0.62
dw_cut_4_n1_1f_opt_disp_struct_8.xyz,Nucleus 24H :,-1.042849,-1.541695,0.862145,30.37,34.41,26.26,30.45,38.54,13.95,25.68,-4.32,12.35,4.91,26.26,30.45,34.41,0,8.15,0.03
dw_cut_4_n1_1f_opt_disp_struct_8.xyz,Nucleus 25H :,-1.360604,-1.98594,-0.362953,30.21,34.21,30.01,26.41,39.62,19.8,12.92,-5.45,10.18,13.56,26.41,30.01,34.21,0,7.8,-0.08
dw_cut_4_n1_1f_opt_disp_struct_8.xyz,Nucleus 0C :,-1.753658,-2.027756,1.960702,169.8,186.37,163.01,160.02,255.83,242.02,237.45,-67.42,-80.15,-78.33,160.02,163.01,186.37,0,26.35,-0.77
dw_cut_4_n1_1f_opt_disp_struct_8.xyz,Nucleus 3C :,-2.506487,-2.792931,1.797383,62.22,149.36,53.26,-15.97,241.03,274.55,262.56,-91.72,-220.71,-279.06,-15.97,53.26,149.36,0,165.33,-0.16
dw_cut_4_n1_1f_opt_disp_struct_8.xyz,Nucleus 4C :,-1.448346,-1.584534,3.245059,59.9,-23.76,126.8,76.67,256.55,264.52,273.93,-290.62,-132.66,-192.02,-23.76,76.67,126.8,0,150.56,0.33
dw_cut_4_n1_1f_opt_disp_struct_8.xyz,Nucleus 7C :,-1.96903,-2.010158,4.095453,37.18,136.44,-41.91,17.0,262.7,271.5,275.64,-134.02,-315.05,-249.24,-41.91,17.0,136.44,0,178.35,-0.34
dw_cut_4_n1_1f_opt_disp_struct_8.xyz,Nucleus 8C :,-0.430174,-0.648507,3.459174,59.27,162.96,19.53,-4.68,234.15,268.13,265.78,-71.34,-248.16,-270.75,-4.68,19.53,162.96,0,167.64,-0.71
dw_cut_4_n1_1f_opt_disp_struct_8.xyz,Nucleus 9C :,-0.145898,-0.359562,4.466886,11.08,-67.72,74.26,26.7,235.85,268.09,265.21,-335.16,-161.92,-238.83,-67.72,26.7,74.26,0,141.98,0.33
dw_cut_4_n1_1f_opt_disp_struct_8.xyz,Nucleus 11C :,2.482154,1.566707,0.672443,69.55,163.97,-16.33,61.01,239.92,266.8,270.93,-76.88,-283.26,-208.87,-16.33,61.01,163.97,0,180.3,-0.14
dw_cut_4_n1_1f_opt_disp_struct_8.xyz,Nucleus 13C :,0.006875,0.170933,-1.795896,51.3,171.84,41.41,-59.36,214.96,256.04,273.09,-43.5,-231.61,-315.09,-59.36,41.41,171.84,0,231.2,-0.13
dw_cut_4_n1_1f_opt_disp_struct_8.xyz,Nucleus 15C :,3.591454,-5.532629,2.545389,70.24,171.36,58.45,-19.09,243.97,271.37,267.03,-73.18,-211.9,-286.56,-19.09,58.45,171.36,0,190.45,-0.19
dw_cut_4_n1_1f_opt_disp_struct_8.xyz,Nucleus 19C :,2.512692,-4.467037,2.461962,159.55,121.0,191.14,166.52,252.35,223.62,215.58,-94.8,-53.14,-64.94,121.0,166.52,191.14,0,70.14,0.3
dw_cut_4_n1_1f_opt_disp_struct_8.xyz,Nucleus 20C :,1.603057,-4.566797,3.334926,2.92,-85.42,67.31,26.88,204.25,256.9,265.33,-136.96,-342.56,-238.18,-85.42,26.88,67.31,0,152.73,0.47
dw_cut_4_n1_1f_opt_disp_struct_8.xyz,Nucleus 5N :,2.658394,-3.609102,1.547538,120.92,60.54,168.15,134.08,298.54,338.05,330.28,-130.86,-203.55,-269.7,60.54,134.08,168.15,0,107.61,0.37
dw_cut_4_n1_1f_opt_disp_struct_8.xyz,Nucleus 21O :,3.242435,-6.424073,2.007901,-26.13,218.87,-36.83,-260.43,423.97,405.26,396.28,-187.83,-442.9,-673.17,-260.43,-36.83,218.87,0,479.3,-0.07
dw_cut_4_n1_1f_opt_disp_struct_8.xyz,Nucleus 22O :,4.531271,-5.212498,2.080705,-29.65,216.21,-263.27,-41.88,399.83,432.5,425.17,-215.13,-673.38,-457.94,-263.27,-41.88,216.21,0,479.48,-0.08
dw_cut_4_n1_1f_opt_disp_struct_8.xyz,Nucleus 10F :,3.767244,-5.828652,3.584773,305.96,397.34,228.49,292.04,487.54,469.72,461.68,-72.04,-233.66,-195.38,228.49,292.04,397.34,0,168.85,-0.25
dw_cut_4_n1_1f_opt_disp_struct_9.xyz,Nucleus 1H :,0.968697,-0.048796,-1.316757,29.35,35.26,23.76,29.03,40.52,27.41,29.24,-6.57,0.2,-2.74,23.76,29.03,35.26,0,11.5,-0.08
dw_cut_4_n1_1f_opt_disp_struct_9.xyz,Nucleus 2H :,1.717455,0.636891,-1.730257,28.34,34.24,23.81,26.96,44.99,24.52,26.95,-11.94,2.12,-1.62,23.81,26.96,34.24,0,10.43,-0.4
dw_cut_4_n1_1f_opt_disp_struct_9.xyz,Nucleus 6H :,1.24425,-1.070153,-1.616042,24.38,16.68,25.22,31.23,49.43,15.38,30.67,-18.65,1.6,-5.3,16.68,25.22,31.23,0,14.55,0.17
dw_cut_4_n1_1f_opt_disp_struct_9.xyz,Nucleus 12H :,0.894166,0.081254,0.161887,24.49,20.96,24.77,27.73,47.44,17.8,30.67,-22.63,3.25,-3.07,20.96,24.77,27.73,0,6.77,0.12
dw_cut_4_n1_1f_opt_disp_struct_9.xyz,Nucleus 14H :,1.681204,0.896116,0.952223,24.04,20.45,26.96,24.72,4.58,32.13,43.85,15.91,-5.19,-19.14,20.45,24.72,26.96,0,6.51,0.31
dw_cut_4_n1_1f_opt_disp_struct_9.xyz,Nucleus 16H :,1.299822,0.732245,2.256423,24.36,20.07,27.92,25.08,9.15,31.12,47.67,11.03,-3.23,-22.65,20.07,25.08,27.92,0,7.85,0.28
dw_cut_4_n1_1f_opt_disp_struct_9.xyz,Nucleus 17H :,1.670119,1.237253,3.038951,24.59,21.25,25.53,26.98,44.98,28.79,31.3,-19.33,-7.49,-4.5,21.25,25.53,26.98,0,5.73,0.49
dw_cut_4_n1_1f_opt_disp_struct_9.xyz,Nucleus 18H :,0.270312,-0.175535,2.34071,28.87,34.89,27.92,23.79,42.59,27.79,32.89,-0.36,-10.72,-5.58,23.79,27.92,34.89,0,11.1,-0.26
dw_cut_4_n1_1f_opt_disp_struct_9.xyz,Nucleus 23H :,-0.009343,-0.600735,1.039563,29.83,32.79,28.81,27.88,37.47,16.3,23.13,12.48,5.03,-4.93,27.88,28.81,32.79,0,4.91,-0.62
dw_cut_4_n1_1f_opt_disp_struct_9.xyz,Nucleus 24H :,-1.042849,-1.541695,0.862145,30.35,34.35,26.29,30.4,38.65,13.95,25.6,-4.49,12.39,4.95,26.29,30.4,34.35,0,8.06,0.02
dw_cut_4_n1_1f_opt_disp_struct_9.xyz,Nucleus 25H :,-1.360604,-1.98594,-0.362953,30.18,34.12,30.01,26.42,39.56,19.94,12.6,-5.49,10.05,13.9,26.42,30.01,34.12,0,7.7,-0.07
dw_cut_4_n1_1f_opt_disp_struct_9.xyz,Nucleus 0C :,-1.753658,-2.027756,1.960702,169.85,186.34,163.14,160.08,255.89,241.85,237.38,-67.55,-79.96,-78.04,160.08,163.14,186.34,0,26.26,-0.77
dw_cut_4_n1_1f_opt_disp_struct_9.xyz,Nucleus 3C :,-2.506487,-2.792931,1.797383,62.26,149.3,53.32,-15.84,240.74,273.85,262.48,-91.48,-220.1,-278.7,-15.84,53.32,149.3,0,165.14,-0.16
dw_cut_4_n1_1f_opt_disp_struct_9.xyz,Nucleus 4C :,-1.448346,-1.584534,3.245059,59.55,-24.25,126.87,76.04,256.11,264.81,273.74,-291.03,-132.5,-192.46,-24.25,76.04,126.87,0,151.12,0.33
dw_cut_4_n1_1f_opt_disp_struct_9.xyz,Nucleus 7C :,-1.96903,-2.010158,4.095453,37.29,136.42,-41.61,17.05,262.76,270.86,274.83,-133.19,-314.26,-249.14,-41.61,17.05,136.42,0,178.03,-0.34
dw_cut_4_n1_1f_opt_disp_struct_9.xyz,Nucleus 8C :,-0.430174,-0.648507,3.459174,59.51,162.87,20.0,-4.34,234.26,267.43,265.8,-71.5,-247.08,-270.37,-4.34,20.0,162.87,0,167.21,-0.71
dw_cut_4_n1_1f_opt_disp_struct_9.xyz,Nucleus 9C :,-0.145898,-0.359562,4.466886,11.2,-67.49,74.27,26.82,235.33,267.74,265.01,-334.46,-161.5,-238.51,-67.49,26.82,74.27,0,141.76,0.33
dw_cut_4_n1_1f_opt_disp_struct_9.xyz,Nucleus 11C :,2.482154,1.566707,0.672443,69.54,164.05,-16.28,60.85,239.73,266.24,270.66,-76.55,-282.65,-208.8,-16.28,60.85,164.05,0,180.33,-0.14
dw_cut_4_n1_1f_opt_disp_struct_9.xyz,Nucleus 13C :,0.006875,0.170933,-1.795896,51.46,171.89,41.54,-59.05,215.63,272.69,255.76,-43.95,-231.09,-314.66,-59.05,41.54,171.89,0,230.94,-0.13
dw_cut_4_n1_1f_opt_disp_struct_9.xyz,Nucleus 15C :,3.756783,-5.718457,2.570581,70.24,171.44,58.29,-19.02,243.7,271.31,266.42,-72.82,-211.9,-286.0,-19.02,58.29,171.44,0,190.46,-0.19
dw_cut_4_n1_1f_opt_disp_struct_9.xyz,Nucleus 19C :,2.678021,-4.652864,2.487155,159.54,121.01,190.99,166.61,252.18,224.43,216.03,-95.28,-53.8,-64.94,121.01,166.61,190.99,0,69.98,0.3
dw_cut_4_n1_1f_opt_disp_struct_9.xyz,Nucleus 20C :,1.768386,-4.752624,3.360118,2.9,-85.78,67.3,27.17,203.89,256.56,265.56,-136.61,-342.46,-238.25,-85.78,27.17,67.3,0,153.08,0.48
dw_cut_4_n1_1f_opt_disp_struct_9.xyz,Nucleus 5N :,2.823723,-3.79493,1.57273,120.59,60.0,168.26,133.5,298.53,337.83,330.28,-130.66,-203.96,-270.26,60.0,133.5,168.26,0,108.26,0.36
dw_cut_4_n1_1f_opt_disp_struct_9.xyz,Nucleus 21O :,3.407764,-6.6099,2.033093,-25.94,219.18,-36.71,-260.3,425.16,405.03,395.91,-187.1,-443.28,-673.56,-260.3,-36.71,219.18,0,479.48,-0.07
dw_cut_4_n1_1f_opt_disp_struct_9.xyz,Nucleus 22O :,4.6966,-5.398326,2.105897,-30.28,215.69,-263.76,-42.78,400.06,435.33,425.64,-218.56,-675.01,-458.33,-263.76,-42.78,215.69,0,479.45,-0.08
dw_cut_4_n1_1f_opt_disp_struct_9.xyz,Nucleus 10F :,3.932572,-6.01448,3.609965,305.36,397.27,227.56,291.25,487.39,469.36,461.58,-71.71,-234.49,-196.05,227.56,291.25,397.27,0,169.71,-0.25
dw_cut_4_n1_2f_opt.xyz,Nucleus 1H :,0.97576,-0.03651,-1.323256,29.38,35.04,24.13,28.98,39.76,25.17,27.42,3.0,-4.88,-2.32,24.13,28.98,35.04,0,10.91,-0.11
dw_cut_4_n1_2f_opt.xyz,Nucleus 2H :,1.726361,0.651921,-1.727964,28.25,34.03,24.01,26.7,42.06,20.65,27.61,-9.41,4.73,-0.9,24.01,26.7,34.03,0,10.02,-0.46
dw_cut_4_n1_2f_opt.xyz,Nucleus 6H :,1.252572,-1.055742,-1.627744,25.68,16.91,27.0,33.13,13.11,32.8,46.39,4.26,-14.1,-5.42,16.91,27.0,33.13,0,16.22,0.24
dw_cut_4_n1_2f_opt.xyz,Nucleus 12H :,0.895893,0.08325,0.156237,25.95,21.65,27.74,28.45,46.4,20.99,32.27,-19.89,1.91,-3.84,21.65,27.74,28.45,0,6.8,0.79
dw_cut_4_n1_2f_opt.xyz,Nucleus 14H :,1.680246,0.892085,0.957022,23.96,25.66,22.47,23.76,9.66,43.53,41.55,12.84,-18.65,-17.03,22.47,23.76,25.66,0,3.19,-0.19
dw_cut_4_n1_2f_opt.xyz,Nucleus 17H :,1.293815,0.719171,2.259203,25.3,22.02,26.6,27.27,44.78,27.17,29.75,-18.23,-5.4,-2.18,22.02,26.6,27.27,0,5.25,0.74
dw_cut_4_n1_2f_opt.xyz,Nucleus 18H :,1.67575,1.194397,3.054495,28.46,34.7,27.42,23.26,40.72,25.42,30.32,-8.88,1.32,-3.52,23.26,27.42,34.7,0,11.44,-0.27
dw_cut_4_n1_2f_opt.xyz,Nucleus 23H :,0.265102,-0.187976,2.326963,30.18,34.44,28.77,27.34,38.58,23.52,21.36,7.28,4.17,-4.37,27.34,28.77,34.44,0,7.1,-0.6
dw_cut_4_n1_2f_opt.xyz,Nucleus 24H :,-0.011825,-0.605534,1.023692,30.45,24.86,35.47,31.03,15.77,39.37,28.93,-4.06,9.22,2.13,24.86,31.03,35.47,0,10.61,0.16
dw_cut_4_n1_2f_opt.xyz,Nucleus 25H :,-1.046842,-1.546103,0.839813,30.16,34.96,29.71,25.82,40.44,21.19,20.39,-5.59,8.97,5.08,25.82,29.71,34.96,0,9.14,-0.15
dw_cut_4_n1_2f_opt.xyz,Nucleus 0C :,-1.361366,-1.98316,-0.388182,169.26,185.54,162.47,159.77,252.66,233.89,236.49,-66.38,-73.18,-75.69,159.77,162.47,185.54,0,25.77,-0.79
dw_cut_4_n1_2f_opt.xyz,Nucleus 3C :,-1.7624,-2.039097,1.935664,69.39,151.57,64.94,-8.34,239.97,262.68,271.41,-89.94,-204.27,-271.69,-8.34,64.94,151.57,0,159.91,-0.08
dw_cut_4_n1_2f_opt.xyz,Nucleus 4C :,-2.515117,-2.803272,1.772608,67.4,-9.23,124.43,87.01,250.11,271.27,264.96,-274.15,-131.67,-178.31,-9.23,87.01,124.43,0,133.66,0.44
dw_cut_4_n1_2f_opt.xyz,Nucleus 7C :,-1.460012,-1.603201,3.223667,65.66,138.98,48.57,9.42,257.86,269.68,264.73,-122.54,-254.7,-218.05,9.42,48.57,138.98,0,129.56,-0.4
dw_cut_4_n1_2f_opt.xyz,Nucleus 8C :,-1.972282,-2.01577,4.084675,53.31,158.08,14.62,-12.78,229.04,254.97,240.69,-74.93,-229.29,-260.55,-12.78,14.62,158.08,0,170.86,-0.68
dw_cut_4_n1_2f_opt.xyz,Nucleus 9C :,-0.442696,-0.672189,3.42899,31.07,-36.46,34.79,94.88,230.34,256.5,261.19,-296.0,-214.49,-144.31,-36.46,34.79,94.88,0,131.34,0.08
dw_cut_4_n1_2f_opt.xyz,Nucleus 11C :,-0.155016,-0.253606,4.667938,78.92,-1.84,158.8,79.81,246.02,256.81,272.66,-87.49,-264.98,-186.26,-1.84,79.81,158.8,0,160.64,0.02
dw_cut_4_n1_2f_opt.xyz,Nucleus 13C :,2.484357,1.562545,0.68712,70.77,160.98,66.93,-15.6,232.13,282.15,257.33,-73.82,-213.78,-271.7,-15.6,66.93,160.98,0,176.58,-0.07
dw_cut_4_n1_2f_opt.xyz,Nucleus 15C :,0.016001,0.186902,-1.804456,31.11,84.64,31.0,-22.3,228.4,268.49,257.78,-146.04,-237.34,-277.94,-22.3,31.0,84.64,0,106.94,-0.0
dw_cut_4_n1_2f_opt.xyz,Nucleus 19C :,2.109601,-3.861038,2.309219,157.24,120.87,193.8,157.05,256.6,230.07,227.84,-107.08,-57.99,-77.72,120.87,157.05,193.8,0,72.93,-0.01
dw_cut_4_n1_2f_opt.xyz,Nucleus 20C :,1.028321,-2.797821,2.228113,10.07,-94.84,108.88,16.18,207.49,262.18,269.85,-99.24,-361.21,-248.85,-94.84,16.18,108.88,0,203.72,0.09
dw_cut_4_n1_2f_opt.xyz,Nucleus 5N :,0.117313,-2.903421,3.098956,143.36,88.66,183.24,158.17,291.98,337.75,324.27,-108.78,-236.14,-179.01,88.66,158.17,183.24,0,94.58,0.47
dw_cut_4_n1_2f_opt.xyz,Nucleus 21O :,1.17357,-1.935801,1.317466,-164.02,-575.65,-67.34,150.94,440.48,401.17,419.01,-1013.69,-471.17,-267.85,-575.65,-67.34,150.94,0,726.59,0.4
dw_cut_4_n1_2f_opt.xyz,Nucleus 22O :,1.694661,-4.811196,1.949708,-177.09,-578.57,-45.9,93.19,441.58,415.73,399.33,-1014.61,-456.04,-317.26,-578.57,-45.9,93.19,0,671.76,0.59
dw_cut_4_n1_2f_opt.xyz,Nucleus 10F :,2.988948,-3.618293,1.702194,352.6,407.68,310.39,339.74,457.87,469.95,489.21,-63.01,-138.95,-157.27,310.39,339.74,407.68,0,97.29,-0.4
dw_cut_4_n1_2f_opt.xyz,Nucleus 16F :,2.408767,-4.019109,3.35104,360.13,421.93,320.05,338.41,487.53,469.06,457.02,-37.7,-157.08,-138.43,320.05,338.41,421.93,0,101.88,-0.64
dw_cut_4_n1_2f_opt_disp_struct_0.xyz,Nucleus 1H :,0.97576,-0.03651,-1.323256,29.44,35.26,23.99,29.07,40.03,25.8,27.96,2.47,-5.29,-2.65,23.99,29.07,35.26,0,11.27,-0.1
dw_cut_4_n1_2f_opt_disp_struct_0.xyz,Nucleus 2H :,1.726361,0.651921,-1.727964,28.33,33.97,24.03,27.0,43.08,21.43,27.47,-10.55,4.28,-0.71,24.03,27.0,33.97,0,9.94,-0.4
dw_cut_4_n1_2f_opt_disp_struct_0.xyz,Nucleus 6H :,1.252572,-1.055742,-1.627744,25.16,16.64,26.44,32.41,12.86,32.65,47.4,4.21,-15.72,-5.92,16.64,26.44,32.41,0,15.77,0.24
dw_cut_4_n1_2f_opt_disp_struct_0.xyz,Nucleus 12H :,0.895893,0.08325,0.156237,25.48,21.56,26.73,28.14,46.97,19.81,32.45,-20.98,2.53,-4.35,21.56,26.73,28.14,0,6.58,0.57
dw_cut_4_n1_2f_opt_disp_struct_0.xyz,Nucleus 14H :,1.680246,0.892085,0.957022,24.19,21.96,26.34,24.26,7.36,43.39,40.46,14.72,-14.54,-18.83,21.96,24.26,26.34,0,4.38,0.05
dw_cut_4_n1_2f_opt_disp_struct_0.xyz,Nucleus 17H :,1.293815,0.719171,2.259203,25.1,21.79,26.38,27.14,44.93,27.61,30.35,-18.6,-6.06,-2.92,21.79,26.38,27.14,0,5.35,0.72
dw_cut_4_n1_2f_opt_disp_struct_0.xyz,Nucleus 18H :,1.67575,1.194397,3.054495,28.66,34.83,27.66,23.48,41.21,26.09,31.27,-9.52,0.92,-4.0,23.48,27.66,34.83,0,11.35,-0.26
dw_cut_4_n1_2f_opt_disp_struct_0.xyz,Nucleus 23H :,0.265102,-0.187976,2.326963,30.19,34.32,28.79,27.47,38.65,22.57,20.79,-4.61,5.72,7.46,27.47,28.79,34.32,0,6.85,-0.61
dw_cut_4_n1_2f_opt_disp_struct_0.xyz,Nucleus 24H :,-0.011825,-0.605534,1.023692,30.65,25.5,35.42,31.02,15.33,39.18,28.69,10.27,-3.91,2.39,25.5,31.02,35.42,0,9.92,0.11
dw_cut_4_n1_2f_opt_disp_struct_0.xyz,Nucleus 25H :,-1.046842,-1.546103,0.839813,30.3,34.91,29.76,26.24,40.46,20.56,19.1,-5.66,9.56,6.89,26.24,29.76,34.91,0,8.67,-0.19
dw_cut_4_n1_2f_opt_disp_struct_0.xyz,Nucleus 0C :,-1.361366,-1.98316,-0.388182,169.36,185.99,162.47,159.63,253.5,235.27,237.5,-75.12,-76.65,-66.42,159.63,162.47,185.99,0,26.36,-0.78
dw_cut_4_n1_2f_opt_disp_struct_0.xyz,Nucleus 3C :,-1.7624,-2.039097,1.935664,63.55,149.54,56.85,-15.73,240.78,262.25,272.43,-92.1,-214.06,-278.65,-15.73,56.85,149.54,0,165.27,-0.12
dw_cut_4_n1_2f_opt_disp_struct_0.xyz,Nucleus 4C :,-2.515117,-2.803272,1.772608,64.7,-14.62,125.0,83.73,252.07,272.55,265.88,-280.79,-132.78,-182.82,-14.62,83.73,125.0,0,139.62,0.41
dw_cut_4_n1_2f_opt_disp_struct_0.xyz,Nucleus 7C :,-1.460012,-1.603201,3.223667,56.74,138.56,-0.45,32.11,258.84,273.02,267.48,-125.93,-269.3,-233.89,-0.45,32.11,138.56,0,139.01,-0.53
dw_cut_4_n1_2f_opt_disp_struct_0.xyz,Nucleus 8C :,-1.972282,-2.01577,4.084675,47.24,159.6,4.28,-22.16,233.02,249.35,259.99,-74.82,-248.49,-277.33,-22.16,4.28,159.6,0,181.76,-0.71
dw_cut_4_n1_2f_opt_disp_struct_0.xyz,Nucleus 9C :,-0.442696,-0.672189,3.42899,21.53,-49.58,33.5,80.66,233.71,258.43,263.63,-312.23,-223.76,-155.19,-49.58,33.5,80.66,0,130.24,0.28
dw_cut_4_n1_2f_opt_disp_struct_0.xyz,Nucleus 11C :,-0.155016,-0.253606,4.667938,74.11,-8.15,159.39,71.09,244.13,259.45,274.6,-85.69,-273.71,-196.45,-8.15,71.09,159.39,0,167.54,-0.05
dw_cut_4_n1_2f_opt_disp_struct_0.xyz,Nucleus 13C :,2.484357,1.562545,0.68712,64.9,162.09,56.2,-23.58,281.12,232.7,256.78,-70.79,-223.56,-281.54,-23.58,56.2,162.09,0,185.67,-0.14
dw_cut_4_n1_2f_opt_disp_struct_0.xyz,Nucleus 15C :,0.016001,0.186902,-1.804456,27.53,83.17,30.69,-31.27,229.58,271.02,259.98,-148.09,-240.03,-289.88,-31.27,30.69,83.17,0,114.44,0.08
dw_cut_4_n1_2f_opt_disp_struct_0.xyz,Nucleus 19C :,2.274754,-4.047111,2.333742,158.75,121.59,193.75,160.91,256.31,229.99,225.92,-104.52,-56.88,-74.57,121.59,160.91,193.75,0,72.16,0.09
dw_cut_4_n1_2f_opt_disp_struct_0.xyz,Nucleus 20C :,1.193474,-2.983894,2.252636,8.06,-83.72,90.86,17.05,203.92,259.88,267.93,-113.44,-348.35,-245.76,-83.72,17.05,90.86,0,174.58,0.15
dw_cut_4_n1_2f_opt_disp_struct_0.xyz,Nucleus 5N :,0.282466,-3.089494,3.123479,137.18,78.09,183.84,149.62,293.52,338.85,326.58,-109.7,-188.91,-248.79,78.09,149.62,183.84,0,105.75,0.35
dw_cut_4_n1_2f_opt_disp_struct_0.xyz,Nucleus 21O :,1.338722,-2.121874,1.34199,-106.52,-433.54,-56.95,170.94,401.75,427.59,429.65,-860.97,-460.87,-256.7,-433.54,-56.95,170.94,0,604.48,0.25
dw_cut_4_n1_2f_opt_disp_struct_0.xyz,Nucleus 22O :,1.859814,-4.997269,1.974232,-127.02,-457.7,-60.81,137.46,401.22,423.11,439.76,-887.16,-473.39,-284.6,-457.7,-60.81,137.46,0,595.16,0.33
dw_cut_4_n1_2f_opt_disp_struct_0.xyz,Nucleus 10F :,3.154101,-3.804366,1.726718,334.65,404.57,276.94,322.43,459.07,470.86,489.27,-66.25,-182.53,-166.48,276.94,322.43,404.57,0,127.63,-0.29
dw_cut_4_n1_2f_opt_disp_struct_0.xyz,Nucleus 16F :,2.573919,-4.205182,3.375564,348.81,420.19,298.6,327.64,487.2,468.72,458.94,-41.59,-169.05,-157.78,298.6,327.64,420.19,0,121.59,-0.52
dw_cut_4_n1_2f_opt_disp_struct_1.xyz,Nucleus 1H :,0.97576,-0.03651,-1.323256,29.47,35.39,23.93,29.09,40.3,26.4,28.41,1.79,-5.79,-2.71,23.93,29.09,35.39,0,11.46,-0.1
dw_cut_4_n1_2f_opt_disp_struct_1.xyz,Nucleus 2H :,1.726361,0.651921,-1.727964,28.37,33.97,23.98,27.15,43.82,22.46,27.36,-11.29,3.41,-0.66,23.98,27.15,33.97,0,9.99,-0.37
dw_cut_4_n1_2f_opt_disp_struct_1.xyz,Nucleus 6H :,1.252572,-1.055742,-1.627744,24.85,16.43,26.15,31.98,12.72,32.36,48.33,-17.03,4.18,-6.0,16.43,26.15,31.98,0,15.55,0.25
dw_cut_4_n1_2f_opt_disp_struct_1.xyz,Nucleus 12H :,0.895893,0.08325,0.156237,25.16,21.46,26.11,27.92,47.41,18.79,32.41,-21.75,3.22,-4.59,21.46,26.11,27.92,0,6.46,0.44
dw_cut_4_n1_2f_opt_disp_struct_1.xyz,Nucleus 14H :,1.680246,0.892085,0.957022,24.35,21.69,26.73,24.64,5.81,43.86,38.52,16.0,-12.01,-19.13,21.69,24.64,26.73,0,5.04,0.17
dw_cut_4_n1_2f_opt_disp_struct_1.xyz,Nucleus 17H :,1.293815,0.719171,2.259203,24.97,21.63,26.25,27.04,45.04,27.92,30.89,-18.83,-6.42,-3.68,21.63,26.25,27.04,0,5.41,0.71
dw_cut_4_n1_2f_opt_disp_struct_1.xyz,Nucleus 18H :,1.67575,1.194397,3.054495,28.78,34.94,27.79,23.61,41.69,26.77,32.02,-10.05,0.38,-4.45,23.61,27.79,34.94,0,11.33,-0.26
dw_cut_4_n1_2f_opt_disp_struct_1.xyz,Nucleus 23H :,0.265102,-0.187976,2.326963,30.14,34.12,28.83,27.46,38.61,21.63,20.01,-4.78,7.2,7.73,27.46,28.83,34.12,0,6.66,-0.59
dw_cut_4_n1_2f_opt_disp_struct_1.xyz,Nucleus 24H :,-0.011825,-0.605534,1.023692,30.66,35.32,25.75,30.92,39.0,14.94,28.2,10.89,-3.85,2.8,25.75,30.92,35.32,0,9.57,0.08
dw_cut_4_n1_2f_opt_disp_struct_1.xyz,Nucleus 25H :,-1.046842,-1.546103,0.839813,30.32,34.77,29.76,26.42,40.32,20.04,17.6,-5.65,8.44,10.19,26.42,29.76,34.77,0,8.35,-0.2
dw_cut_4_n1_2f_opt_disp_struct_1.xyz,Nucleus 0C :,-1.361366,-1.98316,-0.388182,169.5,186.3,162.64,159.57,254.27,238.76,236.32,-77.0,-77.56,-66.29,159.57,162.64,186.3,0,26.73,-0.77
dw_cut_4_n1_2f_opt_disp_struct_1.xyz,Nucleus 3C :,-1.7624,-2.039097,1.935664,61.62,149.29,53.41,-17.85,241.3,262.35,273.99,-92.69,-219.05,-281.06,-17.85,53.41,149.29,0,167.14,-0.15
dw_cut_4_n1_2f_opt_disp_struct_1.xyz,Nucleus 4C :,-2.515117,-2.803272,1.772608,63.18,-17.46,125.42,81.58,253.81,265.68,273.51,-284.08,-133.19,-186.18,-17.46,81.58,125.42,0,142.88,0.39
dw_cut_4_n1_2f_opt_disp_struct_1.xyz,Nucleus 7C :,-1.460012,-1.603201,3.223667,52.74,138.5,-4.98,24.71,260.38,268.93,275.46,-127.94,-277.68,-240.91,-4.98,24.71,138.5,0,143.48,-0.59
dw_cut_4_n1_2f_opt_disp_struct_1.xyz,Nucleus 8C :,-1.972282,-2.01577,4.084675,48.41,159.89,5.63,-20.3,234.04,257.01,262.71,-74.93,-253.87,-279.74,-20.3,5.63,159.89,0,180.19,-0.71
dw_cut_4_n1_2f_opt_disp_struct_1.xyz,Nucleus 9C :,-0.442696,-0.672189,3.42899,17.28,-57.37,32.11,77.11,235.88,261.36,266.06,-322.96,-229.23,-159.26,-57.37,32.11,77.11,0,134.48,0.33
dw_cut_4_n1_2f_opt_disp_struct_1.xyz,Nucleus 11C :,-0.155016,-0.253606,4.667938,71.78,159.89,-11.66,67.1,241.2,262.13,275.09,-82.78,-278.72,-201.58,-11.66,67.1,159.89,0,171.55,-0.08
dw_cut_4_n1_2f_opt_disp_struct_1.xyz,Nucleus 13C :,2.484357,1.562545,0.68712,63.56,162.57,52.38,-24.27,228.71,279.38,259.26,-66.46,-225.83,-284.37,-24.27,52.38,162.57,0,186.84,-0.18
dw_cut_4_n1_2f_opt_disp_struct_1.xyz,Nucleus 15C :,0.016001,0.186902,-1.804456,26.1,82.76,31.34,-35.81,230.08,271.33,262.43,-148.92,-239.57,-297.07,-35.81,31.34,82.76,0,118.57,0.13
dw_cut_4_n1_2f_opt_disp_struct_1.xyz,Nucleus 19C :,2.439907,-4.233184,2.358266,159.41,121.89,193.44,162.89,255.81,228.82,223.75,-102.05,-55.75,-72.36,121.89,162.89,193.44,0,71.55,0.15
dw_cut_4_n1_2f_opt_disp_struct_1.xyz,Nucleus 20C :,1.358626,-3.169967,2.27716,5.5,-81.51,79.41,18.59,201.54,258.17,266.51,-122.34,-344.8,-242.6,-81.51,18.59,79.41,0,160.92,0.24
dw_cut_4_n1_2f_opt_disp_struct_1.xyz,Nucleus 5N :,0.447619,-3.275567,3.148003,133.47,71.77,184.08,144.55,294.3,339.46,328.38,-110.29,-194.64,-256.8,71.77,144.55,184.08,0,112.31,0.3
dw_cut_4_n1_2f_opt_disp_struct_1.xyz,Nucleus 21O :,1.503875,-2.307947,1.366514,-68.61,193.33,-53.89,-345.28,401.99,420.88,428.22,-764.4,-457.94,-234.59,-345.28,-53.89,193.33,0,538.61,0.08
dw_cut_4_n1_2f_opt_disp_struct_1.xyz,Nucleus 22O :,2.024967,-5.183342,1.998755,-85.07,-365.95,-63.35,174.08,399.45,423.13,434.77,-784.37,-479.64,-248.56,-365.95,-63.35,174.08,0,540.03,0.12
dw_cut_4_n1_2f_opt_disp_struct_1.xyz,Nucleus 10F :,3.319254,-3.990439,1.751241,325.18,404.21,257.98,313.36,460.13,471.51,489.24,-67.12,-202.34,-175.86,257.98,313.36,404.21,0,146.23,-0.24
dw_cut_4_n1_2f_opt_disp_struct_1.xyz,Nucleus 16F :,2.739072,-4.391255,3.400087,342.53,419.17,285.99,322.43,487.17,467.87,460.72,-44.41,-179.61,-164.15,285.99,322.43,419.17,0,133.18,-0.45
dw_cut_4_n1_2f_opt_disp_struct_10.xyz,Nucleus 1H :,0.97576,-0.03651,-1.323256,29.34,35.29,23.74,28.98,40.45,27.01,29.21,-6.3,0.22,-2.58,23.74,28.98,35.29,0,11.55,-0.09
dw_cut_4_n1_2f_opt_disp_struct_10.xyz,Nucleus 2H :,1.726361,0.651921,-1.727964,28.37,34.35,23.82,26.95,44.95,24.39,26.75,-11.67,2.25,-1.54,23.82,26.95,34.35,0,10.53,-0.4
dw_cut_4_n1_2f_opt_disp_struct_10.xyz,Nucleus 6H :,1.252572,-1.055742,-1.627744,24.15,15.87,25.62,30.97,11.93,30.96,49.63,-19.1,4.2,-5.17,15.87,25.62,30.97,0,15.1,0.29
dw_cut_4_n1_2f_opt_disp_struct_10.xyz,Nucleus 12H :,0.895893,0.08325,0.156237,24.54,20.84,25.15,27.64,46.96,17.97,30.21,-21.75,2.97,-2.73,20.84,25.15,27.64,0,6.8,0.27
dw_cut_4_n1_2f_opt_disp_struct_10.xyz,Nucleus 14H :,1.680246,0.892085,0.957022,24.43,20.86,27.36,25.08,5.27,32.63,44.28,15.63,-5.38,-19.13,20.86,25.08,27.36,0,6.5,0.3
dw_cut_4_n1_2f_opt_disp_struct_10.xyz,Nucleus 17H :,1.293815,0.719171,2.259203,24.54,21.1,25.63,26.88,44.92,27.54,31.16,-19.19,-6.39,-4.44,21.1,25.63,26.88,0,5.78,0.57
dw_cut_4_n1_2f_opt_disp_struct_10.xyz,Nucleus 18H :,1.67575,1.194397,3.054495,28.89,34.95,27.91,23.81,42.42,27.69,32.78,-0.27,-10.32,-5.63,23.81,27.91,34.95,0,11.14,-0.26
dw_cut_4_n1_2f_opt_disp_struct_10.xyz,Nucleus 23H :,0.265102,-0.187976,2.326963,29.85,32.89,29.06,27.59,15.33,22.65,37.67,13.07,5.91,-5.07,27.59,29.06,32.89,0,5.3,-0.45
dw_cut_4_n1_2f_opt_disp_struct_10.xyz,Nucleus 24H :,-0.011825,-0.605534,1.023692,30.38,34.52,26.23,30.4,39.07,13.36,25.94,-4.73,12.9,4.62,26.23,30.4,34.52,0,8.29,0.01
dw_cut_4_n1_2f_opt_disp_struct_10.xyz,Nucleus 25H :,-1.046842,-1.546103,0.839813,30.06,33.67,29.83,26.69,39.05,20.19,12.85,-5.47,9.46,14.11,26.69,29.83,33.67,0,6.98,-0.1
dw_cut_4_n1_2f_opt_disp_struct_10.xyz,Nucleus 0C :,-1.361366,-1.98316,-0.388182,170.35,186.46,164.28,160.3,256.21,241.13,237.08,-79.41,-76.43,-67.54,160.3,164.28,186.46,0,26.16,-0.7
dw_cut_4_n1_2f_opt_disp_struct_10.xyz,Nucleus 3C :,-1.7624,-2.039097,1.935664,61.94,148.6,53.4,-16.18,240.93,273.69,262.7,-92.35,-220.04,-279.11,-16.18,53.4,148.6,0,164.78,-0.16
dw_cut_4_n1_2f_opt_disp_struct_10.xyz,Nucleus 4C :,-2.515117,-2.803272,1.772608,58.19,-25.01,126.6,72.97,254.84,264.48,273.76,-291.15,-131.61,-195.78,-25.01,72.97,126.6,0,151.61,0.29
dw_cut_4_n1_2f_opt_disp_struct_10.xyz,Nucleus 7C :,-1.460012,-1.603201,3.223667,51.5,138.05,-4.12,20.56,260.48,268.09,275.77,-124.1,-279.25,-246.51,-4.12,20.56,138.05,0,142.17,-0.65
dw_cut_4_n1_2f_opt_disp_struct_10.xyz,Nucleus 8C :,-1.972282,-2.01577,4.084675,57.62,158.73,20.01,-5.88,234.19,265.11,266.98,-75.53,-245.14,-272.74,-5.88,20.01,158.73,0,164.61,-0.69
dw_cut_4_n1_2f_opt_disp_struct_10.xyz,Nucleus 9C :,-0.442696,-0.672189,3.42899,16.15,-60.28,76.05,32.69,236.51,267.73,264.85,-327.48,-160.91,-232.25,-60.28,32.69,76.05,0,136.33,0.36
dw_cut_4_n1_2f_opt_disp_struct_10.xyz,Nucleus 11C :,-0.155016,-0.253606,4.667938,69.64,161.15,-14.43,62.21,238.79,262.66,271.16,-78.06,-279.54,-206.06,-14.43,62.21,161.15,0,175.58,-0.13
dw_cut_4_n1_2f_opt_disp_struct_10.xyz,Nucleus 13C :,2.484357,1.562545,0.68712,67.1,163.15,54.67,-16.51,225.22,261.21,274.13,-62.16,-218.66,-278.43,-16.51,54.67,163.15,0,179.66,-0.21
dw_cut_4_n1_2f_opt_disp_struct_10.xyz,Nucleus 15C :,0.016001,0.186902,-1.804456,26.55,82.65,35.15,-38.15,229.56,268.88,264.61,-147.98,-232.33,-303.09,-38.15,35.15,82.65,0,120.8,0.21
dw_cut_4_n1_2f_opt_disp_struct_10.xyz,Nucleus 19C :,3.926281,-5.907841,2.578979,159.68,122.24,191.45,165.35,252.55,226.25,218.29,-96.28,-54.47,-67.3,122.24,165.35,191.45,0,69.21,0.25
dw_cut_4_n1_2f_opt_disp_struct_10.xyz,Nucleus 20C :,2.845001,-4.844624,2.497873,2.75,-86.06,67.33,26.99,203.41,256.33,265.67,-136.1,-342.41,-238.64,-86.06,26.99,67.33,0,153.39,0.47
dw_cut_4_n1_2f_opt_disp_struct_10.xyz,Nucleus 5N :,1.933994,-4.950224,3.368716,125.73,58.68,184.46,134.06,293.75,338.99,330.73,-109.46,-204.43,-272.38,58.68,134.06,184.46,0,125.78,0.2
dw_cut_4_n1_2f_opt_disp_struct_10.xyz,Nucleus 21O :,2.99025,-3.982604,1.587226,-18.07,227.64,-30.34,-251.51,397.19,410.6,424.58,-184.67,-438.0,-663.91,-251.51,-30.34,227.64,0,479.15,-0.08
dw_cut_4_n1_2f_opt_disp_struct_10.xyz,Nucleus 22O :,3.511342,-6.857999,2.219468,-38.47,206.36,-272.28,-49.49,401.43,438.51,427.7,-231.42,-687.29,-464.32,-272.28,-49.49,206.36,0,478.64,-0.07
dw_cut_4_n1_2f_opt_disp_struct_10.xyz,Nucleus 10F :,4.805628,-5.665096,1.971954,310.88,403.47,231.25,297.93,486.72,469.02,461.15,-65.24,-230.29,-188.72,231.25,297.93,403.47,0,172.22,-0.23
dw_cut_4_n1_2f_opt_disp_struct_10.xyz,Nucleus 16F :,4.225447,-6.065912,3.6208,330.2,415.83,264.28,310.48,487.46,461.92,464.75,-49.1,-197.96,-176.48,264.28,310.48,415.83,0,151.55,-0.39
dw_cut_4_n1_2f_opt_disp_struct_11.xyz,Nucleus 1H :,0.97576,-0.03651,-1.323256,29.32,35.28,23.72,28.96,40.4,26.94,29.19,-6.25,0.25,-2.57,23.72,28.96,35.28,0,11.56,-0.09
dw_cut_4_n1_2f_opt_disp_struct_11.xyz,Nucleus 2H :,1.726361,0.651921,-1.727964,28.38,34.39,23.81,26.94,44.92,24.34,26.67,-11.59,2.32,-1.5,23.81,26.94,34.39,0,10.58,-0.41
dw_cut_4_n1_2f_opt_disp_struct_11.xyz,Nucleus 6H :,1.252572,-1.055742,-1.627744,24.12,15.83,25.6,30.94,11.9,30.91,49.54,-19.01,4.16,-5.12,15.83,25.6,30.94,0,15.11,0.29
dw_cut_4_n1_2f_opt_disp_struct_11.xyz,Nucleus 12H :,0.895893,0.08325,0.156237,24.53,20.79,25.15,27.64,46.82,17.99,30.12,-21.6,2.92,-2.66,20.79,25.15,27.64,0,6.85,0.27
dw_cut_4_n1_2f_opt_disp_struct_11.xyz,Nucleus 14H :,1.680246,0.892085,0.957022,24.43,20.81,27.38,25.09,5.4,32.5,44.22,15.45,-5.24,-19.05,20.81,25.09,27.38,0,6.57,0.3
dw_cut_4_n1_2f_opt_disp_struct_11.xyz,Nucleus 17H :,1.293815,0.719171,2.259203,24.51,21.06,25.6,26.88,44.85,27.49,31.11,-19.14,-6.39,-4.39,21.06,25.6,26.88,0,5.82,0.56
dw_cut_4_n1_2f_opt_disp_struct_11.xyz,Nucleus 18H :,1.67575,1.194397,3.054495,28.88,34.94,27.9,23.8,42.35,27.62,32.7,-0.21,-10.23,-5.59,23.8,27.9,34.94,0,11.14,-0.26
dw_cut_4_n1_2f_opt_disp_struct_11.xyz,Nucleus 23H :,0.265102,-0.187976,2.326963,29.83,32.81,29.07,27.61,15.04,22.9,37.65,13.36,5.68,-5.14,27.61,29.07,32.81,0,5.2,-0.44
dw_cut_4_n1_2f_opt_disp_struct_11.xyz,Nucleus 24H :,-0.011825,-0.605534,1.023692,30.36,34.48,26.25,30.36,39.19,13.31,25.86,-4.89,12.97,4.66,26.25,30.36,34.48,0,8.23,0.0
dw_cut_4_n1_2f_opt_disp_struct_11.xyz,Nucleus 25H :,-1.046842,-1.546103,0.839813,30.05,33.6,29.83,26.71,39.02,20.3,12.63,-5.51,9.37,14.33,26.71,29.83,33.6,0,6.89,-0.1
dw_cut_4_n1_2f_opt_disp_struct_11.xyz,Nucleus 0C :,-1.361366,-1.98316,-0.388182,170.38,186.44,164.37,160.33,256.27,240.92,237.0,-79.22,-76.21,-67.62,160.33,164.37,186.44,0,26.11,-0.69
dw_cut_4_n1_2f_opt_disp_struct_11.xyz,Nucleus 3C :,-1.7624,-2.039097,1.935664,61.96,148.56,53.4,-16.07,240.79,273.22,262.66,-92.25,-219.6,-278.93,-16.07,53.4,148.56,0,164.63,-0.16
dw_cut_4_n1_2f_opt_disp_struct_11.xyz,Nucleus 4C :,-2.515117,-2.803272,1.772608,57.92,-25.38,126.64,72.49,254.56,264.57,273.64,-291.45,-131.49,-196.07,-25.38,72.49,126.64,0,152.02,0.29
dw_cut_4_n1_2f_opt_disp_struct_11.xyz,Nucleus 7C :,-1.460012,-1.603201,3.223667,51.59,138.01,-3.89,20.64,260.1,268.23,275.04,-123.66,-278.44,-246.51,-3.89,20.64,138.01,0,141.9,-0.65
dw_cut_4_n1_2f_opt_disp_struct_11.xyz,Nucleus 8C :,-1.972282,-2.01577,4.084675,57.76,158.67,20.3,-5.69,234.28,264.41,266.97,-75.66,-244.27,-272.46,-5.69,20.3,158.67,0,164.36,-0.68
dw_cut_4_n1_2f_opt_disp_struct_11.xyz,Nucleus 9C :,-0.442696,-0.672189,3.42899,16.25,-60.09,76.06,32.77,236.17,267.41,264.68,-326.91,-160.6,-232.01,-60.09,32.77,76.06,0,136.15,0.36
dw_cut_4_n1_2f_opt_disp_struct_11.xyz,Nucleus 11C :,-0.155016,-0.253606,4.667938,69.64,161.18,-14.38,62.11,238.75,262.28,270.91,-77.93,-279.09,-206.01,-14.38,62.11,161.18,0,175.56,-0.13
dw_cut_4_n1_2f_opt_disp_struct_11.xyz,Nucleus 13C :,2.484357,1.562545,0.68712,67.2,163.16,54.76,-16.31,225.29,260.94,273.78,-62.17,-218.27,-277.96,-16.31,54.76,163.16,0,179.47,-0.21
dw_cut_4_n1_2f_opt_disp_struct_11.xyz,Nucleus 15C :,0.016001,0.186902,-1.804456,26.61,82.64,35.24,-38.04,229.75,268.56,264.52,-148.09,-232.09,-302.82,-38.04,35.24,82.64,0,120.68,0.21
dw_cut_4_n1_2f_opt_disp_struct_11.xyz,Nucleus 19C :,4.091434,-6.093914,2.603502,159.66,122.17,191.37,165.44,252.44,227.0,218.95,-97.05,-55.08,-67.29,122.17,165.44,191.37,0,69.2,0.25
dw_cut_4_n1_2f_opt_disp_struct_11.xyz,Nucleus 20C :,3.010154,-5.030697,2.522396,2.73,-86.29,67.28,27.19,203.07,255.98,265.89,-135.8,-342.27,-238.68,-86.29,27.19,67.28,0,153.57,0.48
dw_cut_4_n1_2f_opt_disp_struct_11.xyz,Nucleus 5N :,2.099146,-5.136297,3.393239,125.46,58.25,184.46,133.67,293.75,338.75,330.67,-109.41,-204.58,-272.79,58.25,133.67,184.46,0,126.21,0.2
dw_cut_4_n1_2f_opt_disp_struct_11.xyz,Nucleus 21O :,3.155403,-4.168677,1.61175,-18.05,228.4,-30.55,-252.0,396.9,409.97,425.42,-183.07,-438.44,-664.93,-252.0,-30.55,228.4,0,480.4,-0.08
dw_cut_4_n1_2f_opt_disp_struct_11.xyz,Nucleus 22O :,3.676494,-7.044072,2.243992,-39.05,206.51,-273.38,-50.27,401.58,440.42,428.42,-233.15,-689.8,-464.62,-273.38,-50.27,206.51,0,479.89,-0.07
dw_cut_4_n1_2f_opt_disp_struct_11.xyz,Nucleus 10F :,4.970781,-5.851169,1.996478,310.48,403.44,230.57,297.43,486.54,468.72,461.02,-65.0,-230.81,-189.04,230.57,297.43,403.44,0,172.87,-0.23
dw_cut_4_n1_2f_opt_disp_struct_11.xyz,Nucleus 16F :,4.3906,-6.251985,3.645324,329.76,415.68,263.54,310.07,487.25,461.76,464.87,-49.3,-198.58,-176.7,263.54,310.07,415.68,0,152.14,-0.39
dw_cut_4_n1_2f_opt_disp_struct_12.xyz,Nucleus 1H :,0.97576,-0.03651,-1.323256,29.3,35.26,23.7,28.95,40.36,26.87,29.17,-6.2,0.27,-2.56,23.7,28.95,35.26,0,11.56,-0.09
dw_cut_4_n1_2f_opt_disp_struct_12.xyz,Nucleus 2H :,1.726361,0.651921,-1.727964,28.39,34.43,23.81,26.93,44.88,24.29,26.59,-11.5,2.38,-1.46,23.81,26.93,34.43,0,10.62,-0.41
dw_cut_4_n1_2f_opt_disp_struct_12.xyz,Nucleus 6H :,1.252572,-1.055742,-1.627744,24.1,15.8,25.59,30.92,11.87,30.87,49.44,-18.92,4.13,-5.08,15.8,25.59,30.92,0,15.12,0.3
dw_cut_4_n1_2f_opt_disp_struct_12.xyz,Nucleus 12H :,0.895893,0.08325,0.156237,24.51,20.75,25.15,27.64,46.68,18.0,30.05,-21.46,2.87,-2.6,20.75,25.15,27.64,0,6.89,0.28
dw_cut_4_n1_2f_opt_disp_struct_12.xyz,Nucleus 14H :,1.680246,0.892085,0.957022,24.42,20.77,27.39,25.1,5.48,32.39,44.17,15.33,-5.12,-18.99,20.77,25.1,27.39,0,6.62,0.31
dw_cut_4_n1_2f_opt_disp_struct_12.xyz,Nucleus 17H :,1.293815,0.719171,2.259203,24.49,21.02,25.57,26.88,44.79,27.45,31.07,-19.09,-6.39,-4.35,21.02,25.57,26.88,0,5.86,0.55
dw_cut_4_n1_2f_opt_disp_struct_12.xyz,Nucleus 18H :,1.67575,1.194397,3.054495,28.87,34.92,27.9,23.8,42.3,27.55,32.62,-0.16,-10.15,-5.55,23.8,27.9,34.92,0,11.12,-0.26
dw_cut_4_n1_2f_opt_disp_struct_12.xyz,Nucleus 23H :,0.265102,-0.187976,2.326963,29.82,32.75,29.08,27.62,14.72,23.1,37.63,13.7,5.49,-5.2,27.62,29.08,32.75,0,5.13,-0.43
dw_cut_4_n1_2f_opt_disp_struct_12.xyz,Nucleus 24H :,-0.011825,-0.605534,1.023692,30.35,34.44,26.27,30.33,39.29,13.16,25.76,-5.03,13.14,4.73,26.27,30.33,34.44,0,8.17,-0.01
dw_cut_4_n1_2f_opt_disp_struct_12.xyz,Nucleus 25H :,-1.046842,-1.546103,0.839813,30.03,33.54,29.83,26.72,38.98,20.37,12.38,-5.54,9.32,14.6,26.72,29.83,33.54,0,6.82,-0.09
dw_cut_4_n1_2f_opt_disp_struct_12.xyz,Nucleus 0C :,-1.361366,-1.98316,-0.388182,170.41,186.43,164.45,160.36,256.32,240.72,236.93,-79.05,-76.01,-67.69,160.36,164.45,186.43,0,26.07,-0.69
dw_cut_4_n1_2f_opt_disp_struct_12.xyz,Nucleus 3C :,-1.7624,-2.039097,1.935664,61.96,148.51,53.38,-16.01,240.69,272.87,262.66,-92.2,-219.29,-278.85,-16.01,53.38,148.51,0,164.52,-0.16
dw_cut_4_n1_2f_opt_disp_struct_12.xyz,Nucleus 4C :,-2.515117,-2.803272,1.772608,57.7,-25.67,126.69,72.09,254.36,264.56,273.55,-291.69,-131.37,-196.3,-25.67,72.09,126.69,0,152.36,0.28
dw_cut_4_n1_2f_opt_disp_struct_12.xyz,Nucleus 7C :,-1.460012,-1.603201,3.223667,51.66,137.98,-3.7,20.71,259.77,268.41,274.4,-123.33,-277.73,-246.54,-3.7,20.71,137.98,0,141.68,-0.66
dw_cut_4_n1_2f_opt_disp_struct_12.xyz,Nucleus 8C :,-1.972282,-2.01577,4.084675,57.85,158.6,20.52,-5.56,234.36,263.87,266.94,-75.8,-243.59,-272.22,-5.56,20.52,158.6,0,164.16,-0.68
dw_cut_4_n1_2f_opt_disp_struct_12.xyz,Nucleus 9C :,-0.442696,-0.672189,3.42899,16.32,-59.94,76.07,32.84,235.92,267.13,264.54,-326.44,-160.35,-231.84,-59.94,32.84,76.07,0,136.01,0.36
dw_cut_4_n1_2f_opt_disp_struct_12.xyz,Nucleus 11C :,-0.155016,-0.253606,4.667938,69.63,161.22,-14.33,62.01,238.7,261.98,270.74,-77.8,-278.72,-206.0,-14.33,62.01,161.22,0,175.55,-0.13
dw_cut_4_n1_2f_opt_disp_struct_12.xyz,Nucleus 13C :,2.484357,1.562545,0.68712,67.29,163.18,54.83,-16.15,225.31,260.74,273.51,-62.15,-217.95,-277.6,-16.15,54.83,163.18,0,179.33,-0.21
dw_cut_4_n1_2f_opt_disp_struct_12.xyz,Nucleus 15C :,0.016001,0.186902,-1.804456,26.67,82.64,35.31,-37.95,229.99,268.25,264.45,-148.22,-231.89,-302.57,-37.95,35.31,82.64,0,120.59,0.21
dw_cut_4_n1_2f_opt_disp_struct_12.xyz,Nucleus 19C :,4.256587,-6.279987,2.628026,159.64,122.1,191.29,165.52,252.37,227.47,219.34,-97.55,-55.51,-67.21,122.1,165.52,191.29,0,69.19,0.25
dw_cut_4_n1_2f_opt_disp_struct_12.xyz,Nucleus 20C :,3.175307,-5.21677,2.54692,2.68,-86.51,67.21,27.34,202.85,255.67,266.15,-135.66,-342.16,-238.81,-86.51,27.34,67.21,0,153.72,0.48
dw_cut_4_n1_2f_opt_disp_struct_12.xyz,Nucleus 5N :,2.264299,-5.32237,3.417763,125.25,57.92,184.48,133.36,293.74,338.58,330.56,-109.35,-204.71,-273.06,57.92,133.36,184.48,0,126.56,0.19
dw_cut_4_n1_2f_opt_disp_struct_12.xyz,Nucleus 21O :,3.320555,-4.35475,1.636274,-18.06,229.08,-30.78,-252.49,426.17,409.59,396.65,-181.87,-438.85,-665.87,-252.49,-30.78,229.08,0,481.57,-0.08
dw_cut_4_n1_2f_opt_disp_struct_12.xyz,Nucleus 22O :,3.841647,-7.230145,2.268515,-39.63,206.81,-274.68,-51.02,401.67,441.97,429.13,-234.35,-692.4,-464.91,-274.68,-51.02,206.81,0,481.49,-0.07
dw_cut_4_n1_2f_opt_disp_struct_12.xyz,Nucleus 10F :,5.135934,-6.037242,2.021001,310.11,403.4,229.99,296.95,486.36,468.47,460.89,-64.81,-231.22,-189.35,229.99,296.95,403.4,0,173.41,-0.23
dw_cut_4_n1_2f_opt_disp_struct_12.xyz,Nucleus 16F :,4.555753,-6.438058,3.669847,329.37,415.55,262.91,309.66,487.02,461.64,465.03,-49.56,-199.09,-176.92,262.91,309.66,415.55,0,152.64,-0.39
dw_cut_4_n1_2f_opt_disp_struct_13.xyz,Nucleus 1H :,0.97576,-0.03651,-1.323256,29.29,35.25,23.68,28.94,40.33,26.81,29.15,-6.16,0.29,-2.55,23.68,28.94,35.25,0,11.57,-0.09
dw_cut_4_n1_2f_opt_disp_struct_13.xyz,Nucleus 2H :,1.726361,0.651921,-1.727964,28.4,34.47,23.81,26.93,44.84,24.25,26.53,-11.42,2.43,-1.43,23.81,26.93,34.47,0,10.66,-0.41
dw_cut_4_n1_2f_opt_disp_struct_13.xyz,Nucleus 6H :,1.252572,-1.055742,-1.627744,24.08,15.77,25.58,30.9,11.84,30.83,49.34,-18.83,4.11,-5.06,15.77,25.58,30.9,0,15.13,0.3
dw_cut_4_n1_2f_opt_disp_struct_13.xyz,Nucleus 12H :,0.895893,0.08325,0.156237,24.5,20.71,25.15,27.65,46.56,18.01,30.0,-21.34,2.83,-2.56,20.71,25.15,27.65,0,6.94,0.28
dw_cut_4_n1_2f_opt_disp_struct_13.xyz,Nucleus 14H :,1.680246,0.892085,0.957022,24.41,20.74,27.4,25.1,5.55,32.3,44.12,15.22,-5.02,-18.93,20.74,25.1,27.4,0,6.66,0.31
dw_cut_4_n1_2f_opt_disp_struct_13.xyz,Nucleus 17H :,1.293815,0.719171,2.259203,24.47,20.99,25.55,26.88,44.73,27.41,31.03,-19.05,-6.39,-4.31,20.99,25.55,26.88,0,5.89,0.55
dw_cut_4_n1_2f_opt_disp_struct_13.xyz,Nucleus 18H :,1.67575,1.194397,3.054495,28.86,34.91,27.89,23.79,42.25,27.5,32.55,-0.12,-10.08,-5.52,23.79,27.89,34.91,0,11.12,-0.26
dw_cut_4_n1_2f_opt_disp_struct_13.xyz,Nucleus 23H :,0.265102,-0.187976,2.326963,29.81,32.69,29.1,27.64,14.34,23.26,37.61,14.1,5.35,-5.24,27.64,29.1,32.69,0,5.05,-0.42
dw_cut_4_n1_2f_opt_disp_struct_13.xyz,Nucleus 24H :,-0.011825,-0.605534,1.023692,30.33,34.41,26.3,30.29,39.38,12.92,25.63,-5.15,13.4,4.83,26.3,30.29,34.41,0,8.11,-0.01
dw_cut_4_n1_2f_opt_disp_struct_13.xyz,Nucleus 25H :,-1.046842,-1.546103,0.839813,30.02,33.49,29.84,26.73,38.94,20.39,12.07,-5.56,9.31,14.91,26.73,29.84,33.49,0,6.76,-0.08
dw_cut_4_n1_2f_opt_disp_struct_13.xyz,Nucleus 0C :,-1.361366,-1.98316,-0.388182,170.44,186.41,164.52,160.38,256.37,240.53,236.86,-78.9,-75.82,-67.74,160.38,164.52,186.41,0,26.03,-0.68
dw_cut_4_n1_2f_opt_disp_struct_13.xyz,Nucleus 3C :,-1.7624,-2.039097,1.935664,61.96,148.47,53.36,-15.95,240.62,272.64,262.67,-92.16,-219.1,-278.79,-15.95,53.36,148.47,0,164.42,-0.16
dw_cut_4_n1_2f_opt_disp_struct_13.xyz,Nucleus 4C :,-2.515117,-2.803272,1.772608,57.51,-25.93,126.73,71.74,254.25,264.46,273.49,-291.88,-131.28,-196.5,-25.93,71.74,126.73,0,152.66,0.28
dw_cut_4_n1_2f_opt_disp_struct_13.xyz,Nucleus 7C :,-1.460012,-1.603201,3.223667,51.73,137.95,-3.53,20.77,259.55,268.47,273.9,-123.07,-277.13,-246.54,-3.53,20.77,137.95,0,141.48,-0.66
dw_cut_4_n1_2f_opt_disp_struct_13.xyz,Nucleus 8C :,-1.972282,-2.01577,4.084675,57.93,158.54,20.71,-5.45,234.43,263.52,266.9,-75.92,-243.11,-272.02,-5.45,20.71,158.54,0,163.99,-0.68
dw_cut_4_n1_2f_opt_disp_struct_13.xyz,Nucleus 9C :,-0.442696,-0.672189,3.42899,16.39,-59.8,76.07,32.89,235.75,266.89,264.42,-326.04,-160.15,-231.71,-59.8,32.89,76.07,0,135.87,0.36
dw_cut_4_n1_2f_opt_disp_struct_13.xyz,Nucleus 11C :,-0.155016,-0.253606,4.667938,69.63,161.24,-14.29,61.93,238.63,261.72,270.62,-77.67,-278.39,-206.02,-14.29,61.93,161.24,0,175.53,-0.13
dw_cut_4_n1_2f_opt_disp_struct_13.xyz,Nucleus 13C :,2.484357,1.562545,0.68712,67.35,163.19,54.88,-16.03,225.31,260.58,273.28,-62.13,-217.69,-277.32,-16.03,54.88,163.19,0,179.22,-0.21
dw_cut_4_n1_2f_opt_disp_struct_13.xyz,Nucleus 15C :,0.016001,0.186902,-1.804456,26.71,82.64,35.37,-37.87,230.21,267.96,264.37,-148.34,-231.71,-302.35,-37.87,35.37,82.64,0,120.51,0.22
dw_cut_4_n1_2f_opt_disp_struct_13.xyz,Nucleus 19C :,4.42174,-6.46606,2.652549,159.62,122.04,191.22,165.6,252.31,227.68,219.45,-97.75,-55.78,-67.06,122.04,165.6,191.22,0,69.18,0.26
dw_cut_4_n1_2f_opt_disp_struct_13.xyz,Nucleus 20C :,3.340459,-5.402843,2.571444,2.63,-86.69,67.15,27.44,202.74,255.4,266.46,-135.61,-342.08,-239.02,-86.69,27.44,67.15,0,153.84,0.48
dw_cut_4_n1_2f_opt_disp_struct_13.xyz,Nucleus 5N :,2.429452,-5.508443,3.442286,125.08,57.64,184.49,133.1,293.73,338.44,330.42,-109.3,-204.83,-273.24,57.64,133.1,184.49,0,126.85,0.19
dw_cut_4_n1_2f_opt_disp_struct_13.xyz,Nucleus 21O :,3.485708,-4.540823,1.660797,-18.07,229.65,-30.96,-252.9,426.84,409.49,396.45,-181.16,-439.16,-666.66,-252.9,-30.96,229.65,0,482.55,-0.08
dw_cut_4_n1_2f_opt_disp_struct_13.xyz,Nucleus 22O :,4.0068,-7.416218,2.293039,-40.13,207.14,-275.89,-51.65,401.71,443.32,429.78,-235.32,-694.78,-465.12,-275.89,-51.65,207.14,0,483.03,-0.07
dw_cut_4_n1_2f_opt_disp_struct_13.xyz,Nucleus 10F :,5.301087,-6.223315,2.045525,309.8,403.36,229.5,296.54,486.18,468.25,460.76,-64.66,-231.56,-189.58,229.5,296.54,403.36,0,173.86,-0.23
dw_cut_4_n1_2f_opt_disp_struct_13.xyz,Nucleus 16F :,4.720905,-6.624131,3.694371,329.04,415.44,262.37,309.3,486.78,461.53,465.2,-49.82,-199.49,-177.08,262.37,309.3,415.44,0,153.07,-0.39
dw_cut_4_n1_2f_opt_disp_struct_14.xyz,Nucleus 1H :,0.97576,-0.03651,-1.323256,29.28,35.24,23.66,28.93,40.3,26.75,29.13,-6.13,0.31,-2.54,23.66,28.93,35.24,0,11.58,-0.09
dw_cut_4_n1_2f_opt_disp_struct_14.xyz,Nucleus 2H :,1.726361,0.651921,-1.727964,28.41,34.5,23.81,26.93,44.8,24.22,26.48,-11.35,2.48,-1.39,23.81,26.93,34.5,0,10.69,-0.42
dw_cut_4_n1_2f_opt_disp_struct_14.xyz,Nucleus 6H :,1.252572,-1.055742,-1.627744,24.07,15.74,25.57,30.89,11.81,30.8,49.25,-18.74,4.1,-5.03,15.74,25.57,30.89,0,15.15,0.3
dw_cut_4_n1_2f_opt_disp_struct_14.xyz,Nucleus 12H :,0.895893,0.08325,0.156237,24.49,20.67,25.16,27.65,46.45,18.01,29.97,-21.22,2.79,-2.53,20.67,25.16,27.65,0,6.98,0.29
dw_cut_4_n1_2f_opt_disp_struct_14.xyz,Nucleus 14H :,1.680246,0.892085,0.957022,24.41,20.7,27.41,25.11,5.6,32.23,44.09,15.14,-4.94,-18.89,20.7,25.11,27.41,0,6.71,0.31
dw_cut_4_n1_2f_opt_disp_struct_14.xyz,Nucleus 17H :,1.293815,0.719171,2.259203,24.46,20.96,25.54,26.87,44.67,27.37,30.99,-19.01,-6.39,-4.28,20.96,25.54,26.87,0,5.91,0.55
dw_cut_4_n1_2f_opt_disp_struct_14.xyz,Nucleus 18H :,1.67575,1.194397,3.054495,28.86,34.9,27.88,23.79,42.22,27.45,32.49,-0.09,-10.01,-5.49,23.79,27.88,34.9,0,11.11,-0.26
dw_cut_4_n1_2f_opt_disp_struct_14.xyz,Nucleus 23H :,0.265102,-0.187976,2.326963,29.8,32.64,29.11,27.65,13.91,23.38,37.58,14.56,5.24,-5.27,27.65,29.11,32.64,0,4.99,-0.41
dw_cut_4_n1_2f_opt_disp_struct_14.xyz,Nucleus 24H :,-0.011825,-0.605534,1.023692,30.32,34.39,26.32,30.26,39.45,12.59,25.48,-5.25,13.75,4.95,26.32,30.26,34.39,0,8.07,-0.02
dw_cut_4_n1_2f_opt_disp_struct_14.xyz,Nucleus 25H :,-1.046842,-1.546103,0.839813,30.01,33.45,29.83,26.74,38.89,20.38,11.72,-5.57,9.33,15.29,26.74,29.83,33.45,0,6.71,-0.08
dw_cut_4_n1_2f_opt_disp_struct_14.xyz,Nucleus 0C :,-1.361366,-1.98316,-0.388182,170.46,186.4,164.58,160.39,256.42,240.37,236.8,-78.77,-75.66,-67.8,160.39,164.58,186.4,0,26.01,-0.68
dw_cut_4_n1_2f_opt_disp_struct_14.xyz,Nucleus 3C :,-1.7624,-2.039097,1.935664,61.95,148.43,53.34,-15.91,240.57,272.47,262.69,-92.15,-218.97,-278.77,-15.91,53.34,148.43,0,164.34,-0.16
dw_cut_4_n1_2f_opt_disp_struct_14.xyz,Nucleus 4C :,-2.515117,-2.803272,1.772608,57.35,-26.15,126.77,71.44,254.21,264.29,273.44,-292.03,-131.19,-196.65,-26.15,71.44,126.77,0,152.92,0.28
dw_cut_4_n1_2f_opt_disp_struct_14.xyz,Nucleus 7C :,-1.460012,-1.603201,3.223667,51.79,137.93,-3.39,20.82,259.39,273.5,268.46,-122.86,-276.63,-246.51,-3.39,20.82,137.93,0,141.32,-0.66
dw_cut_4_n1_2f_opt_disp_struct_14.xyz,Nucleus 8C :,-1.972282,-2.01577,4.084675,57.99,158.48,20.86,-5.38,234.47,263.28,266.84,-76.01,-242.77,-271.85,-5.38,20.86,158.48,0,163.86,-0.68
dw_cut_4_n1_2f_opt_disp_struct_14.xyz,Nucleus 9C :,-0.442696,-0.672189,3.42899,16.44,-59.69,76.07,32.94,235.63,266.69,264.33,-325.72,-159.99,-231.62,-59.69,32.94,76.07,0,135.76,0.36
dw_cut_4_n1_2f_opt_disp_struct_14.xyz,Nucleus 11C :,-0.155016,-0.253606,4.667938,69.62,161.26,-14.26,61.87,238.56,261.5,270.54,-77.55,-278.12,-206.06,-14.26,61.87,161.26,0,175.52,-0.13
dw_cut_4_n1_2f_opt_disp_struct_14.xyz,Nucleus 13C :,2.484357,1.562545,0.68712,67.4,163.2,54.91,-15.92,225.31,260.45,273.12,-62.11,-217.49,-277.09,-15.92,54.91,163.2,0,179.12,-0.21
dw_cut_4_n1_2f_opt_disp_struct_14.xyz,Nucleus 15C :,0.016001,0.186902,-1.804456,26.75,82.64,35.41,-37.8,230.41,267.71,264.29,-148.44,-231.57,-302.14,-37.8,35.41,82.64,0,120.44,0.22
dw_cut_4_n1_2f_opt_disp_struct_14.xyz,Nucleus 19C :,4.586892,-6.652133,2.677073,159.6,121.99,191.16,165.65,252.26,227.64,219.25,-97.62,-55.89,-66.84,121.99,165.65,191.16,0,69.17,0.26
dw_cut_4_n1_2f_opt_disp_struct_14.xyz,Nucleus 20C :,3.505612,-5.588916,2.595967,2.58,-86.86,67.11,27.49,202.71,255.18,266.82,-135.61,-342.02,-239.32,-86.86,27.49,67.11,0,153.97,0.49
dw_cut_4_n1_2f_opt_disp_struct_14.xyz,Nucleus 5N :,2.594605,-5.694516,3.46681,124.93,57.41,184.5,132.88,293.72,338.34,330.27,-109.27,-204.93,-273.34,57.41,132.88,184.5,0,127.09,0.19
dw_cut_4_n1_2f_opt_disp_struct_14.xyz,Nucleus 21O :,3.650861,-4.726896,1.685321,-18.07,230.11,-31.09,-253.23,427.44,409.77,396.29,-181.04,-439.41,-667.26,-253.23,-31.09,230.11,0,483.34,-0.08
dw_cut_4_n1_2f_opt_disp_struct_14.xyz,Nucleus 22O :,4.171953,-7.602291,2.317563,-40.55,207.47,-276.94,-52.18,401.71,444.57,430.35,-236.2,-696.81,-465.27,-276.94,-52.18,207.47,0,484.41,-0.07
dw_cut_4_n1_2f_opt_disp_struct_14.xyz,Nucleus 10F :,5.466239,-6.409388,2.070049,309.53,403.33,229.09,296.18,486.01,468.07,460.64,-64.54,-231.82,-189.76,229.09,296.18,403.33,0,174.24,-0.23
dw_cut_4_n1_2f_opt_disp_struct_14.xyz,Nucleus 16F :,4.886058,-6.810204,3.718894,328.75,415.34,261.92,308.98,486.56,461.43,465.36,-50.08,-199.81,-177.21,261.92,308.98,415.34,0,153.42,-0.39
dw_cut_4_n1_2f_opt_disp_struct_15.xyz,Nucleus 1H :,0.97576,-0.03651,-1.323256,29.26,35.23,23.64,28.92,40.28,26.7,29.1,-6.1,0.32,-2.52,23.64,28.92,35.23,0,11.59,-0.09
dw_cut_4_n1_2f_opt_disp_struct_15.xyz,Nucleus 2H :,1.726361,0.651921,-1.727964,28.42,34.53,23.81,26.93,44.76,24.2,26.43,-11.28,2.52,-1.36,23.81,26.93,34.53,0,10.72,-0.42
dw_cut_4_n1_2f_opt_disp_struct_15.xyz,Nucleus 6H :,1.252572,-1.055742,-1.627744,24.05,15.71,25.56,30.88,11.79,30.78,49.17,-18.66,4.09,-5.01,15.71,25.56,30.88,0,15.17,0.3
dw_cut_4_n1_2f_opt_disp_struct_15.xyz,Nucleus 12H :,0.895893,0.08325,0.156237,24.48,20.64,25.16,27.65,46.36,18.01,29.95,-21.12,2.75,-2.5,20.64,25.16,27.65,0,7.01,0.29
dw_cut_4_n1_2f_opt_disp_struct_15.xyz,Nucleus 14H :,1.680246,0.892085,0.957022,24.4,20.67,27.42,25.12,5.64,32.17,44.06,15.07,-4.87,-18.85,20.67,25.12,27.42,0,6.75,0.32
dw_cut_4_n1_2f_opt_disp_struct_15.xyz,Nucleus 17H :,1.293815,0.719171,2.259203,24.44,20.93,25.52,26.87,44.63,27.34,30.96,-18.97,-6.38,-4.24,20.93,25.52,26.87,0,5.94,0.55
dw_cut_4_n1_2f_opt_disp_struct_15.xyz,Nucleus 18H :,1.67575,1.194397,3.054495,28.85,34.89,27.88,23.78,42.18,27.41,32.42,-0.06,-9.94,-5.45,23.78,27.88,34.89,0,11.11,-0.26
dw_cut_4_n1_2f_opt_disp_struct_15.xyz,Nucleus 23H :,0.265102,-0.187976,2.326963,29.79,32.59,29.11,27.66,13.4,23.44,37.55,15.09,5.18,-5.29,27.66,29.11,32.59,0,4.93,-0.41
dw_cut_4_n1_2f_opt_disp_struct_15.xyz,Nucleus 24H :,-0.011825,-0.605534,1.023692,30.31,34.37,26.34,30.23,39.5,12.17,25.31,-5.34,14.19,5.11,26.34,30.23,34.37,0,8.03,-0.03
dw_cut_4_n1_2f_opt_disp_struct_15.xyz,Nucleus 25H :,-1.046842,-1.546103,0.839813,30.0,33.41,29.83,26.75,38.83,20.33,11.3,-5.56,9.37,15.72,26.75,29.83,33.41,0,6.66,-0.08
dw_cut_4_n1_2f_opt_disp_struct_15.xyz,Nucleus 0C :,-1.361366,-1.98316,-0.388182,170.47,186.38,164.63,160.41,256.45,240.22,236.75,-78.66,-75.51,-67.84,160.41,164.63,186.38,0,25.97,-0.67
dw_cut_4_n1_2f_opt_disp_struct_15.xyz,Nucleus 3C :,-1.7624,-2.039097,1.935664,61.94,148.39,53.31,-15.88,240.53,272.34,262.72,-92.14,-218.88,-278.75,-15.88,53.31,148.39,0,164.27,-0.16
dw_cut_4_n1_2f_opt_disp_struct_15.xyz,Nucleus 4C :,-2.515117,-2.803272,1.772608,57.21,-26.34,126.8,71.18,254.22,264.07,273.39,-292.15,-131.12,-196.78,-26.34,71.18,126.8,0,153.14,0.27
dw_cut_4_n1_2f_opt_disp_struct_15.xyz,Nucleus 7C :,-1.460012,-1.603201,3.223667,51.84,137.91,-3.26,20.86,259.3,273.2,268.4,-122.7,-276.23,-246.46,-3.26,20.86,137.91,0,141.17,-0.66
dw_cut_4_n1_2f_opt_disp_struct_15.xyz,Nucleus 8C :,-1.972282,-2.01577,4.084675,58.04,158.43,20.99,-5.31,234.48,263.14,266.76,-76.07,-242.52,-271.7,-5.31,20.99,158.43,0,163.74,-0.68
dw_cut_4_n1_2f_opt_disp_struct_15.xyz,Nucleus 9C :,-0.442696,-0.672189,3.42899,16.48,-59.59,76.07,32.97,235.56,266.52,264.28,-325.47,-159.88,-231.55,-59.59,32.97,76.07,0,135.66,0.36
dw_cut_4_n1_2f_opt_disp_struct_15.xyz,Nucleus 11C :,-0.155016,-0.253606,4.667938,69.63,161.28,-14.22,61.82,238.5,261.32,270.51,-77.45,-277.89,-206.1,-14.22,61.82,161.28,0,175.5,-0.13
dw_cut_4_n1_2f_opt_disp_struct_15.xyz,Nucleus 13C :,2.484357,1.562545,0.68712,67.44,163.21,54.95,-15.83,225.3,260.33,273.0,-62.09,-217.33,-276.89,-15.83,54.95,163.21,0,179.04,-0.21
dw_cut_4_n1_2f_opt_disp_struct_15.xyz,Nucleus 15C :,0.016001,0.186902,-1.804456,26.78,82.64,35.45,-37.74,230.58,267.51,264.18,-148.53,-231.45,-301.95,-37.74,35.45,82.64,0,120.38,0.22
dw_cut_4_n1_2f_opt_disp_struct_15.xyz,Nucleus 19C :,4.752045,-6.838206,2.701597,159.58,121.96,191.1,165.68,252.21,227.35,218.72,-97.13,-55.84,-66.56,121.96,165.68,191.1,0,69.14,0.26
dw_cut_4_n1_2f_opt_disp_struct_15.xyz,Nucleus 20C :,3.670765,-5.774989,2.620491,2.55,-87.0,67.11,27.53,202.69,255.0,267.22,-135.61,-342.0,-239.68,-87.0,27.53,67.11,0,154.11,0.49
dw_cut_4_n1_2f_opt_disp_struct_15.xyz,Nucleus 5N :,2.759757,-5.880589,3.491334,124.8,57.21,184.51,132.69,293.72,338.25,330.12,-109.25,-205.02,-273.4,57.21,132.69,184.51,0,127.3,0.19
dw_cut_4_n1_2f_opt_disp_struct_15.xyz,Nucleus 21O :,3.816014,-4.912969,1.709845,-18.04,230.55,-31.21,-253.47,396.18,410.56,427.98,-181.57,-439.61,-667.67,-253.47,-31.21,230.55,0,484.02,-0.08
dw_cut_4_n1_2f_opt_disp_struct_15.xyz,Nucleus 22O :,4.337106,-7.788364,2.342086,-40.86,207.83,-277.78,-52.62,401.67,445.83,430.81,-237.08,-698.43,-465.37,-277.78,-52.62,207.83,0,485.61,-0.07
dw_cut_4_n1_2f_opt_disp_struct_15.xyz,Nucleus 10F :,5.631392,-6.595461,2.094572,309.31,403.3,228.75,295.87,485.84,467.92,460.52,-64.43,-232.03,-189.9,228.75,295.87,403.3,0,174.55,-0.23
dw_cut_4_n1_2f_opt_disp_struct_15.xyz,Nucleus 16F :,5.051211,-6.996277,3.743418,328.5,415.25,261.54,308.71,486.35,461.34,465.51,-50.32,-200.07,-177.32,261.54,308.71,415.25,0,153.71,-0.39
dw_cut_4_n1_2f_opt_disp_struct_16.xyz,Nucleus 1H :,0.97576,-0.03651,-1.323256,29.25,35.22,23.62,28.91,40.26,26.66,29.07,-6.08,0.34,-2.5,23.62,28.91,35.22,0,11.6,-0.09
dw_cut_4_n1_2f_opt_disp_struct_16.xyz,Nucleus 2H :,1.726361,0.651921,-1.727964,28.43,34.56,23.81,26.93,44.72,24.18,26.39,-11.21,2.55,-1.33,23.81,26.93,34.56,0,10.75,-0.42
dw_cut_4_n1_2f_opt_disp_struct_16.xyz,Nucleus 6H :,1.252572,-1.055742,-1.627744,24.04,15.69,25.55,30.87,11.77,30.75,49.09,-18.59,4.08,-4.99,15.69,25.55,30.87,0,15.18,0.3
dw_cut_4_n1_2f_opt_disp_struct_16.xyz,Nucleus 12H :,0.895893,0.08325,0.156237,24.48,20.61,25.16,27.66,46.27,18.02,29.94,-21.03,2.72,-2.48,20.61,25.16,27.66,0,7.05,0.29
dw_cut_4_n1_2f_opt_disp_struct_16.xyz,Nucleus 14H :,1.680246,0.892085,0.957022,24.4,20.65,27.42,25.13,5.67,32.11,44.03,15.01,-4.81,-18.81,20.65,25.13,27.42,0,6.77,0.32
dw_cut_4_n1_2f_opt_disp_struct_16.xyz,Nucleus 17H :,1.293815,0.719171,2.259203,24.43,20.91,25.51,26.87,44.58,27.31,30.92,-18.94,-6.38,-4.21,20.91,25.51,26.87,0,5.96,0.54
dw_cut_4_n1_2f_opt_disp_struct_16.xyz,Nucleus 18H :,1.67575,1.194397,3.054495,28.84,34.88,27.87,23.77,42.14,27.37,32.36,-0.04,-9.88,-5.42,23.77,27.87,34.88,0,11.11,-0.26
dw_cut_4_n1_2f_opt_disp_struct_16.xyz,Nucleus 23H :,0.265102,-0.187976,2.326963,29.78,32.55,29.12,27.67,12.86,23.47,37.51,15.66,5.14,-5.31,27.67,29.12,32.55,0,4.88,-0.41
dw_cut_4_n1_2f_opt_disp_struct_16.xyz,Nucleus 24H :,-0.011825,-0.605534,1.023692,30.3,34.35,26.36,30.2,39.56,11.71,25.12,-5.43,14.67,5.28,26.36,30.2,34.35,0,7.99,-0.04
dw_cut_4_n1_2f_opt_disp_struct_16.xyz,Nucleus 25H :,-1.046842,-1.546103,0.839813,29.99,33.38,29.83,26.76,38.77,20.27,10.86,-5.55,9.43,16.19,26.76,29.83,33.38,0,6.62,-0.07
dw_cut_4_n1_2f_opt_disp_struct_16.xyz,Nucleus 0C :,-1.361366,-1.98316,-0.388182,170.49,186.37,164.67,160.42,256.48,240.09,236.69,-78.56,-75.37,-67.87,160.42,164.67,186.37,0,25.95,-0.67
dw_cut_4_n1_2f_opt_disp_struct_16.xyz,Nucleus 3C :,-1.7624,-2.039097,1.935664,61.93,148.36,53.28,-15.86,240.5,272.23,262.75,-92.14,-218.81,-278.73,-15.86,53.28,148.36,0,164.22,-0.16
dw_cut_4_n1_2f_opt_disp_struct_16.xyz,Nucleus 4C :,-2.515117,-2.803272,1.772608,57.09,-26.5,126.83,70.95,254.26,263.82,273.36,-292.23,-131.05,-196.87,-26.5,70.95,126.83,0,153.33,0.27
dw_cut_4_n1_2f_opt_disp_struct_16.xyz,Nucleus 7C :,-1.460012,-1.603201,3.223667,51.87,137.89,-3.16,20.89,259.24,272.97,268.27,-122.56,-275.91,-246.38,-3.16,20.89,137.89,0,141.05,-0.66
dw_cut_4_n1_2f_opt_disp_struct_16.xyz,Nucleus 8C :,-1.972282,-2.01577,4.084675,58.07,158.38,21.09,-5.27,234.49,263.06,266.68,-76.12,-242.34,-271.57,-5.27,21.09,158.38,0,163.65,-0.68
dw_cut_4_n1_2f_opt_disp_struct_16.xyz,Nucleus 9C :,-0.442696,-0.672189,3.42899,16.52,-59.51,76.07,33.0,235.52,266.38,264.25,-325.27,-159.79,-231.51,-59.51,33.0,76.07,0,135.58,0.36
dw_cut_4_n1_2f_opt_disp_struct_16.xyz,Nucleus 11C :,-0.155016,-0.253606,4.667938,69.63,161.3,-14.19,61.78,238.45,261.15,270.5,-77.35,-277.7,-206.15,-14.19,61.78,161.3,0,175.49,-0.13
dw_cut_4_n1_2f_opt_disp_struct_16.xyz,Nucleus 13C :,2.484357,1.562545,0.68712,67.48,163.22,54.97,-15.75,225.29,260.23,272.92,-62.07,-217.2,-276.72,-15.75,54.97,163.22,0,178.97,-0.21
dw_cut_4_n1_2f_opt_disp_struct_16.xyz,Nucleus 15C :,0.016001,0.186902,-1.804456,26.81,82.64,35.48,-37.69,230.72,267.35,264.07,-148.59,-231.36,-301.76,-37.69,35.48,82.64,0,120.33,0.22
dw_cut_4_n1_2f_opt_disp_struct_16.xyz,Nucleus 19C :,4.917198,-7.024279,2.72612,159.56,121.94,191.04,165.7,252.17,226.94,218.01,-96.45,-55.72,-66.27,121.94,165.7,191.04,0,69.1,0.27
dw_cut_4_n1_2f_opt_disp_struct_16.xyz,Nucleus 20C :,3.835918,-5.961062,2.645014,2.51,-87.14,67.11,27.55,202.66,254.84,267.65,-135.57,-341.99,-240.08,-87.14,27.55,67.11,0,154.25,0.49
dw_cut_4_n1_2f_opt_disp_struct_16.xyz,Nucleus 5N :,2.92491,-6.066662,3.515857,124.7,57.04,184.53,132.53,293.73,338.17,329.97,-109.25,-205.09,-273.43,57.04,132.53,184.53,0,127.49,0.18
dw_cut_4_n1_2f_opt_disp_struct_16.xyz,Nucleus 21O :,3.981166,-5.099042,1.734368,-18.01,230.87,-31.27,-253.62,396.09,411.53,428.51,-182.47,-439.75,-667.95,-253.62,-31.27,230.87,0,484.49,-0.08
dw_cut_4_n1_2f_opt_disp_struct_16.xyz,Nucleus 22O :,4.502258,-7.974437,2.36661,-41.08,208.11,-278.37,-52.97,401.63,447.16,431.21,-238.12,-699.68,-465.43,-278.37,-52.97,208.11,0,486.48,-0.07
dw_cut_4_n1_2f_opt_disp_struct_16.xyz,Nucleus 10F :,5.796545,-6.781534,2.119096,309.1,403.27,228.46,295.58,485.68,467.79,460.41,-64.35,-232.2,-190.02,228.46,295.58,403.27,0,174.81,-0.23
dw_cut_4_n1_2f_opt_disp_struct_16.xyz,Nucleus 16F :,5.216364,-7.18235,3.767942,328.27,415.17,261.21,308.44,486.16,461.24,465.65,-50.53,-200.27,-177.42,261.21,308.44,415.17,0,153.96,-0.39
dw_cut_4_n1_2f_opt_disp_struct_17.xyz,Nucleus 1H :,0.97576,-0.03651,-1.323256,29.24,35.21,23.61,28.9,40.24,26.61,29.04,-6.06,0.36,-2.48,23.61,28.9,35.21,0,11.6,-0.09
dw_cut_4_n1_2f_opt_disp_struct_17.xyz,Nucleus 2H :,1.726361,0.651921,-1.727964,28.45,34.59,23.81,26.94,44.68,24.17,26.35,-11.15,2.58,-1.3,23.81,26.94,34.59,0,10.78,-0.42
dw_cut_4_n1_2f_opt_disp_struct_17.xyz,Nucleus 6H :,1.252572,-1.055742,-1.627744,24.03,15.67,25.55,30.86,11.75,30.72,49.01,-18.52,4.07,-4.96,15.67,25.55,30.86,0,15.19,0.3
dw_cut_4_n1_2f_opt_disp_struct_17.xyz,Nucleus 12H :,0.895893,0.08325,0.156237,24.47,20.59,25.17,27.66,46.19,18.02,29.93,-20.94,2.68,-2.47,20.59,25.17,27.66,0,7.07,0.3
dw_cut_4_n1_2f_opt_disp_struct_17.xyz,Nucleus 14H :,1.680246,0.892085,0.957022,24.39,20.62,27.43,25.13,5.69,32.07,44.0,14.95,-4.75,-18.78,20.62,25.13,27.43,0,6.81,0.33
dw_cut_4_n1_2f_opt_disp_struct_17.xyz,Nucleus 17H :,1.293815,0.719171,2.259203,24.42,20.88,25.51,26.87,44.54,27.29,30.88,-18.9,-6.38,-4.17,20.88,25.51,26.87,0,5.99,0.55
dw_cut_4_n1_2f_opt_disp_struct_17.xyz,Nucleus 18H :,1.67575,1.194397,3.054495,28.84,34.87,27.87,23.77,42.11,27.33,32.3,-0.02,-9.83,-5.39,23.77,27.87,34.87,0,11.1,-0.26
dw_cut_4_n1_2f_opt_disp_struct_17.xyz,Nucleus 23H :,0.265102,-0.187976,2.326963,29.77,32.52,29.12,27.68,12.3,23.49,37.48,16.25,5.13,-5.33,27.68,29.12,32.52,0,4.84,-0.4
dw_cut_4_n1_2f_opt_disp_struct_17.xyz,Nucleus 24H :,-0.011825,-0.605534,1.023692,30.29,34.33,26.37,30.18,39.6,11.22,24.94,-5.5,15.17,5.45,26.37,30.18,34.33,0,7.96,-0.04
dw_cut_4_n1_2f_opt_disp_struct_17.xyz,Nucleus 25H :,-1.046842,-1.546103,0.839813,29.98,33.35,29.83,26.77,38.72,20.2,10.39,-5.54,9.49,16.68,26.77,29.83,33.35,0,6.58,-0.07
dw_cut_4_n1_2f_opt_disp_struct_17.xyz,Nucleus 0C :,-1.361366,-1.98316,-0.388182,170.5,186.36,164.71,160.42,256.5,239.96,236.64,-78.46,-75.25,-67.9,160.42,164.71,186.36,0,25.94,-0.67
dw_cut_4_n1_2f_opt_disp_struct_17.xyz,Nucleus 3C :,-1.7624,-2.039097,1.935664,61.91,148.33,53.25,-15.84,240.47,272.12,262.77,-92.15,-218.75,-278.72,-15.84,53.25,148.33,0,164.17,-0.16
dw_cut_4_n1_2f_opt_disp_struct_17.xyz,Nucleus 4C :,-2.515117,-2.803272,1.772608,56.99,-26.64,126.86,70.75,254.32,263.56,273.32,-292.29,-130.98,-196.95,-26.64,70.75,126.86,0,153.5,0.27
dw_cut_4_n1_2f_opt_disp_struct_17.xyz,Nucleus 7C :,-1.460012,-1.603201,3.223667,51.91,137.87,-3.06,20.92,259.2,272.78,268.14,-122.45,-275.63,-246.3,-3.06,20.92,137.87,0,140.93,-0.66
dw_cut_4_n1_2f_opt_disp_struct_17.xyz,Nucleus 8C :,-1.972282,-2.01577,4.084675,58.1,158.34,21.18,-5.23,234.48,263.01,266.59,-76.15,-242.19,-271.44,-5.23,21.18,158.34,0,163.57,-0.68
dw_cut_4_n1_2f_opt_disp_struct_17.xyz,Nucleus 9C :,-0.442696,-0.672189,3.42899,16.55,-59.44,76.07,33.02,235.49,266.25,264.24,-325.11,-159.73,-231.48,-59.44,33.02,76.07,0,135.51,0.36
dw_cut_4_n1_2f_opt_disp_struct_17.xyz,Nucleus 11C :,-0.155016,-0.253606,4.667938,69.64,161.32,-14.16,61.75,238.4,261.01,270.5,-77.27,-277.53,-206.19,-14.16,61.75,161.32,0,175.48,-0.13
dw_cut_4_n1_2f_opt_disp_struct_17.xyz,Nucleus 13C :,2.484357,1.562545,0.68712,67.51,163.23,54.99,-15.68,225.28,260.13,272.85,-62.06,-217.09,-276.58,-15.68,54.99,163.23,0,178.91,-0.21
dw_cut_4_n1_2f_opt_disp_struct_17.xyz,Nucleus 15C :,0.016001,0.186902,-1.804456,26.83,82.63,35.5,-37.64,230.83,267.22,263.96,-148.64,-231.29,-301.59,-37.64,35.5,82.63,0,120.27,0.22
dw_cut_4_n1_2f_opt_disp_struct_17.xyz,Nucleus 19C :,5.082351,-7.210352,2.750644,159.55,121.94,190.99,165.71,252.13,226.5,217.24,-95.69,-55.56,-65.99,121.94,165.71,190.99,0,69.05,0.27
dw_cut_4_n1_2f_opt_disp_struct_17.xyz,Nucleus 20C :,4.00107,-6.147135,2.669538,2.48,-87.25,67.13,27.56,202.61,254.71,268.08,-135.5,-341.98,-240.49,-87.25,27.56,67.13,0,154.38,0.49
dw_cut_4_n1_2f_opt_disp_struct_17.xyz,Nucleus 5N :,3.090063,-6.252735,3.540381,124.61,56.9,184.54,132.4,293.75,338.09,329.84,-109.26,-205.14,-273.44,56.9,132.4,184.54,0,127.64,0.18
dw_cut_4_n1_2f_opt_disp_struct_17.xyz,Nucleus 21O :,4.146319,-5.285115,1.758892,-17.99,231.06,-31.31,-253.71,396.02,412.57,429.06,-183.6,-439.86,-668.16,-253.71,-31.31,231.06,0,484.77,-0.08
dw_cut_4_n1_2f_opt_disp_struct_17.xyz,Nucleus 22O :,4.667411,-8.16051,2.391133,-41.22,208.27,-278.72,-53.22,401.58,448.51,431.6,-239.31,-700.63,-465.42,-278.72,-53.22,208.27,0,486.99,-0.07
dw_cut_4_n1_2f_opt_disp_struct_17.xyz,Nucleus 10F :,5.961698,-6.967607,2.143619,308.93,403.25,228.21,295.34,485.53,467.68,460.31,-64.27,-232.34,-190.11,228.21,295.34,403.25,0,175.04,-0.23
dw_cut_4_n1_2f_opt_disp_struct_17.xyz,Nucleus 16F :,5.381516,-7.368423,3.792465,328.09,415.1,260.94,308.22,485.99,461.15,465.77,-50.72,-200.43,-177.5,260.94,308.22,415.1,0,154.16,-0.39
dw_cut_4_n1_2f_opt_disp_struct_18.xyz,Nucleus 1H :,0.97576,-0.03651,-1.323256,29.23,35.21,23.59,28.89,40.23,26.58,29.01,-6.05,0.39,-2.47,23.59,28.89,35.21,0,11.62,-0.09
dw_cut_4_n1_2f_opt_disp_struct_18.xyz,Nucleus 2H :,1.726361,0.651921,-1.727964,28.46,34.61,23.81,26.95,44.65,24.15,26.32,-11.1,2.61,-1.26,23.81,26.95,34.61,0,10.8,-0.42
dw_cut_4_n1_2f_opt_disp_struct_18.xyz,Nucleus 6H :,1.252572,-1.055742,-1.627744,24.02,15.65,25.54,30.86,11.73,30.69,48.94,-18.45,4.07,-4.94,15.65,25.54,30.86,0,15.21,0.3
dw_cut_4_n1_2f_opt_disp_struct_18.xyz,Nucleus 12H :,0.895893,0.08325,0.156237,24.46,20.56,25.17,27.66,46.12,18.02,29.93,-20.86,2.64,-2.46,20.56,25.17,27.66,0,7.1,0.3
dw_cut_4_n1_2f_opt_disp_struct_18.xyz,Nucleus 14H :,1.680246,0.892085,0.957022,24.39,20.6,27.44,25.14,5.72,32.02,43.98,14.91,-4.7,-18.75,20.6,25.14,27.44,0,6.84,0.33
dw_cut_4_n1_2f_opt_disp_struct_18.xyz,Nucleus 17H :,1.293815,0.719171,2.259203,24.41,20.86,25.5,26.87,44.5,27.27,30.85,-18.87,-6.38,-4.13,20.86,25.5,26.87,0,6.01,0.54
dw_cut_4_n1_2f_opt_disp_struct_18.xyz,Nucleus 18H :,1.67575,1.194397,3.054495,28.83,34.86,27.86,23.76,42.08,27.29,32.24,0.0,-9.77,-5.35,23.76,27.86,34.86,0,11.1,-0.26
dw_cut_4_n1_2f_opt_disp_struct_18.xyz,Nucleus 23H :,0.265102,-0.187976,2.326963,29.77,32.49,29.13,27.68,11.72,23.49,37.45,16.85,5.12,-5.35,27.68,29.13,32.49,0,4.81,-0.4
dw_cut_4_n1_2f_opt_disp_struct_18.xyz,Nucleus 24H :,-0.011825,-0.605534,1.023692,30.28,34.32,26.38,30.15,39.65,10.72,24.75,-5.58,15.68,5.62,26.38,30.15,34.32,0,7.94,-0.05
dw_cut_4_n1_2f_opt_disp_struct_18.xyz,Nucleus 25H :,-1.046842,-1.546103,0.839813,29.97,33.32,29.82,26.77,38.67,20.12,9.91,-5.53,9.57,17.18,26.77,29.82,33.32,0,6.55,-0.07
dw_cut_4_n1_2f_opt_disp_struct_18.xyz,Nucleus 0C :,-1.361366,-1.98316,-0.388182,170.51,186.35,164.74,160.43,256.52,239.85,236.6,-78.37,-75.14,-67.92,160.43,164.74,186.35,0,25.92,-0.67
dw_cut_4_n1_2f_opt_disp_struct_18.xyz,Nucleus 3C :,-1.7624,-2.039097,1.935664,61.9,148.31,53.23,-15.83,240.45,272.03,262.79,-92.15,-218.7,-278.71,-15.83,53.23,148.31,0,164.14,-0.16
dw_cut_4_n1_2f_opt_disp_struct_18.xyz,Nucleus 4C :,-2.515117,-2.803272,1.772608,56.9,-26.76,126.88,70.58,254.38,263.3,273.28,-292.34,-130.93,-197.01,-26.76,70.58,126.88,0,153.64,0.27
dw_cut_4_n1_2f_opt_disp_struct_18.xyz,Nucleus 7C :,-1.460012,-1.603201,3.223667,51.94,137.85,-2.98,20.94,259.17,272.63,268.0,-122.36,-275.4,-246.22,-2.98,20.94,137.85,0,140.83,-0.66
dw_cut_4_n1_2f_opt_disp_struct_18.xyz,Nucleus 8C :,-1.972282,-2.01577,4.084675,58.12,158.31,21.26,-5.2,234.46,262.98,266.5,-76.17,-242.07,-271.33,-5.2,21.26,158.31,0,163.51,-0.68
dw_cut_4_n1_2f_opt_disp_struct_18.xyz,Nucleus 9C :,-0.442696,-0.672189,3.42899,16.58,-59.38,76.07,33.04,235.49,266.14,264.24,-324.98,-159.68,-231.46,-59.38,33.04,76.07,0,135.45,0.36
dw_cut_4_n1_2f_opt_disp_struct_18.xyz,Nucleus 11C :,-0.155016,-0.253606,4.667938,69.64,161.33,-14.13,61.73,238.36,260.88,270.51,-77.2,-277.39,-206.24,-14.13,61.73,161.33,0,175.46,-0.14
dw_cut_4_n1_2f_opt_disp_struct_18.xyz,Nucleus 13C :,2.484357,1.562545,0.68712,67.54,163.23,55.01,-15.62,225.27,260.05,272.8,-62.04,-217.0,-276.45,-15.62,55.01,163.23,0,178.85,-0.21
dw_cut_4_n1_2f_opt_disp_struct_18.xyz,Nucleus 15C :,0.016001,0.186902,-1.804456,26.85,82.63,35.52,-37.6,230.93,267.11,263.85,-148.68,-231.23,-301.44,-37.6,35.52,82.63,0,120.23,0.22
dw_cut_4_n1_2f_opt_disp_struct_18.xyz,Nucleus 19C :,5.247503,-7.396425,2.775168,159.53,121.94,190.95,165.71,252.1,226.01,216.41,-94.86,-55.35,-65.71,121.94,165.71,190.95,0,69.01,0.27
dw_cut_4_n1_2f_opt_disp_struct_18.xyz,Nucleus 20C :,4.166223,-6.333208,2.694062,2.46,-87.36,67.16,27.57,202.53,254.6,268.52,-135.39,-341.99,-240.9,-87.36,27.57,67.16,0,154.52,0.49
dw_cut_4_n1_2f_opt_disp_struct_18.xyz,Nucleus 5N :,3.255216,-6.438808,3.564905,124.54,56.78,184.54,132.29,293.77,338.01,329.72,-109.27,-205.17,-273.44,56.78,132.29,184.54,0,127.76,0.18
dw_cut_4_n1_2f_opt_disp_struct_18.xyz,Nucleus 21O :,4.311472,-5.471188,1.783415,-17.97,231.19,-31.34,-253.77,395.95,413.66,429.63,-184.89,-439.95,-668.32,-253.77,-31.34,231.19,0,484.96,-0.08
dw_cut_4_n1_2f_opt_disp_struct_18.xyz,Nucleus 22O :,4.832564,-8.346583,2.415657,-41.32,208.39,-278.92,-53.42,401.54,449.91,431.96,-240.58,-701.37,-465.4,-278.92,-53.42,208.39,0,487.31,-0.07
dw_cut_4_n1_2f_opt_disp_struct_18.xyz,Nucleus 10F :,6.12685,-7.15368,2.168143,308.79,403.23,228.0,295.13,485.39,467.58,460.21,-64.21,-232.45,-190.18,228.0,295.13,403.23,0,175.23,-0.23
dw_cut_4_n1_2f_opt_disp_struct_18.xyz,Nucleus 16F :,5.546669,-7.554496,3.816989,327.92,415.04,260.7,308.02,485.84,461.06,465.87,-50.88,-200.57,-177.56,260.7,308.02,415.04,0,154.34,-0.39
dw_cut_4_n1_2f_opt_disp_struct_19.xyz,Nucleus 1H :,0.97576,-0.03651,-1.323256,29.22,35.2,23.58,28.88,40.22,26.54,28.97,-6.03,0.41,-2.45,23.58,28.88,35.2,0,11.62,-0.09
dw_cut_4_n1_2f_opt_disp_struct_19.xyz,Nucleus 2H :,1.726361,0.651921,-1.727964,28.47,34.63,23.81,26.96,44.61,24.14,26.29,-11.05,2.64,-1.22,23.81,26.96,34.63,0,10.82,-0.42
dw_cut_4_n1_2f_opt_disp_struct_19.xyz,Nucleus 6H :,1.252572,-1.055742,-1.627744,24.01,15.63,25.54,30.85,11.72,30.66,48.88,-18.38,4.06,-4.92,15.63,25.54,30.85,0,15.22,0.3
dw_cut_4_n1_2f_opt_disp_struct_19.xyz,Nucleus 12H :,0.895893,0.08325,0.156237,24.46,20.54,25.18,27.67,46.05,18.03,29.93,-20.79,2.61,-2.45,20.54,25.18,27.67,0,7.13,0.3
dw_cut_4_n1_2f_opt_disp_struct_19.xyz,Nucleus 14H :,1.680246,0.892085,0.957022,24.39,20.58,27.44,25.15,5.73,31.98,43.96,14.87,-4.65,-18.72,20.58,25.15,27.44,0,6.86,0.33
dw_cut_4_n1_2f_opt_disp_struct_19.xyz,Nucleus 17H :,1.293815,0.719171,2.259203,24.4,20.84,25.49,26.87,44.46,27.25,30.81,-18.84,-6.38,-4.1,20.84,25.49,26.87,0,6.03,0.54
dw_cut_4_n1_2f_opt_disp_struct_19.xyz,Nucleus 18H :,1.67575,1.194397,3.054495,28.82,34.85,27.85,23.75,42.04,27.26,32.18,0.02,-9.73,-5.32,23.75,27.85,34.85,0,11.1,-0.26
dw_cut_4_n1_2f_opt_disp_struct_19.xyz,Nucleus 23H :,0.265102,-0.187976,2.326963,29.76,29.13,27.69,32.46,11.13,23.49,37.43,17.46,5.12,-5.36,27.69,29.13,32.46,0,4.77,-0.4
dw_cut_4_n1_2f_opt_disp_struct_19.xyz,Nucleus 24H :,-0.011825,-0.605534,1.023692,30.28,34.31,26.39,30.13,39.7,10.2,24.57,-5.65,16.21,5.8,26.39,30.13,34.31,0,7.92,-0.06
dw_cut_4_n1_2f_opt_disp_struct_19.xyz,Nucleus 25H :,-1.046842,-1.546103,0.839813,29.97,33.3,29.82,26.78,38.63,20.03,9.42,-5.53,9.65,17.69,26.78,29.82,33.3,0,6.52,-0.07
dw_cut_4_n1_2f_opt_disp_struct_19.xyz,Nucleus 0C :,-1.361366,-1.98316,-0.388182,170.51,186.34,164.77,160.43,256.53,239.75,236.55,-78.29,-75.05,-67.94,160.43,164.77,186.34,0,25.91,-0.66
dw_cut_4_n1_2f_opt_disp_struct_19.xyz,Nucleus 3C :,-1.7624,-2.039097,1.935664,61.89,148.29,53.2,-15.82,240.44,271.94,262.8,-92.16,-218.65,-278.7,-15.82,53.2,148.29,0,164.11,-0.16
dw_cut_4_n1_2f_opt_disp_struct_19.xyz,Nucleus 4C :,-2.515117,-2.803272,1.772608,56.82,-26.87,126.9,70.42,254.45,263.05,273.25,-292.37,-130.87,-197.06,-26.87,70.42,126.9,0,153.77,0.27
dw_cut_4_n1_2f_opt_disp_struct_19.xyz,Nucleus 7C :,-1.460012,-1.603201,3.223667,51.97,137.84,-2.91,20.97,259.14,272.5,267.86,-122.27,-275.2,-246.14,-2.91,20.97,137.84,0,140.75,-0.66
dw_cut_4_n1_2f_opt_disp_struct_19.xyz,Nucleus 8C :,-1.972282,-2.01577,4.084675,58.14,158.28,21.33,-5.18,234.45,262.96,266.42,-76.19,-241.98,-271.23,-5.18,21.33,158.28,0,163.46,-0.68
dw_cut_4_n1_2f_opt_disp_struct_19.xyz,Nucleus 9C :,-0.442696,-0.672189,3.42899,16.6,-59.32,76.07,33.05,235.48,266.04,264.25,-324.87,-159.64,-231.45,-59.32,33.05,76.07,0,135.39,0.36
dw_cut_4_n1_2f_opt_disp_struct_19.xyz,Nucleus 11C :,-0.155016,-0.253606,4.667938,69.65,161.34,-14.1,61.71,238.32,260.76,270.52,-77.13,-277.26,-206.27,-14.1,61.71,161.34,0,175.44,-0.14
dw_cut_4_n1_2f_opt_disp_struct_19.xyz,Nucleus 13C :,2.484357,1.562545,0.68712,67.57,163.24,55.03,-15.57,225.26,259.97,272.75,-62.03,-216.91,-276.33,-15.57,55.03,163.24,0,178.81,-0.21
dw_cut_4_n1_2f_opt_disp_struct_19.xyz,Nucleus 15C :,0.016001,0.186902,-1.804456,26.86,82.63,35.53,-37.57,231.01,267.03,263.74,-148.72,-231.17,-301.3,-37.57,35.53,82.63,0,120.2,0.22
dw_cut_4_n1_2f_opt_disp_struct_19.xyz,Nucleus 19C :,5.412656,-7.582498,2.799691,159.52,121.94,190.9,165.71,252.08,225.51,215.54,-93.99,-55.12,-65.45,121.94,165.71,190.9,0,68.96,0.27
dw_cut_4_n1_2f_opt_disp_struct_19.xyz,Nucleus 20C :,4.331376,-6.519281,2.718585,2.44,-87.45,67.18,27.58,202.42,254.51,268.95,-135.26,-342.0,-241.3,-87.45,27.58,67.18,0,154.63,0.49
dw_cut_4_n1_2f_opt_disp_struct_19.xyz,Nucleus 5N :,3.420368,-6.624881,3.589428,124.47,56.68,184.55,132.19,293.8,337.94,329.6,-109.29,-205.2,-273.43,56.68,132.19,184.55,0,127.87,0.18
dw_cut_4_n1_2f_opt_disp_struct_19.xyz,Nucleus 21O :,4.476625,-5.657261,1.807939,-17.96,231.29,-31.36,-253.8,395.89,414.71,430.24,-186.23,-440.02,-668.46,-253.8,-31.36,231.29,0,485.09,-0.08
dw_cut_4_n1_2f_opt_disp_struct_19.xyz,Nucleus 22O :,4.997717,-8.532656,2.440181,-41.37,208.49,-279.04,-53.57,401.51,451.33,432.3,-241.92,-701.99,-465.36,-279.04,-53.57,208.49,0,487.53,-0.08
dw_cut_4_n1_2f_opt_disp_struct_19.xyz,Nucleus 10F :,6.292003,-7.339753,2.192667,308.65,403.21,227.81,294.94,485.27,467.5,460.13,-64.15,-232.54,-190.24,227.81,294.94,403.21,0,175.4,-0.23
dw_cut_4_n1_2f_opt_disp_struct_19.xyz,Nucleus 16F :,5.711822,-7.740569,3.841513,327.78,414.99,260.49,307.85,485.69,460.98,465.96,-51.02,-200.67,-177.61,260.49,307.85,414.99,0,154.5,-0.39
dw_cut_4_n1_2f_opt_disp_struct_2.xyz,Nucleus 1H :,0.97576,-0.03651,-1.323256,29.47,35.44,23.9,29.08,40.5,26.86,28.78,-6.18,1.17,-2.71,23.9,29.08,35.44,0,11.54,-0.1
dw_cut_4_n1_2f_opt_disp_struct_2.xyz,Nucleus 2H :,1.726361,0.651921,-1.727964,28.37,33.99,23.93,27.2,44.34,23.41,27.28,-11.75,2.65,-0.81,23.93,27.2,33.99,0,10.06,-0.35
dw_cut_4_n1_2f_opt_disp_struct_2.xyz,Nucleus 6H :,1.252572,-1.055742,-1.627744,24.67,16.3,25.99,31.71,12.61,32.06,49.05,-18.02,4.22,-5.92,16.3,25.99,31.71,0,15.41,0.26
dw_cut_4_n1_2f_opt_disp_struct_2.xyz,Nucleus 12H :,0.895893,0.08325,0.156237,24.97,21.38,25.76,27.78,47.73,18.04,32.21,-22.24,3.76,-4.57,21.38,25.76,27.78,0,6.4,0.37
dw_cut_4_n1_2f_opt_disp_struct_2.xyz,Nucleus 14H :,1.680246,0.892085,0.957022,24.45,21.52,26.96,24.88,4.78,36.65,44.28,16.86,-9.85,-19.36,21.52,24.88,26.96,0,5.44,0.24
dw_cut_4_n1_2f_opt_disp_struct_2.xyz,Nucleus 17H :,1.293815,0.719171,2.259203,24.88,21.53,26.14,26.97,45.14,28.05,31.28,-19.02,-6.55,-4.26,21.53,26.14,26.97,0,5.44,0.69
dw_cut_4_n1_2f_opt_disp_struct_2.xyz,Nucleus 18H :,1.67575,1.194397,3.054495,28.85,35.01,27.86,23.69,42.1,27.33,32.58,-10.46,-0.07,-4.92,23.69,27.86,35.01,0,11.32,-0.26
dw_cut_4_n1_2f_opt_disp_struct_2.xyz,Nucleus 23H :,0.265102,-0.187976,2.326963,30.08,33.92,28.87,27.44,38.49,21.19,19.21,-4.86,7.57,8.63,27.44,28.87,33.92,0,6.48,-0.56
dw_cut_4_n1_2f_opt_disp_struct_2.xyz,Nucleus 24H :,-0.011825,-0.605534,1.023692,30.63,35.18,25.89,30.82,38.84,14.62,27.73,11.33,-3.82,3.2,25.89,30.82,35.18,0,9.29,0.06
dw_cut_4_n1_2f_opt_disp_struct_2.xyz,Nucleus 25H :,-1.046842,-1.546103,0.839813,30.29,34.61,29.76,26.51,40.12,19.71,16.48,-5.6,9.37,10.8,26.51,29.76,34.61,0,8.1,-0.2
dw_cut_4_n1_2f_opt_disp_struct_2.xyz,Nucleus 0C :,-1.361366,-1.98316,-0.388182,169.65,186.48,162.87,159.61,254.88,239.99,236.92,-66.22,-78.43,-78.17,159.61,162.87,186.48,0,26.87,-0.76
dw_cut_4_n1_2f_opt_disp_struct_2.xyz,Nucleus 3C :,-1.7624,-2.039097,1.935664,61.19,149.23,52.44,-18.11,241.67,262.65,275.61,-92.98,-221.6,-281.8,-18.11,52.44,149.23,0,167.34,-0.16
dw_cut_4_n1_2f_opt_disp_struct_2.xyz,Nucleus 4C :,-2.515117,-2.803272,1.772608,62.18,-19.16,125.69,80.02,255.14,264.93,274.25,-285.88,-133.17,-188.72,-19.16,80.02,125.69,0,144.85,0.37
dw_cut_4_n1_2f_opt_disp_struct_2.xyz,Nucleus 7C :,-1.460012,-1.603201,3.223667,51.2,138.44,-6.52,21.68,261.51,269.86,277.51,-129.1,-281.8,-244.37,-6.52,21.68,138.44,0,144.96,-0.61
dw_cut_4_n1_2f_opt_disp_struct_2.xyz,Nucleus 8C :,-1.972282,-2.01577,4.084675,50.97,159.85,9.38,-16.32,234.17,262.45,264.57,-74.89,-254.66,-278.72,-16.32,9.38,159.85,0,176.17,-0.71
dw_cut_4_n1_2f_opt_disp_struct_2.xyz,Nucleus 9C :,-0.442696,-0.672189,3.42899,15.68,-60.76,31.6,76.19,237.24,263.98,268.09,-328.64,-232.28,-161.36,-60.76,31.6,76.19,0,136.95,0.35
dw_cut_4_n1_2f_opt_disp_struct_2.xyz,Nucleus 11C :,-0.155016,-0.253606,4.667938,70.73,160.23,-13.33,65.28,238.85,264.21,275.0,-80.4,-281.29,-204.19,-13.33,65.28,160.23,0,173.56,-0.09
dw_cut_4_n1_2f_opt_disp_struct_2.xyz,Nucleus 13C :,2.484357,1.562545,0.68712,63.91,162.78,51.73,-22.79,225.22,261.4,277.62,-63.16,-224.88,-284.48,-22.79,51.73,162.78,0,185.57,-0.2
dw_cut_4_n1_2f_opt_disp_struct_2.xyz,Nucleus 15C :,0.016001,0.186902,-1.804456,25.65,82.63,32.14,-37.82,230.1,270.84,264.6,-149.18,-238.0,-301.4,-37.82,32.14,82.63,0,120.45,0.16
dw_cut_4_n1_2f_opt_disp_struct_2.xyz,Nucleus 19C :,2.605059,-4.419257,2.382789,159.65,121.99,193.09,163.86,255.26,227.44,221.89,-100.06,-54.8,-70.79,121.99,163.86,193.09,0,71.1,0.18
dw_cut_4_n1_2f_opt_disp_struct_2.xyz,Nucleus 20C :,1.523779,-3.35604,2.301684,3.96,-81.59,73.11,20.36,201.12,257.45,265.38,-128.11,-343.7,-240.27,-81.59,20.36,73.11,0,154.7,0.32
dw_cut_4_n1_2f_opt_disp_struct_2.xyz,Nucleus 5N :,0.612772,-3.46164,3.172526,131.25,67.97,184.19,141.6,294.3,339.84,329.53,-110.34,-197.94,-261.64,67.97,141.6,184.19,0,116.22,0.27
dw_cut_4_n1_2f_opt_disp_struct_2.xyz,Nucleus 21O :,1.669028,-2.49402,1.391037,-45.32,208.59,-47.89,-296.66,401.47,415.9,422.95,-213.45,-451.46,-711.37,-296.66,-47.89,208.59,0,505.25,-0.02
dw_cut_4_n1_2f_opt_disp_struct_2.xyz,Nucleus 22O :,2.19012,-5.369415,2.023279,-58.91,-314.24,-57.48,194.99,397.99,420.77,430.45,-724.31,-476.33,-225.3,-314.24,-57.48,194.99,0,509.23,0.01
dw_cut_4_n1_2f_opt_disp_struct_2.xyz,Nucleus 10F :,3.484406,-4.176512,1.775765,320.22,404.08,247.95,308.63,460.91,471.78,489.11,-67.53,-213.24,-180.37,247.95,308.63,404.08,0,156.13,-0.22
dw_cut_4_n1_2f_opt_disp_struct_2.xyz,Nucleus 16F :,2.904225,-4.577328,3.424611,338.94,418.38,279.07,319.37,487.32,467.16,461.94,-46.59,-185.55,-167.46,279.07,319.37,418.38,0,139.31,-0.42
dw_cut_4_n1_2f_opt_disp_struct_3.xyz,Nucleus 1H :,0.97576,-0.03651,-1.323256,29.47,35.45,23.87,29.08,40.62,27.12,29.06,-6.43,0.74,-2.72,23.87,29.08,35.45,0,11.58,-0.1
dw_cut_4_n1_2f_opt_disp_struct_3.xyz,Nucleus 2H :,1.726361,0.651921,-1.727964,28.37,34.03,23.89,27.19,44.69,24.05,27.21,-12.01,2.21,-1.03,23.89,27.19,34.03,0,10.14,-0.35
dw_cut_4_n1_2f_opt_disp_struct_3.xyz,Nucleus 6H :,1.252572,-1.055742,-1.627744,24.55,16.21,25.9,31.53,12.48,31.82,49.52,-18.66,4.3,-5.81,16.21,25.9,31.53,0,15.32,0.26
dw_cut_4_n1_2f_opt_disp_struct_3.xyz,Nucleus 12H :,0.895893,0.08325,0.156237,24.85,21.29,25.56,27.71,47.9,17.64,31.89,-22.49,3.99,-4.37,21.29,25.56,27.71,0,6.42,0.33
dw_cut_4_n1_2f_opt_disp_struct_3.xyz,Nucleus 14H :,1.680246,0.892085,0.957022,24.5,21.41,27.08,25.0,4.19,35.23,44.53,17.31,-8.29,-19.49,21.41,25.0,27.08,0,5.67,0.26
dw_cut_4_n1_2f_opt_disp_struct_3.xyz,Nucleus 17H :,1.293815,0.719171,2.259203,24.81,21.45,26.04,26.94,45.22,28.06,31.49,-19.19,-6.57,-4.58,21.45,26.04,26.94,0,5.49,0.67
dw_cut_4_n1_2f_opt_disp_struct_3.xyz,Nucleus 18H :,1.67575,1.194397,3.054495,28.89,35.04,27.89,23.74,42.41,27.68,32.95,-0.31,-10.73,-5.32,23.74,27.89,35.04,0,11.3,-0.27
dw_cut_4_n1_2f_opt_disp_struct_3.xyz,Nucleus 23H :,0.265102,-0.187976,2.326963,30.03,33.74,28.9,27.44,38.33,21.11,18.53,-4.87,7.47,9.51,27.44,28.9,33.74,0,6.3,-0.54
dw_cut_4_n1_2f_opt_disp_struct_3.xyz,Nucleus 24H :,-0.011825,-0.605534,1.023692,30.58,35.05,25.94,30.75,38.71,14.32,27.33,-3.83,11.67,3.54,25.94,30.75,35.05,0,9.11,0.06
dw_cut_4_n1_2f_opt_disp_struct_3.xyz,Nucleus 25H :,-1.046842,-1.546103,0.839813,30.25,34.45,29.76,26.55,39.9,19.56,15.7,-5.53,9.78,11.35,26.55,29.76,34.45,0,7.9,-0.19
dw_cut_4_n1_2f_opt_disp_struct_3.xyz,Nucleus 0C :,-1.361366,-1.98316,-0.388182,169.79,186.56,163.11,159.71,255.33,240.85,237.2,-66.31,-79.28,-78.41,159.71,163.11,186.56,0,26.85,-0.75
dw_cut_4_n1_2f_opt_disp_struct_3.xyz,Nucleus 3C :,-1.7624,-2.039097,1.935664,61.26,149.13,52.46,-17.82,242.09,262.97,276.9,-93.35,-222.88,-281.96,-17.82,52.46,149.13,0,166.95,-0.16
dw_cut_4_n1_2f_opt_disp_struct_3.xyz,Nucleus 4C :,-2.515117,-2.803272,1.772608,61.4,-20.41,125.89,78.71,256.0,264.21,274.69,-287.09,-132.98,-190.64,-20.41,78.71,125.89,0,146.3,0.35
dw_cut_4_n1_2f_opt_disp_struct_3.xyz,Nucleus 7C :,-1.460012,-1.603201,3.223667,50.76,138.38,-6.69,20.59,261.67,270.82,278.79,-129.34,-283.44,-246.21,-6.69,20.59,138.38,0,145.07,-0.62
dw_cut_4_n1_2f_opt_disp_struct_3.xyz,Nucleus 8C :,-1.972282,-2.01577,4.084675,53.19,159.7,12.73,-12.85,234.29,266.53,264.69,-74.97,-253.78,-277.18,-12.85,12.73,159.7,0,172.55,-0.7
dw_cut_4_n1_2f_opt_disp_struct_3.xyz,Nucleus 9C :,-0.442696,-0.672189,3.42899,15.26,-61.81,75.98,31.61,238.08,265.4,269.22,-330.91,-233.63,-162.38,-61.81,31.61,75.98,0,137.79,0.36
dw_cut_4_n1_2f_opt_disp_struct_3.xyz,Nucleus 11C :,-0.155016,-0.253606,4.667938,70.26,160.45,-14.04,64.37,237.67,265.38,274.65,-79.04,-282.38,-205.49,-14.04,64.37,160.45,0,174.49,-0.1
dw_cut_4_n1_2f_opt_disp_struct_3.xyz,Nucleus 13C :,2.484357,1.562545,0.68712,64.7,162.88,52.22,-21.01,223.2,262.66,276.51,-61.28,-223.3,-283.69,-21.01,52.22,162.88,0,183.89,-0.2
dw_cut_4_n1_2f_opt_disp_struct_3.xyz,Nucleus 15C :,0.016001,0.186902,-1.804456,25.67,82.6,32.96,-38.54,229.87,270.51,265.73,-149.02,-236.36,-303.71,-38.54,32.96,82.6,0,121.14,0.18
dw_cut_4_n1_2f_opt_disp_struct_3.xyz,Nucleus 19C :,2.770212,-4.60533,2.407313,159.79,122.17,192.78,164.42,254.71,226.25,220.46,-98.42,-53.96,-69.67,122.17,164.42,192.78,0,70.61,0.2
dw_cut_4_n1_2f_opt_disp_struct_3.xyz,Nucleus 20C :,1.688932,-3.542113,2.326207,3.28,-82.27,70.08,22.02,202.2,257.49,264.53,-132.18,-343.24,-238.97,-82.27,22.02,70.08,0,152.35,0.37
dw_cut_4_n1_2f_opt_disp_struct_3.xyz,Nucleus 5N :,0.777924,-3.647713,3.19705,129.82,65.51,184.25,139.71,293.87,340.1,330.15,-110.03,-200.03,-264.59,65.51,139.71,184.25,0,118.74,0.25
dw_cut_4_n1_2f_opt_disp_struct_3.xyz,Nucleus 21O :,1.834181,-2.680093,1.415561,-32.14,217.66,-41.46,-272.62,400.61,412.78,418.41,-197.88,-444.84,-685.49,-272.62,-41.46,217.66,0,490.28,-0.06
dw_cut_4_n1_2f_opt_disp_struct_3.xyz,Nucleus 22O :,2.355272,-5.555488,2.047803,-45.47,204.09,-289.11,-51.4,398.02,419.56,427.98,-215.26,-696.0,-470.74,-289.11,-51.4,204.09,0,493.2,-0.04
dw_cut_4_n1_2f_opt_disp_struct_3.xyz,Nucleus 10F :,3.649559,-4.362585,1.800288,317.48,403.98,242.58,305.89,461.33,471.67,488.84,-67.59,-219.08,-182.73,242.58,305.89,403.98,0,161.4,-0.22
dw_cut_4_n1_2f_opt_disp_struct_3.xyz,Nucleus 16F :,3.069378,-4.763401,3.449134,336.72,417.79,275.08,317.29,487.54,466.76,462.4,-47.99,-188.84,-169.72,275.08,317.29,417.79,0,142.71,-0.41
dw_cut_4_n1_2f_opt_disp_struct_4.xyz,Nucleus 1H :,0.97576,-0.03651,-1.323256,29.45,35.43,23.86,29.06,40.67,27.24,29.23,-6.55,0.48,-2.71,23.86,29.06,35.43,0,11.57,-0.1
dw_cut_4_n1_2f_opt_disp_struct_4.xyz,Nucleus 2H :,1.726361,0.651921,-1.727964,28.36,34.07,23.86,27.16,44.9,24.38,27.15,-12.12,2.02,-1.24,23.86,27.16,34.07,0,10.21,-0.35
dw_cut_4_n1_2f_opt_disp_struct_4.xyz,Nucleus 6H :,1.252572,-1.055742,-1.627744,24.45,16.14,25.83,31.38,12.32,31.62,49.76,-19.03,4.38,-5.71,16.14,25.83,31.38,0,15.24,0.27
dw_cut_4_n1_2f_opt_disp_struct_4.xyz,Nucleus 12H :,0.895893,0.08325,0.156237,24.77,21.22,25.42,27.67,47.89,17.54,31.54,-22.56,3.94,-4.05,21.22,25.42,27.67,0,6.45,0.3
dw_cut_4_n1_2f_opt_disp_struct_4.xyz,Nucleus 14H :,1.680246,0.892085,0.957022,24.5,21.3,27.16,25.05,4.01,34.31,44.63,17.37,-7.27,-19.54,21.3,25.05,27.16,0,5.86,0.28
dw_cut_4_n1_2f_opt_disp_struct_4.xyz,Nucleus 17H :,1.293815,0.719171,2.259203,24.75,21.38,25.96,26.91,45.25,28.0,31.53,-19.3,-6.53,-4.71,21.38,25.96,26.91,0,5.53,0.66
dw_cut_4_n1_2f_opt_disp_struct_4.xyz,Nucleus 18H :,1.67575,1.194397,3.054495,28.91,35.04,27.91,23.77,42.58,27.86,33.15,-0.43,-10.85,-5.59,23.77,27.91,35.04,0,11.27,-0.27
dw_cut_4_n1_2f_opt_disp_struct_4.xyz,Nucleus 23H :,0.265102,-0.187976,2.326963,29.98,33.57,28.93,27.45,38.15,21.22,17.95,-4.85,10.21,7.28,27.45,28.93,33.57,0,6.12,-0.51
dw_cut_4_n1_2f_opt_disp_struct_4.xyz,Nucleus 24H :,-0.011825,-0.605534,1.023692,30.54,34.94,26.0,30.69,38.64,14.04,26.99,-3.88,12.0,3.84,26.0,30.69,34.94,0,8.94,0.05
dw_cut_4_n1_2f_opt_disp_struct_4.xyz,Nucleus 25H :,-1.046842,-1.546103,0.839813,30.22,34.3,29.78,26.57,39.69,19.54,15.12,-5.46,9.92,11.86,26.57,29.78,34.3,0,7.73,-0.17
dw_cut_4_n1_2f_opt_disp_struct_4.xyz,Nucleus 0C :,-1.361366,-1.98316,-0.388182,169.93,186.59,163.35,159.84,255.64,241.35,237.31,-66.5,-79.7,-78.32,159.84,163.35,186.59,0,26.75,-0.74
dw_cut_4_n1_2f_opt_disp_struct_4.xyz,Nucleus 3C :,-1.7624,-2.039097,1.935664,61.43,149.04,52.71,-17.46,242.37,263.18,277.45,-93.58,-223.34,-281.78,-17.46,52.71,149.04,0,166.5,-0.16
dw_cut_4_n1_2f_opt_disp_struct_4.xyz,Nucleus 4C :,-2.515117,-2.803272,1.772608,60.75,-21.38,126.06,77.57,256.46,263.7,274.84,-287.99,-132.74,-192.02,-21.38,77.57,126.06,0,147.44,0.34
dw_cut_4_n1_2f_opt_disp_struct_4.xyz,Nucleus 7C :,-1.460012,-1.603201,3.223667,50.73,138.34,-6.36,20.21,261.52,271.03,279.34,-128.86,-283.75,-247.1,-6.36,20.21,138.34,0,144.7,-0.63
dw_cut_4_n1_2f_opt_disp_struct_4.xyz,Nucleus 8C :,-1.972282,-2.01577,4.084675,54.74,159.5,15.12,-10.41,234.29,267.74,265.69,-75.04,-252.55,-275.92,-10.41,15.12,159.5,0,169.91,-0.7
dw_cut_4_n1_2f_opt_disp_struct_4.xyz,Nucleus 9C :,-0.442696,-0.672189,3.42899,15.27,-61.93,75.95,31.78,238.57,265.82,269.58,-331.4,-162.79,-233.98,-61.93,31.78,75.95,0,137.88,0.36
dw_cut_4_n1_2f_opt_disp_struct_4.xyz,Nucleus 11C :,-0.155016,-0.253606,4.667938,70.03,160.64,-14.36,63.8,237.49,265.66,274.09,-78.47,-282.59,-206.09,-14.36,63.8,160.64,0,175.0,-0.11
dw_cut_4_n1_2f_opt_disp_struct_4.xyz,Nucleus 13C :,2.484357,1.562545,0.68712,65.4,162.96,52.87,-19.63,222.47,263.2,275.95,-60.51,-222.07,-282.83,-19.63,52.87,162.96,0,182.59,-0.21
dw_cut_4_n1_2f_opt_disp_struct_4.xyz,Nucleus 15C :,0.016001,0.186902,-1.804456,25.81,82.61,33.59,-38.77,229.65,270.35,265.92,-148.68,-235.14,-304.66,-38.77,33.59,82.61,0,121.38,0.19
dw_cut_4_n1_2f_opt_disp_struct_4.xyz,Nucleus 19C :,2.935365,-4.791403,2.431837,159.83,122.27,192.48,164.73,254.22,225.3,219.28,-97.13,-53.32,-68.85,122.27,164.73,192.48,0,70.21,0.21
dw_cut_4_n1_2f_opt_disp_struct_4.xyz,Nucleus 20C :,1.854085,-3.728186,2.350731,2.94,-83.08,68.52,23.39,203.39,257.77,264.08,-134.9,-343.04,-238.47,-83.08,23.39,68.52,0,151.6,0.4
dw_cut_4_n1_2f_opt_disp_struct_4.xyz,Nucleus 5N :,0.943077,-3.833786,3.221574,128.78,63.71,184.31,138.33,293.5,340.23,330.46,-109.72,-201.47,-266.65,63.71,138.33,184.31,0,120.6,0.24
dw_cut_4_n1_2f_opt_disp_struct_4.xyz,Nucleus 21O :,1.999333,-2.866166,1.440084,-25.08,222.1,-36.35,-260.98,399.84,410.45,417.75,-190.03,-440.24,-672.99,-260.98,-36.35,222.1,0,483.08,-0.07
dw_cut_4_n1_2f_opt_disp_struct_4.xyz,Nucleus 22O :,2.520425,-5.741561,2.072326,-39.01,207.64,-277.31,-47.35,398.87,420.68,426.98,-213.13,-684.25,-466.18,-277.31,-47.35,207.64,0,484.95,-0.05
dw_cut_4_n1_2f_opt_disp_struct_4.xyz,Nucleus 10F :,3.814712,-4.548658,1.824812,315.69,403.88,239.26,303.94,461.49,471.34,488.47,-67.39,-222.59,-184.24,239.26,303.94,403.88,0,164.62,-0.21
dw_cut_4_n1_2f_opt_disp_struct_4.xyz,Nucleus 16F :,3.23453,-4.949474,3.473658,335.13,417.35,272.35,315.68,487.69,466.5,462.43,-48.72,-191.06,-171.47,272.35,315.68,417.35,0,145.0,-0.4
dw_cut_4_n1_2f_opt_disp_struct_5.xyz,Nucleus 1H :,0.97576,-0.03651,-1.323256,29.43,35.41,23.84,29.05,40.67,27.27,29.29,-6.57,0.32,-2.69,23.84,29.05,35.41,0,11.57,-0.1
dw_cut_4_n1_2f_opt_disp_struct_5.xyz,Nucleus 2H :,1.726361,0.651921,-1.727964,28.36,34.11,23.85,27.11,44.99,24.5,27.1,-12.11,1.98,-1.39,23.85,27.11,34.11,0,10.26,-0.37
dw_cut_4_n1_2f_opt_disp_struct_5.xyz,Nucleus 6H :,1.252572,-1.055742,-1.627744,24.38,16.09,25.78,31.26,12.18,31.47,49.87,-19.22,4.44,-5.61,16.09,25.78,31.26,0,15.17,0.28
dw_cut_4_n1_2f_opt_disp_struct_5.xyz,Nucleus 12H :,0.895893,0.08325,0.156237,24.7,21.14,25.32,27.64,47.78,17.59,31.21,-22.5,3.74,-3.72,21.14,25.32,27.64,0,6.5,0.29
dw_cut_4_n1_2f_opt_disp_struct_5.xyz,Nucleus 14H :,1.680246,0.892085,0.957022,24.5,21.2,27.22,25.07,4.13,33.73,44.64,17.14,-6.63,-19.52,21.2,25.07,27.22,0,6.02,0.28
dw_cut_4_n1_2f_opt_disp_struct_5.xyz,Nucleus 17H :,1.293815,0.719171,2.259203,24.7,21.33,25.88,26.9,45.24,27.9,31.49,-19.35,-6.46,-4.71,21.33,25.88,26.9,0,5.57,0.64
dw_cut_4_n1_2f_opt_disp_struct_5.xyz,Nucleus 18H :,1.67575,1.194397,3.054495,28.91,35.03,27.92,23.79,42.64,27.93,33.2,-0.47,-10.84,-5.72,23.79,27.92,35.03,0,11.24,-0.26
dw_cut_4_n1_2f_opt_disp_struct_5.xyz,Nucleus 23H :,0.265102,-0.187976,2.326963,29.95,33.42,28.97,27.47,37.98,21.4,17.41,-4.82,10.83,7.07,27.47,28.97,33.42,0,5.95,-0.49
dw_cut_4_n1_2f_opt_disp_struct_5.xyz,Nucleus 24H :,-0.011825,-0.605534,1.023692,30.5,34.83,26.05,30.63,38.62,13.79,26.67,-3.97,12.29,4.11,26.05,30.63,34.83,0,8.78,0.04
dw_cut_4_n1_2f_opt_disp_struct_5.xyz,Nucleus 25H :,-1.046842,-1.546103,0.839813,30.18,34.16,29.79,26.6,39.5,19.57,14.61,-5.4,9.94,12.34,26.6,29.79,34.16,0,7.56,-0.15
dw_cut_4_n1_2f_opt_disp_struct_5.xyz,Nucleus 0C :,-1.361366,-1.98316,-0.388182,170.03,186.58,163.56,159.96,255.83,241.59,237.34,-66.73,-79.89,-78.04,159.96,163.56,186.58,0,26.62,-0.73
dw_cut_4_n1_2f_opt_disp_struct_5.xyz,Nucleus 3C :,-1.7624,-2.039097,1.935664,61.6,148.95,52.95,-17.11,242.34,277.3,263.24,-93.54,-223.21,-281.33,-17.11,52.95,148.95,0,166.06,-0.16
dw_cut_4_n1_2f_opt_disp_struct_5.xyz,Nucleus 4C :,-2.515117,-2.803272,1.772608,60.17,-22.22,126.19,76.55,256.58,263.45,274.79,-288.73,-132.51,-193.06,-22.22,76.55,126.19,0,148.41,0.33
dw_cut_4_n1_2f_opt_disp_struct_5.xyz,Nucleus 7C :,-1.460012,-1.603201,3.223667,50.84,138.29,-5.9,20.14,261.53,270.35,279.31,-128.04,-283.4,-247.24,-5.9,20.14,138.29,0,144.19,-0.64
dw_cut_4_n1_2f_opt_disp_struct_5.xyz,Nucleus 8C :,-1.972282,-2.01577,4.084675,55.77,159.33,16.76,-8.77,234.12,268.12,266.27,-74.99,-251.24,-274.96,-8.77,16.76,159.33,0,168.1,-0.7
dw_cut_4_n1_2f_opt_disp_struct_5.xyz,Nucleus 9C :,-0.442696,-0.672189,3.42899,15.42,-61.69,75.97,31.98,238.65,265.77,269.51,-331.05,-162.78,-233.85,-61.69,31.98,75.97,0,137.66,0.36
dw_cut_4_n1_2f_opt_disp_struct_5.xyz,Nucleus 11C :,-0.155016,-0.253606,4.667938,69.88,160.78,-14.5,63.37,237.77,265.4,273.45,-78.33,-282.31,-206.32,-14.5,63.37,160.78,0,175.28,-0.11
dw_cut_4_n1_2f_opt_disp_struct_5.xyz,Nucleus 13C :,2.484357,1.562545,0.68712,65.94,163.02,53.44,-18.63,222.73,263.16,275.66,-60.59,-221.2,-281.93,-18.63,53.44,163.02,0,181.65,-0.21
dw_cut_4_n1_2f_opt_disp_struct_5.xyz,Nucleus 15C :,0.016001,0.186902,-1.804456,25.97,82.63,34.06,-38.77,229.52,265.7,270.13,-148.38,-234.27,-304.78,-38.77,34.06,82.63,0,121.4,0.2
dw_cut_4_n1_2f_opt_disp_struct_5.xyz,Nucleus 19C :,3.100518,-4.977476,2.45636,159.82,122.31,192.23,164.91,253.79,224.5,218.22,-96.04,-52.8,-68.21,122.31,164.91,192.23,0,69.92,0.22
dw_cut_4_n1_2f_opt_disp_struct_5.xyz,Nucleus 20C :,2.019237,-3.914259,2.375254,2.82,-83.82,67.8,24.47,204.05,257.9,264.1,-136.27,-342.92,-238.41,-83.82,24.47,67.8,0,151.62,0.43
dw_cut_4_n1_2f_opt_disp_struct_5.xyz,Nucleus 5N :,1.10823,-4.019859,3.246097,127.97,62.33,184.35,137.24,293.36,340.24,330.62,-109.59,-202.52,-268.2,62.33,137.24,184.35,0,122.02,0.23
dw_cut_4_n1_2f_opt_disp_struct_5.xyz,Nucleus 21O :,2.164486,-3.052239,1.464608,-21.4,224.31,-33.13,-255.38,399.22,409.8,418.64,-187.09,-437.89,-666.88,-255.38,-33.13,224.31,0,479.69,-0.07
dw_cut_4_n1_2f_opt_disp_struct_5.xyz,Nucleus 22O :,2.685578,-5.927634,2.09685,-36.51,208.5,-272.27,-45.75,399.74,422.89,426.95,-214.84,-680.52,-463.74,-272.27,-45.75,208.5,0,480.77,-0.06
dw_cut_4_n1_2f_opt_disp_struct_5.xyz,Nucleus 10F :,3.979865,-4.734731,1.849336,314.41,403.79,237.0,302.45,461.51,470.94,488.05,-67.04,-224.9,-185.32,237.0,302.45,403.79,0,166.79,-0.22
dw_cut_4_n1_2f_opt_disp_struct_5.xyz,Nucleus 16F :,3.399683,-5.135547,3.498182,333.88,416.98,270.28,314.38,487.76,466.18,462.32,-49.03,-192.74,-172.84,270.28,314.38,416.98,0,146.7,-0.4
dw_cut_4_n1_2f_opt_disp_struct_6.xyz,Nucleus 1H :,0.97576,-0.03651,-1.323256,29.41,35.38,23.83,29.03,40.64,27.26,29.3,-6.54,0.24,-2.65,23.83,29.03,35.38,0,11.55,-0.1
dw_cut_4_n1_2f_opt_disp_struct_6.xyz,Nucleus 2H :,1.726361,0.651921,-1.727964,28.36,34.16,23.84,27.07,45.02,24.53,27.04,-12.03,2.01,-1.5,23.84,27.07,34.16,0,10.32,-0.37
dw_cut_4_n1_2f_opt_disp_struct_6.xyz,Nucleus 6H :,1.252572,-1.055742,-1.627744,24.32,16.04,25.75,31.16,12.08,31.34,49.89,-19.31,4.44,-5.5,16.04,25.75,31.16,0,15.12,0.28
dw_cut_4_n1_2f_opt_disp_struct_6.xyz,Nucleus 12H :,0.895893,0.08325,0.156237,24.65,21.07,25.25,27.63,47.63,17.7,30.91,-22.37,3.5,-3.41,21.07,25.25,27.63,0,6.56,0.27
dw_cut_4_n1_2f_opt_disp_struct_6.xyz,Nucleus 14H :,1.680246,0.892085,0.957022,24.48,21.1,27.26,25.07,4.38,33.37,44.59,16.77,-6.22,-19.46,21.1,25.07,27.26,0,6.16,0.29
dw_cut_4_n1_2f_opt_disp_struct_6.xyz,Nucleus 17H :,1.293815,0.719171,2.259203,24.66,21.28,25.81,26.9,45.19,27.79,31.42,-19.36,-6.4,-4.67,21.28,25.81,26.9,0,5.62,0.61
dw_cut_4_n1_2f_opt_disp_struct_6.xyz,Nucleus 18H :,1.67575,1.194397,3.054495,28.91,35.02,27.92,23.8,42.64,27.94,33.15,-0.48,-10.75,-5.76,23.8,27.92,35.02,0,11.22,-0.26
dw_cut_4_n1_2f_opt_disp_struct_6.xyz,Nucleus 23H :,0.265102,-0.187976,2.326963,29.93,33.29,28.99,27.5,37.85,21.6,16.87,-4.82,11.42,6.86,27.5,28.99,33.29,0,5.79,-0.49
dw_cut_4_n1_2f_opt_disp_struct_6.xyz,Nucleus 24H :,-0.011825,-0.605534,1.023692,30.47,34.75,26.08,30.58,38.65,13.59,26.41,-4.08,12.53,4.33,26.08,30.58,34.75,0,8.67,0.04
dw_cut_4_n1_2f_opt_disp_struct_6.xyz,Nucleus 25H :,-1.046842,-1.546103,0.839813,30.16,34.04,29.8,26.63,39.34,19.64,14.13,-5.36,9.91,12.82,26.63,29.8,34.04,0,7.41,-0.15
dw_cut_4_n1_2f_opt_disp_struct_6.xyz,Nucleus 0C :,-1.361366,-1.98316,-0.388182,170.13,186.57,163.76,160.05,255.95,241.66,237.33,-66.95,-79.94,-77.66,160.05,163.76,186.57,0,26.52,-0.72
dw_cut_4_n1_2f_opt_disp_struct_6.xyz,Nucleus 3C :,-1.7624,-2.039097,1.935664,61.74,148.9,53.14,-16.81,242.08,276.69,263.18,-93.27,-222.73,-280.74,-16.81,53.14,148.9,0,165.71,-0.16
dw_cut_4_n1_2f_opt_disp_struct_6.xyz,Nucleus 4C :,-2.515117,-2.803272,1.772608,59.64,-22.98,126.28,75.62,256.44,263.47,274.61,-289.4,-132.33,-193.87,-22.98,75.62,126.28,0,149.26,0.32
dw_cut_4_n1_2f_opt_disp_struct_6.xyz,Nucleus 7C :,-1.460012,-1.603201,3.223667,50.99,138.24,-5.45,20.19,278.88,269.39,261.59,-127.09,-282.75,-247.04,-5.45,20.19,138.24,0,143.69,-0.64
dw_cut_4_n1_2f_opt_disp_struct_6.xyz,Nucleus 8C :,-1.972282,-2.01577,4.084675,56.48,159.21,17.9,-7.67,234.0,267.94,266.6,-74.96,-249.89,-274.25,-7.67,17.9,159.21,0,166.88,-0.69
dw_cut_4_n1_2f_opt_disp_struct_6.xyz,Nucleus 9C :,-0.442696,-0.672189,3.42899,15.6,-61.37,75.99,32.18,238.41,265.59,269.24,-330.39,-162.52,-233.54,-61.37,32.18,75.99,0,137.36,0.36
dw_cut_4_n1_2f_opt_disp_struct_6.xyz,Nucleus 11C :,-0.155016,-0.253606,4.667938,69.81,160.91,-14.53,63.04,238.18,264.85,272.86,-78.32,-281.79,-206.36,-14.53,63.04,160.91,0,175.44,-0.12
dw_cut_4_n1_2f_opt_disp_struct_6.xyz,Nucleus 13C :,2.484357,1.562545,0.68712,66.35,163.08,53.87,-17.91,223.39,262.87,275.44,-61.01,-220.56,-281.09,-17.91,53.87,163.08,0,180.99,-0.21
dw_cut_4_n1_2f_opt_disp_struct_6.xyz,Nucleus 15C :,0.016001,0.186902,-1.804456,26.13,82.64,34.42,-38.68,229.44,265.4,269.9,-148.15,-233.67,-304.53,-38.68,34.42,82.64,0,121.32,0.2
dw_cut_4_n1_2f_opt_disp_struct_6.xyz,Nucleus 19C :,3.26567,-5.163549,2.480884,159.78,122.29,192.03,165.01,253.42,224.01,217.38,-95.22,-52.52,-67.74,122.29,165.01,192.03,0,69.74,0.22
dw_cut_4_n1_2f_opt_disp_struct_6.xyz,Nucleus 20C :,2.18439,-4.100332,2.399778,2.81,-84.43,67.58,25.28,204.35,257.76,264.44,-136.79,-342.81,-238.53,-84.43,25.28,67.58,0,152.01,0.44
dw_cut_4_n1_2f_opt_disp_struct_6.xyz,Nucleus 5N :,1.273383,-4.205932,3.270621,127.28,61.19,184.35,136.31,293.4,340.12,330.71,-109.59,-203.31,-269.48,61.19,136.31,184.35,0,123.16,0.22
dw_cut_4_n1_2f_opt_disp_struct_6.xyz,Nucleus 21O :,2.329639,-3.238312,1.489132,-19.53,225.48,-31.38,-252.7,398.69,410.21,419.94,-186.54,-437.0,-663.91,-252.7,-31.38,225.48,0,478.18,-0.07
dw_cut_4_n1_2f_opt_disp_struct_6.xyz,Nucleus 22O :,2.850731,-6.113707,2.121373,-35.96,208.17,-270.36,-45.68,400.35,427.96,424.85,-218.09,-680.09,-462.86,-270.36,-45.68,208.17,0,478.53,-0.06
dw_cut_4_n1_2f_opt_disp_struct_6.xyz,Nucleus 10F :,4.145017,-4.920804,1.873859,313.45,403.74,235.31,301.29,461.49,470.52,487.67,-66.61,-226.59,-186.15,235.31,301.29,403.74,0,168.43,-0.22
dw_cut_4_n1_2f_opt_disp_struct_6.xyz,Nucleus 16F :,3.564836,-5.32162,3.522705,332.9,416.68,268.63,313.38,487.8,465.74,462.26,-49.07,-194.14,-173.89,268.63,313.38,416.68,0,148.05,-0.4
dw_cut_4_n1_2f_opt_disp_struct_7.xyz,Nucleus 1H :,0.97576,-0.03651,-1.323256,29.4,35.36,23.81,29.02,40.6,27.21,29.29,-6.49,0.19,-2.63,23.81,29.02,35.36,0,11.55,-0.1
dw_cut_4_n1_2f_opt_disp_struct_7.xyz,Nucleus 2H :,1.726361,0.651921,-1.727964,28.36,34.21,23.83,27.03,45.02,24.52,26.98,-11.95,2.05,-1.55,23.83,27.03,34.21,0,10.38,-0.38
dw_cut_4_n1_2f_opt_disp_struct_7.xyz,Nucleus 6H :,1.252572,-1.055742,-1.627744,24.26,15.99,25.71,31.09,12.02,31.22,49.86,-19.31,4.39,-5.4,15.99,25.71,31.09,0,15.1,0.29
dw_cut_4_n1_2f_opt_disp_struct_7.xyz,Nucleus 12H :,0.895893,0.08325,0.156237,24.61,21.0,25.21,27.63,47.46,17.81,30.67,-22.22,3.3,-3.16,21.0,25.21,27.63,0,6.63,0.27
dw_cut_4_n1_2f_opt_disp_struct_7.xyz,Nucleus 14H :,1.680246,0.892085,0.957022,24.46,21.03,27.29,25.07,4.67,33.12,44.52,16.4,-5.93,-19.38,21.03,25.07,27.29,0,6.26,0.29
dw_cut_4_n1_2f_opt_disp_struct_7.xyz,Nucleus 17H :,1.293815,0.719171,2.259203,24.62,21.23,25.75,26.89,45.13,27.71,31.35,-19.33,-6.38,-4.61,21.23,25.75,26.89,0,5.66,0.6
dw_cut_4_n1_2f_opt_disp_struct_7.xyz,Nucleus 18H :,1.67575,1.194397,3.054495,28.91,35.0,27.92,23.8,42.6,27.9,33.07,-0.45,-10.64,-5.76,23.8,27.92,35.0,0,11.2,-0.27
dw_cut_4_n1_2f_opt_disp_struct_7.xyz,Nucleus 23H :,0.265102,-0.187976,2.326963,29.91,33.18,29.01,27.53,37.76,21.83,16.37,11.97,6.65,-4.86,27.53,29.01,33.18,0,5.65,-0.48
dw_cut_4_n1_2f_opt_disp_struct_7.xyz,Nucleus 24H :,-0.011825,-0.605534,1.023692,30.44,34.68,26.12,30.53,38.72,13.44,26.21,-4.23,12.71,4.48,26.12,30.53,34.68,0,8.56,0.03
dw_cut_4_n1_2f_opt_disp_struct_7.xyz,Nucleus 25H :,-1.046842,-1.546103,0.839813,30.13,33.94,29.81,26.65,39.22,19.75,13.7,-5.35,9.83,13.26,26.65,29.81,33.94,0,7.29,-0.13
dw_cut_4_n1_2f_opt_disp_struct_7.xyz,Nucleus 0C :,-1.361366,-1.98316,-0.388182,170.2,186.54,163.92,160.13,256.03,241.63,237.29,-67.15,-79.9,-77.3,160.13,163.92,186.54,0,26.41,-0.71
dw_cut_4_n1_2f_opt_disp_struct_7.xyz,Nucleus 3C :,-1.7624,-2.039097,1.935664,61.83,148.81,53.27,-16.58,241.74,275.9,263.06,-92.98,-222.04,-280.18,-16.58,53.27,148.81,0,165.39,-0.16
dw_cut_4_n1_2f_opt_disp_struct_7.xyz,Nucleus 4C :,-2.515117,-2.803272,1.772608,59.19,-23.61,126.37,74.82,256.1,263.69,274.37,-289.94,-132.13,-194.51,-23.61,74.82,126.37,0,149.98,0.31
dw_cut_4_n1_2f_opt_disp_struct_7.xyz,Nucleus 7C :,-1.460012,-1.603201,3.223667,51.15,138.19,-5.03,20.29,278.22,268.58,261.53,-126.16,-281.93,-246.79,-5.03,20.29,138.19,0,143.22,-0.65
dw_cut_4_n1_2f_opt_disp_struct_7.xyz,Nucleus 8C :,-1.972282,-2.01577,4.084675,56.94,159.08,18.69,-6.96,233.95,267.47,266.81,-75.02,-248.61,-273.79,-6.96,18.69,159.08,0,166.04,-0.69
dw_cut_4_n1_2f_opt_disp_struct_7.xyz,Nucleus 9C :,-0.442696,-0.672189,3.42899,15.77,-61.04,76.01,32.35,237.97,268.88,265.4,-329.62,-162.12,-233.19,-61.04,32.35,76.01,0,137.05,0.36
dw_cut_4_n1_2f_opt_disp_struct_7.xyz,Nucleus 11C :,-0.155016,-0.253606,4.667938,69.74,160.98,-14.53,62.77,238.47,264.25,272.33,-78.31,-281.21,-206.31,-14.53,62.77,160.98,0,175.51,-0.12
dw_cut_4_n1_2f_opt_disp_struct_7.xyz,Nucleus 13C :,2.484357,1.562545,0.68712,66.63,163.1,54.19,-17.39,224.15,262.39,275.18,-61.52,-220.02,-280.27,-17.39,54.19,163.1,0,180.49,-0.21
dw_cut_4_n1_2f_opt_disp_struct_7.xyz,Nucleus 15C :,0.016001,0.186902,-1.804456,26.26,82.64,34.68,-38.54,229.37,269.67,265.12,-148.0,-233.22,-304.15,-38.54,34.68,82.64,0,121.18,0.21
dw_cut_4_n1_2f_opt_disp_struct_7.xyz,Nucleus 19C :,3.430823,-5.349622,2.505408,159.74,122.28,191.85,165.09,253.12,223.99,216.93,-94.79,-52.58,-67.45,122.28,165.09,191.85,0,69.57,0.23
dw_cut_4_n1_2f_opt_disp_struct_7.xyz,Nucleus 20C :,2.349543,-4.286405,2.424302,2.81,-84.95,67.49,25.89,204.39,257.46,264.86,-136.93,-342.72,-238.64,-84.95,25.89,67.49,0,152.44,0.45
dw_cut_4_n1_2f_opt_disp_struct_7.xyz,Nucleus 5N :,1.438535,-4.392005,3.295145,126.77,60.35,184.38,135.58,293.52,339.88,330.75,-109.6,-203.8,-270.45,60.35,135.58,184.38,0,124.03,0.21
dw_cut_4_n1_2f_opt_disp_struct_7.xyz,Nucleus 21O :,2.494792,-3.424385,1.513655,-18.62,226.17,-30.51,-251.51,398.24,410.9,421.3,-186.76,-436.85,-662.69,-251.51,-30.51,226.17,0,477.68,-0.07
dw_cut_4_n1_2f_opt_disp_struct_7.xyz,Nucleus 22O :,3.015883,-6.29978,2.145897,-36.29,207.6,-270.04,-46.42,400.75,430.23,425.81,-221.65,-681.1,-462.9,-270.04,-46.42,207.6,0,477.64,-0.06
dw_cut_4_n1_2f_opt_disp_struct_7.xyz,Nucleus 10F :,4.31017,-5.106877,1.898383,312.65,403.66,234.01,300.27,487.37,470.1,461.45,-66.19,-227.86,-186.92,234.01,300.27,403.66,0,169.65,-0.22
dw_cut_4_n1_2f_opt_disp_struct_7.xyz,Nucleus 16F :,3.729989,-5.507693,3.547229,332.06,416.42,267.26,312.49,487.79,465.24,462.26,-49.01,-195.33,-174.79,267.26,312.49,416.42,0,149.16,-0.39
dw_cut_4_n1_2f_opt_disp_struct_8.xyz,Nucleus 1H :,0.97576,-0.03651,-1.323256,29.37,35.33,23.79,29.0,40.55,27.16,29.27,-6.42,0.18,-2.61,23.79,29.0,35.33,0,11.54,-0.1
dw_cut_4_n1_2f_opt_disp_struct_8.xyz,Nucleus 2H :,1.726361,0.651921,-1.727964,28.36,34.26,23.83,27.0,45.0,24.49,26.91,-11.85,2.11,-1.58,23.83,27.0,34.26,0,10.43,-0.39
dw_cut_4_n1_2f_opt_disp_struct_8.xyz,Nucleus 6H :,1.252572,-1.055742,-1.627744,24.22,15.95,25.67,31.04,11.98,31.12,49.81,-19.26,4.33,-5.31,15.95,25.67,31.04,0,15.09,0.29
dw_cut_4_n1_2f_opt_disp_struct_8.xyz,Nucleus 12H :,0.895893,0.08325,0.156237,24.58,20.94,25.18,27.63,47.28,17.89,30.47,-22.06,3.14,-2.97,20.94,25.18,27.63,0,6.69,0.27
dw_cut_4_n1_2f_opt_disp_struct_8.xyz,Nucleus 14H :,1.680246,0.892085,0.957022,24.45,20.96,27.32,25.08,4.91,32.93,44.44,16.09,-5.72,-19.29,20.96,25.08,27.32,0,6.36,0.3
dw_cut_4_n1_2f_opt_disp_struct_8.xyz,Nucleus 17H :,1.293815,0.719171,2.259203,24.59,21.18,25.7,26.89,45.06,27.64,31.28,-19.29,-6.37,-4.55,21.18,25.7,26.89,0,5.71,0.58
dw_cut_4_n1_2f_opt_disp_struct_8.xyz,Nucleus 18H :,1.67575,1.194397,3.054495,28.9,34.99,27.92,23.8,42.55,27.84,32.97,-0.4,-10.53,-5.72,23.8,27.92,34.99,0,11.19,-0.26
dw_cut_4_n1_2f_opt_disp_struct_8.xyz,Nucleus 23H :,0.265102,-0.187976,2.326963,29.89,33.07,29.03,27.56,37.71,22.09,15.95,12.42,6.41,-4.92,27.56,29.03,33.07,0,5.51,-0.47
dw_cut_4_n1_2f_opt_disp_struct_8.xyz,Nucleus 24H :,-0.011825,-0.605534,1.023692,30.42,34.61,26.16,30.49,38.82,13.37,26.08,-4.39,12.82,4.57,26.16,30.49,34.61,0,8.45,0.02
dw_cut_4_n1_2f_opt_disp_struct_8.xyz,Nucleus 25H :,-1.046842,-1.546103,0.839813,30.11,33.84,29.82,26.67,39.13,19.89,13.34,-5.38,9.72,13.62,26.67,29.82,33.84,0,7.17,-0.12
dw_cut_4_n1_2f_opt_disp_struct_8.xyz,Nucleus 0C :,-1.361366,-1.98316,-0.388182,170.26,186.51,164.06,160.2,256.1,241.5,237.23,-79.78,-76.98,-67.32,160.2,164.06,186.51,0,26.31,-0.71
dw_cut_4_n1_2f_opt_disp_struct_8.xyz,Nucleus 3C :,-1.7624,-2.039097,1.935664,61.89,148.74,53.35,-16.41,241.4,275.07,262.91,-92.7,-221.31,-279.7,-16.41,53.35,148.74,0,165.15,-0.16
dw_cut_4_n1_2f_opt_disp_struct_8.xyz,Nucleus 4C :,-2.515117,-2.803272,1.772608,58.8,-24.16,126.45,74.11,255.67,263.99,274.14,-290.41,-131.95,-195.02,-24.16,74.11,126.45,0,150.61,0.3
dw_cut_4_n1_2f_opt_disp_struct_8.xyz,Nucleus 7C :,-1.460012,-1.603201,3.223667,51.28,138.14,-4.68,20.39,277.44,268.15,261.26,-125.34,-281.05,-246.62,-4.68,20.39,138.14,0,142.82,-0.65
dw_cut_4_n1_2f_opt_disp_struct_8.xyz,Nucleus 8C :,-1.972282,-2.01577,4.084675,57.26,158.96,19.27,-6.45,234.01,266.7,266.95,-75.17,-247.33,-273.38,-6.45,19.27,158.96,0,165.41,-0.69
dw_cut_4_n1_2f_opt_disp_struct_8.xyz,Nucleus 9C :,-0.442696,-0.672189,3.42899,15.92,-60.75,76.03,32.49,237.46,268.48,265.21,-328.85,-161.7,-232.83,-60.75,32.49,76.03,0,136.78,0.36
dw_cut_4_n1_2f_opt_disp_struct_8.xyz,Nucleus 11C :,-0.155016,-0.253606,4.667938,69.7,161.05,-14.5,62.55,238.69,263.63,271.86,-78.28,-280.6,-206.21,-14.5,62.55,161.05,0,175.55,-0.12
dw_cut_4_n1_2f_opt_disp_struct_8.xyz,Nucleus 13C :,2.484357,1.562545,0.68712,66.84,163.12,54.41,-17.01,224.69,261.96,274.87,-61.88,-219.54,-279.59,-17.01,54.41,163.12,0,180.13,-0.21
dw_cut_4_n1_2f_opt_disp_struct_8.xyz,Nucleus 15C :,0.016001,0.186902,-1.804456,26.37,82.64,34.88,-38.4,229.35,269.44,264.89,-147.92,-232.88,-303.76,-38.4,34.88,82.64,0,121.04,0.21
dw_cut_4_n1_2f_opt_disp_struct_8.xyz,Nucleus 19C :,3.595976,-5.535695,2.529931,159.71,122.27,191.69,165.16,252.88,224.47,216.99,-94.88,-53.03,-67.31,122.27,165.16,191.69,0,69.42,0.24
dw_cut_4_n1_2f_opt_disp_struct_8.xyz,Nucleus 20C :,2.514696,-4.472478,2.448825,2.81,-85.38,67.45,26.35,204.2,257.09,265.2,-136.77,-342.63,-238.68,-85.38,26.35,67.45,0,152.83,0.46
dw_cut_4_n1_2f_opt_disp_struct_8.xyz,Nucleus 5N :,1.603688,-4.578078,3.319668,126.35,59.67,184.4,134.97,293.64,339.59,330.76,-109.58,-204.11,-271.25,59.67,134.97,184.4,0,124.73,0.21
dw_cut_4_n1_2f_opt_disp_struct_8.xyz,Nucleus 21O :,2.659944,-3.610458,1.538179,-18.2,226.72,-30.2,-251.11,397.85,411.36,422.55,-186.75,-437.1,-662.5,-251.11,-30.2,226.72,0,477.83,-0.08
dw_cut_4_n1_2f_opt_disp_struct_8.xyz,Nucleus 22O :,3.181036,-6.485853,2.170421,-36.94,207.05,-270.44,-47.44,401.01,433.15,426.4,-225.33,-682.75,-463.32,-270.44,-47.44,207.05,0,477.49,-0.07
dw_cut_4_n1_2f_opt_disp_struct_8.xyz,Nucleus 10F :,4.475323,-5.29295,1.922907,311.98,403.6,232.93,299.4,487.12,469.71,461.37,-65.82,-228.86,-187.59,232.93,299.4,403.6,0,170.67,-0.22
dw_cut_4_n1_2f_opt_disp_struct_8.xyz,Nucleus 16F :,3.895141,-5.693766,3.571753,331.35,416.2,266.11,311.74,487.74,464.87,462.21,-48.94,-196.34,-175.48,266.11,311.74,416.2,0,150.09,-0.39
dw_cut_4_n1_2f_opt_disp_struct_9.xyz,Nucleus 1H :,0.97576,-0.03651,-1.323256,29.36,35.31,23.77,28.99,40.5,27.09,29.24,-6.36,0.19,-2.59,23.77,28.99,35.31,0,11.54,-0.1
dw_cut_4_n1_2f_opt_disp_struct_9.xyz,Nucleus 2H :,1.726361,0.651921,-1.727964,28.37,34.31,23.82,26.97,44.98,24.44,26.83,-11.76,2.18,-1.57,23.82,26.97,34.31,0,10.49,-0.4
dw_cut_4_n1_2f_opt_disp_struct_9.xyz,Nucleus 6H :,1.252572,-1.055742,-1.627744,24.19,15.91,25.65,31.0,11.95,31.03,49.73,-19.19,4.26,-5.23,15.91,25.65,31.0,0,15.09,0.29
dw_cut_4_n1_2f_opt_disp_struct_9.xyz,Nucleus 12H :,0.895893,0.08325,0.156237,24.56,20.89,25.17,27.63,47.12,17.94,30.32,-21.9,3.04,-2.83,20.89,25.17,27.63,0,6.74,0.27
dw_cut_4_n1_2f_opt_disp_struct_9.xyz,Nucleus 14H :,1.680246,0.892085,0.957022,24.44,20.91,27.34,25.08,5.12,32.77,44.35,15.83,-5.54,-19.2,20.91,25.08,27.34,0,6.43,0.3
dw_cut_4_n1_2f_opt_disp_struct_9.xyz,Nucleus 17H :,1.293815,0.719171,2.259203,24.56,21.14,25.66,26.89,44.99,27.58,31.22,-19.24,-6.38,-4.49,21.14,25.66,26.89,0,5.75,0.57
dw_cut_4_n1_2f_opt_disp_struct_9.xyz,Nucleus 18H :,1.67575,1.194397,3.054495,28.9,34.97,27.92,23.81,42.48,27.77,32.87,-0.34,-10.42,-5.68,23.81,27.92,34.97,0,11.16,-0.26
dw_cut_4_n1_2f_opt_disp_struct_9.xyz,Nucleus 23H :,0.265102,-0.187976,2.326963,29.87,32.98,29.05,27.58,15.61,22.36,37.68,12.78,6.17,-4.99,27.58,29.05,32.98,0,5.4,-0.46
dw_cut_4_n1_2f_opt_disp_struct_9.xyz,Nucleus 24H :,-0.011825,-0.605534,1.023692,30.4,34.56,26.19,30.44,38.94,13.36,26.0,-4.56,12.86,4.6,26.19,30.44,34.56,0,8.37,0.01
dw_cut_4_n1_2f_opt_disp_struct_9.xyz,Nucleus 25H :,-1.046842,-1.546103,0.839813,30.09,33.75,29.83,26.68,39.08,20.04,13.07,-5.42,9.59,13.9,26.68,29.83,33.75,0,7.07,-0.11
dw_cut_4_n1_2f_opt_disp_struct_9.xyz,Nucleus 0C :,-1.361366,-1.98316,-0.388182,170.31,186.49,164.18,160.25,256.16,241.33,237.15,-79.61,-76.69,-67.44,160.25,164.18,186.49,0,26.24,-0.7
dw_cut_4_n1_2f_opt_disp_struct_9.xyz,Nucleus 3C :,-1.7624,-2.039097,1.935664,61.93,148.67,53.39,-16.26,241.14,274.32,262.79,-92.49,-220.62,-279.34,-16.26,53.39,148.67,0,164.93,-0.16
dw_cut_4_n1_2f_opt_disp_struct_9.xyz,Nucleus 4C :,-2.515117,-2.803272,1.772608,58.46,-24.63,126.52,73.49,255.23,264.27,273.93,-290.82,-131.78,-195.44,-24.63,73.49,126.52,0,151.15,0.3
dw_cut_4_n1_2f_opt_disp_struct_9.xyz,Nucleus 7C :,-1.460012,-1.603201,3.223667,51.4,138.09,-4.37,20.48,276.59,268.03,260.89,-124.65,-280.13,-246.53,-4.37,20.48,138.09,0,142.46,-0.65
dw_cut_4_n1_2f_opt_disp_struct_9.xyz,Nucleus 8C :,-1.972282,-2.01577,4.084675,57.47,158.85,19.69,-6.12,234.08,265.92,266.99,-75.32,-246.17,-273.07,-6.12,19.69,158.85,0,164.97,-0.69
dw_cut_4_n1_2f_opt_disp_struct_9.xyz,Nucleus 9C :,-0.442696,-0.672189,3.42899,16.05,-60.49,76.04,32.6,236.95,268.09,265.03,-328.12,-161.28,-232.52,-60.49,32.6,76.04,0,136.53,0.36
dw_cut_4_n1_2f_opt_disp_struct_9.xyz,Nucleus 11C :,-0.155016,-0.253606,4.667938,69.67,161.1,-14.46,62.37,238.78,263.1,271.47,-78.19,-280.03,-206.12,-14.46,62.37,161.1,0,175.56,-0.12
dw_cut_4_n1_2f_opt_disp_struct_9.xyz,Nucleus 13C :,2.484357,1.562545,0.68712,67.0,163.13,54.57,-16.71,225.04,261.53,274.5,-62.07,-219.07,-278.94,-16.71,54.57,163.13,0,179.84,-0.21
dw_cut_4_n1_2f_opt_disp_struct_9.xyz,Nucleus 15C :,0.016001,0.186902,-1.804456,26.47,82.64,35.03,-38.27,229.42,269.17,264.72,-147.92,-232.58,-303.39,-38.27,35.03,82.64,0,120.91,0.21
dw_cut_4_n1_2f_opt_disp_struct_9.xyz,Nucleus 19C :,3.761129,-5.721768,2.554455,159.69,122.25,191.56,165.25,252.69,225.29,217.51,-95.45,-53.71,-67.27,122.25,165.25,191.56,0,69.31,0.24
dw_cut_4_n1_2f_opt_disp_struct_9.xyz,Nucleus 20C :,2.679848,-4.658551,2.473349,2.79,-85.74,67.41,26.71,203.84,256.7,265.46,-136.44,-342.51,-238.66,-85.74,26.71,67.41,0,153.15,0.47
dw_cut_4_n1_2f_opt_disp_struct_9.xyz,Nucleus 5N :,1.768841,-4.764151,3.344192,126.0,59.11,184.42,134.46,293.71,339.28,330.76,-109.54,-204.31,-271.9,59.11,134.46,184.42,0,125.31,0.2
dw_cut_4_n1_2f_opt_disp_struct_9.xyz,Nucleus 21O :,2.825097,-3.796531,1.562703,-18.07,227.24,-30.21,-251.24,397.51,411.19,423.61,-185.92,-437.53,-663.06,-251.24,-30.21,227.24,0,478.48,-0.08
dw_cut_4_n1_2f_opt_disp_struct_9.xyz,Nucleus 22O :,3.346189,-6.671926,2.194944,-37.67,206.64,-271.18,-48.46,401.23,436.0,427.0,-228.64,-684.78,-463.8,-271.18,-48.46,206.64,0,477.82,-0.07
dw_cut_4_n1_2f_opt_disp_struct_9.xyz,Nucleus 10F :,4.640476,-5.479023,1.94743,311.4,403.54,232.02,298.64,486.91,469.35,461.27,-65.49,-229.66,-188.17,232.02,298.64,403.54,0,171.52,-0.22
dw_cut_4_n1_2f_opt_disp_struct_9.xyz,Nucleus 16F :,4.060294,-5.879839,3.596276,330.74,416.0,265.12,311.1,487.63,462.09,464.72,-48.97,-197.22,-176.01,265.12,311.1,416.0,0,150.88,-0.39
dw_cut_4_n1_3f_opt.xyz,Nucleus 1H :,0.973862,-0.040575,-1.33426,29.41,35.12,24.16,28.96,39.87,25.13,27.62,2.99,-4.95,-2.42,24.16,28.96,35.12,0,10.96,-0.12
dw_cut_4_n1_3f_opt.xyz,Nucleus 2H :,1.723204,0.646458,-1.743314,28.29,34.01,24.07,26.78,42.54,20.7,27.74,-9.82,4.72,-1.0,24.07,26.78,34.01,0,9.94,-0.46
dw_cut_4_n1_3f_opt.xyz,Nucleus 6H :,1.249716,-1.060653,-1.636402,25.65,16.94,27.03,32.98,12.69,32.64,46.95,4.72,-14.73,-5.31,16.94,27.03,32.98,0,16.04,0.26
dw_cut_4_n1_3f_opt.xyz,Nucleus 12H :,0.899497,0.083391,0.145497,25.95,21.74,27.24,28.87,48.11,19.05,32.76,-22.38,4.3,-3.99,21.74,27.24,28.87,0,7.13,0.54
dw_cut_4_n1_3f_opt.xyz,Nucleus 17H :,1.687597,0.892644,0.941965,25.29,22.04,26.54,27.28,44.85,27.2,29.84,-18.33,-5.37,-2.31,22.04,26.54,27.28,0,5.24,0.72
dw_cut_4_n1_3f_opt.xyz,Nucleus 18H :,1.305927,0.724076,2.246026,28.5,34.7,27.51,23.3,40.88,25.53,30.65,1.3,-9.05,-3.81,23.3,27.51,34.7,0,11.4,-0.26
dw_cut_4_n1_3f_opt.xyz,Nucleus 23H :,1.700961,1.188622,3.041257,30.15,34.33,28.3,27.81,38.68,23.0,21.75,-4.55,6.67,4.89,27.81,28.3,34.33,0,6.52,-0.85
dw_cut_4_n1_3f_opt.xyz,Nucleus 24H :,0.275961,-0.181519,2.318621,30.46,25.18,35.21,30.98,39.84,15.25,28.63,-4.74,10.01,2.38,25.18,30.98,35.21,0,10.03,0.16
dw_cut_4_n1_3f_opt.xyz,Nucleus 25H :,-0.006175,-0.60217,1.016737,30.08,35.06,29.83,25.36,41.0,21.29,19.59,-6.01,8.73,5.64,25.36,29.83,35.06,0,9.7,-0.08
dw_cut_4_n1_3f_opt.xyz,Nucleus 0C :,-1.043454,-1.542676,0.835008,169.4,185.63,162.74,159.83,253.03,233.8,236.89,-66.54,-73.01,-75.98,159.83,162.74,185.63,0,25.8,-0.77
dw_cut_4_n1_3f_opt.xyz,Nucleus 3C :,-1.357757,-1.978581,-0.393291,69.0,151.49,64.02,-8.52,240.61,263.2,271.52,-90.42,-205.57,-272.35,-8.52,64.02,151.49,0,160.01,-0.09
dw_cut_4_n1_3f_opt.xyz,Nucleus 4C :,-1.75845,-2.034834,1.92765,67.86,-7.0,123.6,86.97,250.11,265.43,271.14,-271.35,-132.81,-178.95,-7.0,86.97,123.6,0,130.6,0.44
dw_cut_4_n1_3f_opt.xyz,Nucleus 7C :,-2.507843,-2.806705,1.797224,65.76,138.23,46.02,13.04,258.73,270.86,266.75,-124.82,-252.73,-221.49,13.04,46.02,138.23,0,125.19,-0.47
dw_cut_4_n1_3f_opt.xyz,Nucleus 8C :,-1.44619,-1.592725,3.205362,55.93,155.54,22.39,-10.14,230.89,256.77,243.58,-80.82,-221.41,-261.23,-10.14,22.39,155.54,0,165.68,-0.61
dw_cut_4_n1_3f_opt.xyz,Nucleus 9C :,-2.140482,-2.073283,4.246881,35.55,95.63,33.76,-22.73,228.69,260.05,257.05,-140.9,-216.44,-281.79,-22.73,33.76,95.63,0,118.36,-0.05
dw_cut_4_n1_3f_opt.xyz,Nucleus 11C :,-0.429886,-0.662999,3.423444,86.04,19.15,152.28,86.68,245.46,261.41,276.77,-93.24,-250.14,-182.15,19.15,86.68,152.28,0,133.13,0.01
dw_cut_4_n1_3f_opt.xyz,Nucleus 13C :,-0.136801,-0.241182,4.660667,21.96,87.15,8.38,-29.65,286.34,229.72,255.02,-143.65,-277.67,-283.89,-29.65,8.38,87.15,0,116.8,-0.35
dw_cut_4_n1_3f_opt.xyz,Nucleus 15C :,2.489805,1.563582,0.668482,39.37,92.36,18.4,7.35,233.17,272.03,260.7,-143.13,-253.74,-250.92,7.35,18.4,92.36,0,85.01,-0.74
dw_cut_4_n1_3f_opt.xyz,Nucleus 19C :,0.012703,0.181997,-1.812808,157.24,120.6,193.26,157.86,256.89,230.1,225.85,-105.38,-59.72,-76.01,120.6,157.86,193.26,0,72.66,0.03
dw_cut_4_n1_3f_opt.xyz,Nucleus 20C :,2.116856,-3.856729,2.313265,7.43,-92.71,102.52,12.47,208.12,263.27,270.85,-106.19,-359.62,-254.15,-92.71,12.47,102.52,0,195.23,0.08
dw_cut_4_n1_3f_opt.xyz,Nucleus 5N :,1.033499,-2.795662,2.231717,143.41,86.95,184.14,159.15,291.7,337.86,324.99,-107.57,-238.73,-178.01,86.95,159.15,184.14,0,97.19,0.49
dw_cut_4_n1_3f_opt.xyz,Nucleus 21O :,0.124514,-2.900663,3.104743,-169.12,-571.17,-85.56,149.38,443.73,400.3,403.16,-1009.94,-493.3,-251.3,-571.17,-85.56,149.38,0,720.55,0.35
dw_cut_4_n1_3f_opt.xyz,Nucleus 22O :,1.175286,-1.935718,1.318565,-182.64,-579.14,-34.14,65.36,443.44,416.77,401.78,-1015.89,-446.29,-347.72,-579.14,-34.14,65.36,0,644.5,0.69
dw_cut_4_n1_3f_opt.xyz,Nucleus 10F :,1.75686,-4.760823,1.805507,352.02,404.37,314.53,337.17,487.74,457.62,469.06,-65.42,-141.22,-151.71,314.53,337.17,404.37,0,89.84,-0.5
dw_cut_4_n1_3f_opt.xyz,Nucleus 14F :,3.043349,-3.542614,1.820126,337.5,418.03,319.73,274.75,482.4,464.89,470.43,-49.05,-162.07,-194.1,274.75,319.73,418.03,0,143.28,-0.37
dw_cut_4_n1_3f_opt.xyz,Nucleus 16F :,2.31691,-4.129219,3.354491,382.54,467.71,354.75,325.16,486.99,468.9,454.66,9.55,-110.92,-161.56,325.16,354.75,467.71,0,142.55,-0.58
dw_cut_4_n1_3f_opt_disp_struct_0.xyz,Nucleus 1H :,0.973862,-0.040575,-1.33426,29.47,35.34,24.03,29.04,40.14,25.73,28.15,2.48,-5.37,-2.73,24.03,29.04,35.34,0,11.31,-0.11
dw_cut_4_n1_3f_opt_disp_struct_0.xyz,Nucleus 2H :,1.723204,0.646458,-1.743314,28.39,33.98,24.1,27.08,43.55,21.45,27.59,-10.93,4.28,-0.77,24.1,27.08,33.98,0,9.88,-0.4
dw_cut_4_n1_3f_opt_disp_struct_0.xyz,Nucleus 6H :,1.249716,-1.060653,-1.636402,25.13,16.69,26.5,32.21,12.34,32.52,47.86,4.78,-16.29,-5.8,16.69,26.5,32.21,0,15.52,0.26
dw_cut_4_n1_3f_opt_disp_struct_0.xyz,Nucleus 12H :,0.899497,0.083391,0.145497,25.53,21.73,26.46,28.41,48.33,17.71,32.83,-22.76,4.93,-4.43,21.73,26.46,28.41,0,6.68,0.42
dw_cut_4_n1_3f_opt_disp_struct_0.xyz,Nucleus 17H :,1.687597,0.892644,0.941965,25.09,21.8,26.41,27.07,44.97,27.58,30.43,-18.64,-6.05,-3.0,21.8,26.41,27.07,0,5.27,0.75
dw_cut_4_n1_3f_opt_disp_struct_0.xyz,Nucleus 18H :,1.305927,0.724076,2.246026,28.71,34.86,27.74,23.53,41.37,26.16,31.58,-9.7,0.94,-4.21,23.53,27.74,34.86,0,11.33,-0.26
dw_cut_4_n1_3f_opt_disp_struct_0.xyz,Nucleus 23H :,1.700961,1.188622,3.041257,30.13,34.17,28.38,27.85,38.72,22.25,21.43,-4.8,6.03,6.77,27.85,28.38,34.17,0,6.32,-0.83
dw_cut_4_n1_3f_opt_disp_struct_0.xyz,Nucleus 24H :,0.275961,-0.181519,2.318621,30.61,35.2,25.67,30.96,39.6,15.16,28.38,-4.53,10.59,2.64,25.67,30.96,35.2,0,9.53,0.11
dw_cut_4_n1_3f_opt_disp_struct_0.xyz,Nucleus 25H :,-0.006175,-0.60217,1.016737,30.26,35.04,29.87,25.86,40.98,20.78,18.51,-6.02,9.3,7.22,25.86,29.87,35.04,0,9.18,-0.13
dw_cut_4_n1_3f_opt_disp_struct_0.xyz,Nucleus 0C :,-1.043454,-1.542676,0.835008,169.5,186.06,162.76,159.68,253.89,235.19,237.83,-74.9,-76.96,-66.55,159.68,162.76,186.06,0,26.38,-0.77
dw_cut_4_n1_3f_opt_disp_struct_0.xyz,Nucleus 3C :,-1.357757,-1.978581,-0.393291,63.2,149.61,56.35,-16.36,241.58,262.81,272.47,-92.78,-214.69,-279.78,-16.36,56.35,149.61,0,165.97,-0.12
dw_cut_4_n1_3f_opt_disp_struct_0.xyz,Nucleus 4C :,-1.75845,-2.034834,1.92765,64.8,-13.14,124.08,83.47,251.88,266.43,272.46,-278.81,-133.96,-183.59,-13.14,83.47,124.08,0,137.22,0.41
dw_cut_4_n1_3f_opt_disp_struct_0.xyz,Nucleus 7C :,-2.507843,-2.806705,1.797224,56.41,138.0,1.75,29.49,259.34,273.62,269.44,-127.96,-268.24,-236.96,1.75,29.49,138.0,0,136.25,-0.59
dw_cut_4_n1_3f_opt_disp_struct_0.xyz,Nucleus 8C :,-1.44619,-1.592725,3.205362,50.48,156.88,12.97,-18.41,236.19,250.26,261.53,-80.99,-239.3,-276.27,-18.41,12.97,156.88,0,175.29,-0.64
dw_cut_4_n1_3f_opt_disp_struct_0.xyz,Nucleus 9C :,-2.140482,-2.073283,4.246881,25.0,-39.22,31.77,82.45,231.99,259.0,261.47,-151.11,-226.23,-300.14,-39.22,31.77,82.45,0,121.67,0.17
dw_cut_4_n1_3f_opt_disp_struct_0.xyz,Nucleus 11C :,-0.429886,-0.662999,3.423444,82.05,152.26,15.76,78.12,243.76,263.57,277.76,-91.87,-255.21,-191.89,15.76,78.12,152.26,0,136.5,-0.09
dw_cut_4_n1_3f_opt_disp_struct_0.xyz,Nucleus 13C :,-0.136801,-0.241182,4.660667,20.34,87.64,9.54,-36.17,281.51,230.11,255.97,-142.52,-271.76,-292.31,-36.17,9.54,87.64,0,123.81,-0.26
dw_cut_4_n1_3f_opt_disp_struct_0.xyz,Nucleus 15C :,2.489805,1.563582,0.668482,36.77,89.92,19.0,1.39,233.49,273.84,262.83,-145.13,-253.97,-260.75,1.39,19.0,89.92,0,88.53,-0.6
dw_cut_4_n1_3f_opt_disp_struct_0.xyz,Nucleus 19C :,0.012703,0.181997,-1.812808,158.65,121.09,193.24,161.61,256.45,230.06,224.67,-103.82,-58.44,-72.97,121.09,161.61,193.24,0,72.15,0.12
dw_cut_4_n1_3f_opt_disp_struct_0.xyz,Nucleus 20C :,2.281828,-4.042975,2.337691,6.08,-83.06,86.91,14.39,204.79,260.68,268.72,-118.23,-348.16,-249.57,-83.06,14.39,86.91,0,169.97,0.15
dw_cut_4_n1_3f_opt_disp_struct_0.xyz,Nucleus 5N :,1.198472,-2.981907,2.256143,136.68,75.11,184.55,150.38,293.24,339.04,327.15,-108.71,-188.24,-252.44,75.11,150.38,184.55,0,109.44,0.38
dw_cut_4_n1_3f_opt_disp_struct_0.xyz,Nucleus 21O :,0.289486,-3.086909,3.129169,-109.9,-431.63,-77.29,179.23,432.64,412.33,402.73,-860.17,-484.1,-233.12,-431.63,-77.29,179.23,0,610.86,0.16
dw_cut_4_n1_3f_opt_disp_struct_0.xyz,Nucleus 22O :,1.340259,-2.121964,1.342991,-125.1,-452.06,-49.6,126.35,402.62,423.45,441.09,-881.91,-463.58,-296.97,-452.06,-49.6,126.35,0,578.41,0.39
dw_cut_4_n1_3f_opt_disp_struct_0.xyz,Nucleus 10F :,1.921833,-4.947069,1.829933,332.77,400.91,277.05,320.35,458.77,469.91,487.62,-69.01,-181.82,-167.16,277.05,320.35,400.91,0,123.86,-0.3
dw_cut_4_n1_3f_opt_disp_struct_0.xyz,Nucleus 14F :,3.208322,-3.728859,1.844552,330.78,416.66,310.35,265.32,483.19,465.13,471.4,-52.32,-171.5,-203.57,265.32,310.35,416.66,0,151.34,-0.4
dw_cut_4_n1_3f_opt_disp_struct_0.xyz,Nucleus 16F :,2.481883,-4.315465,3.378917,371.35,465.23,332.07,316.75,486.01,468.02,458.25,3.85,-134.22,-167.85,316.75,332.07,465.23,0,148.48,-0.79
dw_cut_4_n1_3f_opt_disp_struct_1.xyz,Nucleus 1H :,0.973862,-0.040575,-1.33426,29.5,35.46,23.97,29.06,40.4,26.32,28.57,1.83,-5.87,-2.77,23.97,29.06,35.46,0,11.49,-0.11
dw_cut_4_n1_3f_opt_disp_struct_1.xyz,Nucleus 2H :,1.723204,0.646458,-1.743314,28.43,34.01,24.05,27.23,44.26,22.44,27.48,-11.65,3.44,-0.69,24.05,27.23,34.01,0,9.96,-0.36
dw_cut_4_n1_3f_opt_disp_struct_1.xyz,Nucleus 6H :,1.249716,-1.060653,-1.636402,24.83,16.5,26.21,31.77,12.11,32.27,48.69,-17.53,4.84,-5.9,16.5,26.21,31.77,0,15.27,0.27
dw_cut_4_n1_3f_opt_disp_struct_1.xyz,Nucleus 12H :,0.899497,0.083391,0.145497,25.26,21.66,25.99,28.12,48.58,16.66,32.72,-23.19,5.6,-4.6,21.66,25.99,28.12,0,6.46,0.34
dw_cut_4_n1_3f_opt_disp_struct_1.xyz,Nucleus 17H :,1.687597,0.892644,0.941965,24.97,21.65,26.31,26.95,45.04,27.85,30.96,-18.82,-6.42,-3.71,21.65,26.31,26.95,0,5.3,0.76
dw_cut_4_n1_3f_opt_disp_struct_1.xyz,Nucleus 18H :,1.305927,0.724076,2.246026,28.84,34.98,27.87,23.67,41.83,26.8,32.31,-10.23,0.42,-4.6,23.67,27.87,34.98,0,11.31,-0.26
dw_cut_4_n1_3f_opt_disp_struct_1.xyz,Nucleus 23H :,1.700961,1.188622,3.041257,30.07,33.96,28.51,27.73,38.66,21.52,20.77,-4.96,6.85,7.36,27.73,28.51,33.96,0,6.23,-0.75
dw_cut_4_n1_3f_opt_disp_struct_1.xyz,Nucleus 24H :,0.275961,-0.181519,2.318621,30.61,35.11,25.87,30.86,39.36,15.0,27.9,-4.4,10.94,3.04,25.87,30.86,35.11,0,9.24,0.08
dw_cut_4_n1_3f_opt_disp_struct_1.xyz,Nucleus 25H :,-0.006175,-0.60217,1.016737,30.29,34.92,29.87,26.09,40.82,20.27,17.16,-5.97,8.72,9.88,26.09,29.87,34.92,0,8.83,-0.14
dw_cut_4_n1_3f_opt_disp_struct_1.xyz,Nucleus 0C :,-1.043454,-1.542676,0.835008,169.63,186.37,162.94,159.59,254.66,238.94,236.28,-76.74,-77.86,-66.38,159.59,162.94,186.37,0,26.78,-0.75
dw_cut_4_n1_3f_opt_disp_struct_1.xyz,Nucleus 3C :,-1.357757,-1.978581,-0.393291,61.31,149.33,53.27,-18.68,242.18,262.93,273.9,-93.5,-219.2,-282.36,-18.68,53.27,149.33,0,168.01,-0.14
dw_cut_4_n1_3f_opt_disp_struct_1.xyz,Nucleus 4C :,-1.75845,-2.034834,1.92765,63.11,-16.35,124.46,81.23,253.46,266.21,273.47,-282.51,-134.36,-186.93,-16.35,81.23,124.46,0,140.81,0.39
dw_cut_4_n1_3f_opt_disp_struct_1.xyz,Nucleus 7C :,-2.507843,-2.806705,1.797224,52.15,137.94,-3.9,22.41,260.55,271.21,275.31,-129.77,-277.15,-243.7,-3.9,22.41,137.94,0,141.84,-0.63
dw_cut_4_n1_3f_opt_disp_struct_1.xyz,Nucleus 8C :,-1.44619,-1.592725,3.205362,51.83,157.11,14.46,-16.09,237.54,256.92,264.15,-81.08,-244.43,-277.62,-16.09,14.46,157.11,0,173.2,-0.65
dw_cut_4_n1_3f_opt_disp_struct_1.xyz,Nucleus 9C :,-2.140482,-2.073283,4.246881,20.12,-49.22,30.36,79.23,233.95,261.84,263.41,-154.91,-231.48,-312.43,-49.22,30.36,79.23,0,128.45,0.24
dw_cut_4_n1_3f_opt_disp_struct_1.xyz,Nucleus 11C :,-0.429886,-0.662999,3.423444,80.27,152.54,14.07,74.21,241.27,265.83,277.75,-89.34,-258.08,-196.61,14.07,74.21,152.54,0,138.47,-0.13
dw_cut_4_n1_3f_opt_disp_struct_1.xyz,Nucleus 13C :,-0.136801,-0.241182,4.660667,21.06,87.72,11.46,-36.01,228.94,258.37,277.75,-141.36,-266.11,-294.43,-36.01,11.46,87.72,0,123.73,-0.23
dw_cut_4_n1_3f_opt_disp_struct_1.xyz,Nucleus 15C :,2.489805,1.563582,0.668482,36.12,89.15,20.27,-1.05,233.44,273.63,265.16,-145.73,-252.87,-265.25,-1.05,20.27,89.15,0,90.2,-0.53
dw_cut_4_n1_3f_opt_disp_struct_1.xyz,Nucleus 19C :,0.012703,0.181997,-1.812808,159.26,121.29,192.95,163.55,255.87,228.95,222.94,-101.92,-57.24,-70.82,121.29,163.55,192.95,0,71.66,0.18
dw_cut_4_n1_3f_opt_disp_struct_1.xyz,Nucleus 20C :,2.446801,-4.22922,2.362117,4.1,-81.4,77.22,16.49,202.3,258.78,267.23,-125.28,-345.25,-245.47,-81.4,16.49,77.22,0,158.62,0.23
dw_cut_4_n1_3f_opt_disp_struct_1.xyz,Nucleus 5N :,1.363444,-3.168153,2.280569,132.65,68.0,184.7,145.25,293.95,339.69,328.77,-109.36,-194.1,-261.0,68.0,145.25,184.7,0,116.7,0.32
dw_cut_4_n1_3f_opt_disp_struct_1.xyz,Nucleus 21O :,0.454459,-3.273154,3.153595,-70.97,201.57,-69.97,-344.51,402.52,415.67,424.01,-214.48,-476.28,-764.34,-344.51,-69.97,201.57,0,546.08,0.01
dw_cut_4_n1_3f_opt_disp_struct_1.xyz,Nucleus 22O :,1.505231,-2.308209,1.367417,-80.1,-358.51,-53.84,172.04,400.34,423.06,435.62,-777.19,-471.14,-251.0,-358.51,-53.84,172.04,0,530.55,0.15
dw_cut_4_n1_3f_opt_disp_struct_1.xyz,Nucleus 10F :,2.086806,-5.133315,1.854359,322.57,400.18,256.57,310.95,459.75,470.61,487.39,-70.26,-203.44,-176.34,256.57,310.95,400.18,0,143.61,-0.24
dw_cut_4_n1_3f_opt_disp_struct_1.xyz,Nucleus 14F :,3.373294,-3.915105,1.868978,328.38,415.72,306.66,262.75,484.42,465.56,471.03,-55.03,-175.23,-205.62,262.75,306.66,415.72,0,152.97,-0.43
dw_cut_4_n1_3f_opt_disp_struct_1.xyz,Nucleus 16F :,2.646855,-4.50171,3.403343,365.35,463.7,322.4,309.95,485.48,467.04,461.0,-0.3,-145.24,-171.95,309.95,322.4,463.7,0,153.75,-0.84
dw_cut_4_n1_3f_opt_disp_struct_10.xyz,Nucleus 1H :,0.973862,-0.040575,-1.33426,29.35,35.36,23.77,28.93,40.52,27.08,29.08,-6.4,0.32,-2.56,23.77,28.93,35.36,0,11.59,-0.11
dw_cut_4_n1_3f_opt_disp_struct_10.xyz,Nucleus 2H :,1.723204,0.646458,-1.743314,28.42,34.39,23.87,27.01,45.23,24.32,26.79,-11.94,2.32,-1.44,23.87,27.01,34.39,0,10.52,-0.4
dw_cut_4_n1_3f_opt_disp_struct_10.xyz,Nucleus 6H :,1.249716,-1.060653,-1.636402,24.11,15.93,25.67,30.72,11.28,30.97,49.58,-19.23,4.91,-5.18,15.93,25.67,30.72,0,14.79,0.32
dw_cut_4_n1_3f_opt_disp_struct_10.xyz,Nucleus 12H :,0.899497,0.083391,0.145497,24.64,21.06,25.08,27.77,47.47,15.69,30.84,-22.43,5.49,-3.14,21.06,25.08,27.77,0,6.71,0.2
dw_cut_4_n1_3f_opt_disp_struct_10.xyz,Nucleus 17H :,1.687597,0.892644,0.941965,24.53,21.12,25.69,26.78,44.88,27.56,31.02,-19.14,-6.38,-4.35,21.12,25.69,26.78,0,5.66,0.61
dw_cut_4_n1_3f_opt_disp_struct_10.xyz,Nucleus 18H :,1.305927,0.724076,2.246026,28.95,34.99,27.98,23.87,42.58,27.62,33.02,-0.19,-10.55,-5.63,23.87,27.98,34.99,0,11.12,-0.26
dw_cut_4_n1_3f_opt_disp_struct_10.xyz,Nucleus 23H :,1.700961,1.188622,3.041257,29.8,32.74,28.82,27.84,15.94,23.31,37.61,12.76,4.91,-5.14,27.84,28.82,32.74,0,4.9,-0.6
dw_cut_4_n1_3f_opt_disp_struct_10.xyz,Nucleus 24H :,0.275961,-0.181519,2.318621,30.32,34.33,26.27,30.36,39.05,13.84,25.69,-4.92,12.49,4.81,26.27,30.36,34.33,0,8.06,0.01
dw_cut_4_n1_3f_opt_disp_struct_10.xyz,Nucleus 25H :,-0.006175,-0.60217,1.016737,30.1,33.93,29.94,26.44,39.48,20.21,12.43,-5.61,9.7,14.1,26.44,29.94,33.93,0,7.49,-0.06
dw_cut_4_n1_3f_opt_disp_struct_10.xyz,Nucleus 0C :,-1.043454,-1.542676,0.835008,170.44,186.51,164.55,160.27,256.55,241.24,236.93,-79.18,-76.59,-67.62,160.27,164.55,186.51,0,26.24,-0.67
dw_cut_4_n1_3f_opt_disp_struct_10.xyz,Nucleus 3C :,-1.357757,-1.978581,-0.393291,61.7,148.52,53.97,-17.4,242.13,273.36,263.33,-93.63,-219.22,-280.87,-17.4,53.97,148.52,0,165.92,-0.14
dw_cut_4_n1_3f_opt_disp_struct_10.xyz,Nucleus 4C :,-1.75845,-2.034834,1.92765,57.92,-24.31,125.51,72.56,254.64,264.85,273.73,-290.31,-133.11,-196.04,-24.31,72.56,125.51,0,149.82,0.29
dw_cut_4_n1_3f_opt_disp_struct_10.xyz,Nucleus 7C :,-2.507843,-2.806705,1.797224,50.52,137.44,-4.28,18.41,261.18,269.09,274.05,-125.69,-277.87,-249.18,-4.28,18.41,137.44,0,141.72,-0.68
dw_cut_4_n1_3f_opt_disp_struct_10.xyz,Nucleus 8C :,-1.44619,-1.592725,3.205362,60.93,155.87,28.29,-1.36,237.44,264.61,268.41,-81.66,-236.86,-269.16,-1.36,28.29,155.87,0,157.23,-0.62
dw_cut_4_n1_3f_opt_disp_struct_10.xyz,Nucleus 9C :,-2.140482,-2.073283,4.246881,18.09,-54.57,78.06,30.78,234.3,266.02,263.74,-156.48,-234.86,-318.45,-54.57,30.78,78.06,0,132.63,0.29
dw_cut_4_n1_3f_opt_disp_struct_10.xyz,Nucleus 11C :,-0.429886,-0.662999,3.423444,79.17,153.4,13.99,70.12,237.25,266.15,273.01,-84.06,-254.51,-200.32,13.99,70.12,153.4,0,139.41,-0.19
dw_cut_4_n1_3f_opt_disp_struct_10.xyz,Nucleus 13C :,-0.136801,-0.241182,4.660667,26.01,87.34,18.08,-27.39,231.3,261.19,270.61,-144.01,-252.13,-288.92,-27.39,18.08,87.34,0,114.73,-0.21
dw_cut_4_n1_3f_opt_disp_struct_10.xyz,Nucleus 15C :,2.489805,1.563582,0.668482,38.02,88.61,25.3,0.16,232.46,270.79,267.18,-144.99,-244.29,-267.08,0.16,25.3,88.61,0,88.45,-0.43
dw_cut_4_n1_3f_opt_disp_struct_10.xyz,Nucleus 19C :,0.012703,0.181997,-1.812808,159.57,121.46,190.93,166.32,252.42,226.28,218.04,-96.89,-55.3,-65.83,121.46,166.32,190.93,0,69.47,0.29
dw_cut_4_n1_3f_opt_disp_struct_10.xyz,Nucleus 20C :,3.931554,-5.905431,2.581951,2.58,-86.07,67.41,26.4,202.79,256.61,265.65,-135.41,-342.72,-239.19,-86.07,26.4,67.41,0,153.48,0.47
dw_cut_4_n1_3f_opt_disp_struct_10.xyz,Nucleus 5N :,2.848197,-4.844363,2.500403,124.43,53.72,184.99,134.57,293.41,339.32,330.48,-108.63,-204.21,-277.09,53.72,134.57,184.99,0,131.27,0.23
dw_cut_4_n1_3f_opt_disp_struct_10.xyz,Nucleus 21O :,1.939212,-4.949365,3.373429,-25.56,219.83,-36.39,-260.11,426.25,406.19,396.1,-187.46,-444.09,-673.63,-260.11,-36.39,219.83,0,479.94,-0.07
dw_cut_4_n1_3f_opt_disp_struct_10.xyz,Nucleus 22O :,2.989984,-3.984419,1.587252,-30.34,212.14,-261.23,-41.93,401.03,438.86,426.63,-225.75,-674.38,-457.41,-261.23,-41.93,212.14,0,473.37,-0.07
dw_cut_4_n1_3f_opt_disp_struct_10.xyz,Nucleus 10F :,3.571559,-6.809525,2.074194,306.86,398.66,227.41,294.52,484.05,468.26,460.51,-69.26,-233.46,-189.51,227.41,294.52,398.66,0,171.25,-0.22
dw_cut_4_n1_3f_opt_disp_struct_10.xyz,Nucleus 14F :,4.858048,-5.591315,2.088812,325.58,413.11,301.05,262.58,461.95,482.25,471.87,-60.15,-178.65,-200.52,262.58,301.05,413.11,0,150.53,-0.49
dw_cut_4_n1_3f_opt_disp_struct_10.xyz,Nucleus 16F :,4.131608,-6.177921,3.623177,353.8,459.08,308.04,294.27,486.34,461.37,462.88,-3.85,-161.64,-183.7,294.27,308.04,459.08,0,164.81,-0.83
dw_cut_4_n1_3f_opt_disp_struct_11.xyz,Nucleus 1H :,0.973862,-0.040575,-1.33426,29.33,35.34,23.75,28.91,40.47,27.0,29.06,-6.34,0.35,-2.55,23.75,28.91,35.34,0,11.59,-0.11
dw_cut_4_n1_3f_opt_disp_struct_11.xyz,Nucleus 2H :,1.723204,0.646458,-1.743314,28.43,34.43,23.87,27.0,45.2,24.27,26.71,-11.85,2.39,-1.41,23.87,27.0,34.43,0,10.56,-0.41
dw_cut_4_n1_3f_opt_disp_struct_11.xyz,Nucleus 6H :,1.249716,-1.060653,-1.636402,24.08,15.89,25.66,30.69,11.26,30.91,49.48,-19.15,4.86,-5.13,15.89,25.66,30.69,0,14.8,0.32
dw_cut_4_n1_3f_opt_disp_struct_11.xyz,Nucleus 12H :,0.899497,0.083391,0.145497,24.62,21.01,25.09,27.77,47.3,15.71,30.75,-22.25,5.42,-3.06,21.01,25.09,27.77,0,6.76,0.21
dw_cut_4_n1_3f_opt_disp_struct_11.xyz,Nucleus 17H :,1.687597,0.892644,0.941965,24.51,21.08,25.66,26.78,44.82,27.51,30.96,-19.1,-6.38,-4.29,21.08,25.66,26.78,0,5.7,0.61
dw_cut_4_n1_3f_opt_disp_struct_11.xyz,Nucleus 18H :,1.305927,0.724076,2.246026,28.94,34.98,27.97,23.86,42.53,27.54,32.94,-0.13,-10.47,-5.6,23.86,27.97,34.98,0,11.12,-0.26
dw_cut_4_n1_3f_opt_disp_struct_11.xyz,Nucleus 23H :,1.700961,1.188622,3.041257,29.78,32.66,28.83,27.86,15.64,23.61,37.6,13.06,4.64,-5.21,27.86,28.83,32.66,0,4.8,-0.59
dw_cut_4_n1_3f_opt_disp_struct_11.xyz,Nucleus 24H :,0.275961,-0.181519,2.318621,30.3,34.29,26.29,30.33,39.15,13.81,25.63,-5.06,12.54,4.84,26.29,30.33,34.29,0,8.0,0.01
dw_cut_4_n1_3f_opt_disp_struct_11.xyz,Nucleus 25H :,-0.006175,-0.60217,1.016737,30.09,33.87,29.94,26.46,39.45,20.31,12.18,-5.64,9.62,14.37,26.46,29.94,33.87,0,7.41,-0.06
dw_cut_4_n1_3f_opt_disp_struct_11.xyz,Nucleus 0C :,-1.043454,-1.542676,0.835008,170.48,186.49,164.64,160.3,256.61,241.04,236.85,-79.0,-76.37,-67.7,160.3,164.64,186.49,0,26.19,-0.67
dw_cut_4_n1_3f_opt_disp_struct_11.xyz,Nucleus 3C :,-1.357757,-1.978581,-0.393291,61.72,148.47,53.99,-17.31,241.99,272.89,263.29,-93.54,-218.76,-280.72,-17.31,53.99,148.47,0,165.78,-0.14
dw_cut_4_n1_3f_opt_disp_struct_11.xyz,Nucleus 4C :,-1.75845,-2.034834,1.92765,57.65,-24.67,125.54,72.09,254.37,264.92,273.6,-290.61,-133.0,-196.33,-24.67,72.09,125.54,0,150.21,0.29
dw_cut_4_n1_3f_opt_disp_struct_11.xyz,Nucleus 7C :,-2.507843,-2.806705,1.797224,50.62,137.4,-4.03,18.49,260.88,269.17,273.37,-125.31,-277.08,-249.17,-4.03,18.49,137.4,0,141.43,-0.68
dw_cut_4_n1_3f_opt_disp_struct_11.xyz,Nucleus 8C :,-1.44619,-1.592725,3.205362,61.08,155.81,28.57,-1.15,237.52,263.9,268.4,-81.77,-235.93,-268.89,-1.15,28.57,155.81,0,156.96,-0.62
dw_cut_4_n1_3f_opt_disp_struct_11.xyz,Nucleus 9C :,-2.140482,-2.073283,4.246881,18.18,-54.37,78.06,30.86,234.05,265.91,263.39,-156.27,-234.62,-317.91,-54.37,30.86,78.06,0,132.43,0.29
dw_cut_4_n1_3f_opt_disp_struct_11.xyz,Nucleus 11C :,-0.429886,-0.662999,3.423444,79.19,153.42,14.08,70.06,237.05,265.83,272.75,-83.86,-254.0,-200.22,14.08,70.06,153.42,0,139.34,-0.2
dw_cut_4_n1_3f_opt_disp_struct_11.xyz,Nucleus 13C :,-0.136801,-0.241182,4.660667,26.12,87.3,18.24,-27.17,231.48,261.07,270.25,-144.22,-251.65,-288.55,-27.17,18.24,87.3,0,114.47,-0.21
dw_cut_4_n1_3f_opt_disp_struct_11.xyz,Nucleus 15C :,2.489805,1.563582,0.668482,38.11,88.58,25.46,0.28,232.62,270.47,267.1,-145.1,-243.9,-266.87,0.28,25.46,88.58,0,88.3,-0.43
dw_cut_4_n1_3f_opt_disp_struct_11.xyz,Nucleus 19C :,0.012703,0.181997,-1.812808,159.54,121.35,190.84,166.43,252.31,227.06,218.68,-97.72,-55.85,-65.87,121.35,166.43,190.84,0,69.49,0.3
dw_cut_4_n1_3f_opt_disp_struct_11.xyz,Nucleus 20C :,4.096526,-6.091676,2.606377,2.57,-86.3,67.35,26.66,202.42,256.24,265.87,-135.09,-342.54,-239.18,-86.3,26.66,67.35,0,153.65,0.47
dw_cut_4_n1_3f_opt_disp_struct_11.xyz,Nucleus 5N :,3.01317,-5.030609,2.524829,124.15,53.3,184.98,134.18,293.42,339.09,330.41,-108.58,-204.36,-277.52,53.3,134.18,184.98,0,131.68,0.23
dw_cut_4_n1_3f_opt_disp_struct_11.xyz,Nucleus 21O :,2.104185,-5.13561,3.397855,-25.47,220.75,-36.59,-260.58,427.21,405.44,395.67,-185.51,-444.48,-674.74,-260.58,-36.59,220.75,0,481.33,-0.07
dw_cut_4_n1_3f_opt_disp_struct_11.xyz,Nucleus 22O :,3.154957,-4.170665,1.611678,-30.98,212.46,-262.58,-42.82,401.19,440.75,427.27,-227.25,-677.11,-457.79,-262.58,-42.82,212.46,0,475.04,-0.07
dw_cut_4_n1_3f_opt_disp_struct_11.xyz,Nucleus 10F :,3.736531,-6.995771,2.09862,306.44,398.61,226.69,294.02,483.86,467.98,460.39,-69.06,-234.02,-189.81,226.69,294.02,398.61,0,171.92,-0.22
dw_cut_4_n1_3f_opt_disp_struct_11.xyz,Nucleus 14F :,5.02302,-5.777561,2.113238,325.33,412.95,300.78,262.27,461.73,482.14,471.87,-60.2,-178.81,-200.72,262.27,300.78,412.95,0,150.68,-0.49
dw_cut_4_n1_3f_opt_disp_struct_11.xyz,Nucleus 16F :,4.296581,-6.364166,3.647603,353.39,458.85,307.6,293.73,486.16,461.14,463.04,-4.09,-162.2,-183.87,293.73,307.6,458.85,0,165.12,-0.83
dw_cut_4_n1_3f_opt_disp_struct_12.xyz,Nucleus 1H :,0.973862,-0.040575,-1.33426,29.31,35.32,23.72,28.9,40.43,26.94,29.04,-6.29,0.37,-2.54,23.72,28.9,35.32,0,11.6,-0.11
dw_cut_4_n1_3f_opt_disp_struct_12.xyz,Nucleus 2H :,1.723204,0.646458,-1.743314,28.44,34.47,23.87,26.99,45.17,24.22,26.63,-11.77,2.45,-1.37,23.87,26.99,34.47,0,10.6,-0.41
dw_cut_4_n1_3f_opt_disp_struct_12.xyz,Nucleus 6H :,1.249716,-1.060653,-1.636402,24.06,15.86,25.64,30.67,11.24,30.87,49.38,-19.06,4.82,-5.09,15.86,25.64,30.67,0,14.81,0.32
dw_cut_4_n1_3f_opt_disp_struct_12.xyz,Nucleus 12H :,0.899497,0.083391,0.145497,24.61,20.97,25.09,27.78,47.16,15.71,30.68,-22.1,5.37,-2.99,20.97,25.09,27.78,0,6.81,0.21
dw_cut_4_n1_3f_opt_disp_struct_12.xyz,Nucleus 17H :,1.687597,0.892644,0.941965,24.49,21.05,25.63,26.78,44.76,27.46,30.92,-19.06,-6.37,-4.25,21.05,25.63,26.78,0,5.73,0.6
dw_cut_4_n1_3f_opt_disp_struct_12.xyz,Nucleus 18H :,1.305927,0.724076,2.246026,28.93,34.96,27.96,23.86,42.48,27.48,32.86,-0.08,-10.39,-5.56,23.86,27.96,34.96,0,11.1,-0.26
dw_cut_4_n1_3f_opt_disp_struct_12.xyz,Nucleus 23H :,1.700961,1.188622,3.041257,29.77,32.59,28.84,27.88,15.3,23.87,37.58,13.42,4.41,-5.27,27.88,28.84,32.59,0,4.71,-0.59
dw_cut_4_n1_3f_opt_disp_struct_12.xyz,Nucleus 24H :,0.275961,-0.181519,2.318621,30.29,34.25,26.31,30.3,39.23,13.7,25.54,-5.18,12.68,4.9,26.31,30.3,34.25,0,7.94,0.0
dw_cut_4_n1_3f_opt_disp_struct_12.xyz,Nucleus 25H :,-0.006175,-0.60217,1.016737,30.08,33.81,29.95,26.48,39.42,20.35,11.9,-5.67,9.57,14.67,26.48,29.95,33.81,0,7.33,-0.05
dw_cut_4_n1_3f_opt_disp_struct_12.xyz,Nucleus 0C :,-1.043454,-1.542676,0.835008,170.51,186.48,164.72,160.32,256.66,240.85,236.78,-78.83,-76.18,-67.76,160.32,164.72,186.48,0,26.16,-0.66
dw_cut_4_n1_3f_opt_disp_struct_12.xyz,Nucleus 3C :,-1.357757,-1.978581,-0.393291,61.72,148.42,53.99,-17.25,241.9,272.55,263.29,-93.49,-218.43,-280.65,-17.25,53.99,148.42,0,165.67,-0.14
dw_cut_4_n1_3f_opt_disp_struct_12.xyz,Nucleus 4C :,-1.75845,-2.034834,1.92765,57.44,-24.96,125.58,71.69,254.19,264.9,273.52,-290.84,-132.9,-196.56,-24.96,71.69,125.58,0,150.54,0.28
dw_cut_4_n1_3f_opt_disp_struct_12.xyz,Nucleus 7C :,-2.507843,-2.806705,1.797224,50.7,137.37,-3.82,18.55,260.61,272.78,269.29,-125.02,-276.38,-249.19,-3.82,18.55,137.37,0,141.19,-0.68
dw_cut_4_n1_3f_opt_disp_struct_12.xyz,Nucleus 8C :,-1.44619,-1.592725,3.205362,61.17,155.74,28.78,-1.0,237.59,263.34,268.36,-81.89,-235.21,-268.66,-1.0,28.78,155.74,0,156.74,-0.62
dw_cut_4_n1_3f_opt_disp_struct_12.xyz,Nucleus 9C :,-2.140482,-2.073283,4.246881,18.26,-54.21,78.06,30.92,233.88,265.79,263.12,-156.12,-234.45,-317.46,-54.21,30.92,78.06,0,132.27,0.29
dw_cut_4_n1_3f_opt_disp_struct_12.xyz,Nucleus 11C :,-0.429886,-0.662999,3.423444,79.19,153.43,14.14,70.0,236.85,265.54,272.57,-83.67,-253.56,-200.16,14.14,70.0,153.43,0,139.29,-0.2
dw_cut_4_n1_3f_opt_disp_struct_12.xyz,Nucleus 13C :,-0.136801,-0.241182,4.660667,26.21,87.28,18.36,-27.0,231.6,260.99,269.94,-144.35,-251.25,-288.28,-27.0,18.36,87.28,0,114.28,-0.21
dw_cut_4_n1_3f_opt_disp_struct_12.xyz,Nucleus 15C :,2.489805,1.563582,0.668482,38.18,88.57,25.59,0.38,232.81,270.14,267.05,-145.21,-243.57,-266.69,0.38,25.59,88.57,0,88.19,-0.43
dw_cut_4_n1_3f_opt_disp_struct_12.xyz,Nucleus 19C :,0.012703,0.181997,-1.812808,159.51,121.25,190.74,166.54,252.24,227.55,219.06,-98.25,-56.21,-65.84,121.25,166.54,190.74,0,69.49,0.3
dw_cut_4_n1_3f_opt_disp_struct_12.xyz,Nucleus 20C :,4.261499,-6.277922,2.630803,2.53,-86.51,67.26,26.85,202.19,255.91,266.13,-134.95,-342.41,-239.27,-86.51,26.85,67.26,0,153.77,0.47
dw_cut_4_n1_3f_opt_disp_struct_12.xyz,Nucleus 5N :,3.178143,-5.216854,2.549255,123.94,52.96,184.99,133.86,293.4,338.91,330.3,-108.51,-204.49,-277.79,52.96,133.86,184.99,0,132.03,0.23
dw_cut_4_n1_3f_opt_disp_struct_12.xyz,Nucleus 21O :,2.269157,-5.321856,3.422281,-25.4,221.62,-36.8,-261.02,428.05,404.95,395.29,-183.96,-444.82,-675.72,-261.02,-36.8,221.62,0,482.64,-0.07
dw_cut_4_n1_3f_opt_disp_struct_12.xyz,Nucleus 22O :,3.319929,-4.356911,1.636104,-31.62,212.95,-264.12,-43.68,401.29,442.29,427.89,-228.23,-679.93,-458.16,-264.12,-43.68,212.95,0,477.07,-0.08
dw_cut_4_n1_3f_opt_disp_struct_12.xyz,Nucleus 10F :,3.901504,-7.182016,2.123046,306.05,398.54,226.08,293.53,483.67,467.72,460.26,-68.91,-234.47,-190.11,226.08,293.53,398.54,0,172.46,-0.22
dw_cut_4_n1_3f_opt_disp_struct_12.xyz,Nucleus 14F :,5.187993,-5.963806,2.137664,325.09,412.82,300.48,261.96,461.55,482.0,471.9,-60.29,-179.01,-200.9,261.96,300.48,412.82,0,150.86,-0.49
dw_cut_4_n1_3f_opt_disp_struct_12.xyz,Nucleus 16F :,4.461554,-6.550412,3.672029,353.02,458.67,307.15,293.23,485.94,461.0,463.21,-4.38,-162.65,-184.06,293.23,307.15,458.67,0,165.44,-0.83
dw_cut_4_n1_3f_opt_disp_struct_13.xyz,Nucleus 1H :,0.973862,-0.040575,-1.33426,29.3,35.31,23.7,28.89,40.4,26.87,29.02,-6.25,0.39,-2.53,23.7,28.89,35.31,0,11.61,-0.11
dw_cut_4_n1_3f_opt_disp_struct_13.xyz,Nucleus 2H :,1.723204,0.646458,-1.743314,28.45,34.51,23.87,26.98,45.13,24.18,26.57,-11.69,2.51,-1.34,23.87,26.98,34.51,0,10.64,-0.41
dw_cut_4_n1_3f_opt_disp_struct_13.xyz,Nucleus 6H :,1.249716,-1.060653,-1.636402,24.04,15.83,25.63,30.65,11.22,30.84,49.29,-18.97,4.8,-5.06,15.83,25.63,30.65,0,14.82,0.32
dw_cut_4_n1_3f_opt_disp_struct_13.xyz,Nucleus 12H :,0.899497,0.083391,0.145497,24.6,20.93,25.09,27.78,47.02,15.71,30.63,-21.96,5.33,-2.94,20.93,25.09,27.78,0,6.85,0.21
dw_cut_4_n1_3f_opt_disp_struct_13.xyz,Nucleus 17H :,1.687597,0.892644,0.941965,24.47,21.01,25.61,26.78,44.7,27.42,30.88,-19.02,-6.37,-4.21,21.01,25.61,26.78,0,5.77,0.59
dw_cut_4_n1_3f_opt_disp_struct_13.xyz,Nucleus 18H :,1.305927,0.724076,2.246026,28.92,34.95,27.96,23.85,42.44,27.42,32.79,-0.04,-10.32,-5.54,23.85,27.96,34.95,0,11.1,-0.26
dw_cut_4_n1_3f_opt_disp_struct_13.xyz,Nucleus 23H :,1.700961,1.188622,3.041257,29.76,32.53,28.85,27.9,14.91,24.08,37.56,13.83,4.22,-5.32,27.9,28.85,32.53,0,4.63,-0.59
dw_cut_4_n1_3f_opt_disp_struct_13.xyz,Nucleus 24H :,0.275961,-0.181519,2.318621,30.28,34.22,26.34,30.27,39.29,13.49,25.42,-5.28,12.91,5.0,26.34,30.27,34.22,0,7.88,-0.0
dw_cut_4_n1_3f_opt_disp_struct_13.xyz,Nucleus 25H :,-0.006175,-0.60217,1.016737,30.07,33.76,29.95,26.5,39.38,20.36,11.57,-5.69,9.57,15.01,26.5,29.95,33.76,0,7.26,-0.05
dw_cut_4_n1_3f_opt_disp_struct_13.xyz,Nucleus 0C :,-1.043454,-1.542676,0.835008,170.53,186.46,164.79,160.34,256.71,240.67,236.72,-78.69,-76.0,-67.82,160.34,164.79,186.46,0,26.12,-0.66
dw_cut_4_n1_3f_opt_disp_struct_13.xyz,Nucleus 3C :,-1.357757,-1.978581,-0.393291,61.72,148.38,53.99,-17.2,241.83,272.33,263.3,-93.46,-218.22,-280.61,-17.2,53.99,148.38,0,165.58,-0.14
dw_cut_4_n1_3f_opt_disp_struct_13.xyz,Nucleus 4C :,-1.75845,-2.034834,1.92765,57.25,-25.21,125.62,71.34,254.09,264.79,273.45,-291.03,-132.81,-196.75,-25.21,71.34,125.62,0,150.83,0.28
dw_cut_4_n1_3f_opt_disp_struct_13.xyz,Nucleus 7C :,-2.507843,-2.806705,1.797224,50.77,137.34,-3.64,18.6,260.43,272.32,269.29,-124.78,-275.78,-249.17,-3.64,18.6,137.34,0,140.98,-0.68
dw_cut_4_n1_3f_opt_disp_struct_13.xyz,Nucleus 8C :,-1.44619,-1.592725,3.205362,61.26,155.68,28.96,-0.87,237.65,262.98,268.3,-82.0,-234.71,-268.45,-0.87,28.96,155.68,0,156.55,-0.62
dw_cut_4_n1_3f_opt_disp_struct_13.xyz,Nucleus 9C :,-2.140482,-2.073283,4.246881,18.32,-54.07,78.06,30.96,233.76,265.7,262.9,-156.0,-234.32,-317.09,-54.07,30.96,78.06,0,132.13,0.29
dw_cut_4_n1_3f_opt_disp_struct_13.xyz,Nucleus 11C :,-0.429886,-0.662999,3.423444,79.2,153.44,14.2,69.95,236.66,265.29,272.44,-83.48,-253.19,-200.14,14.2,69.95,153.44,0,139.24,-0.2
dw_cut_4_n1_3f_opt_disp_struct_13.xyz,Nucleus 13C :,-0.136801,-0.241182,4.660667,26.29,87.27,18.45,-26.86,231.69,260.93,269.66,-144.47,-250.9,-288.06,-26.86,18.45,87.27,0,114.13,-0.21
dw_cut_4_n1_3f_opt_disp_struct_13.xyz,Nucleus 15C :,2.489805,1.563582,0.668482,38.24,88.55,25.71,0.47,233.0,269.84,266.99,-145.31,-243.27,-266.53,0.47,25.71,88.55,0,88.08,-0.43
dw_cut_4_n1_3f_opt_disp_struct_13.xyz,Nucleus 19C :,0.012703,0.181997,-1.812808,159.49,121.17,190.67,166.63,252.17,227.77,219.15,-98.48,-56.41,-65.74,121.17,166.63,190.67,0,69.5,0.31
dw_cut_4_n1_3f_opt_disp_struct_13.xyz,Nucleus 20C :,4.426472,-6.464168,2.655229,2.49,-86.69,67.19,26.98,202.08,255.63,266.45,-134.91,-342.3,-239.46,-86.69,26.98,67.19,0,153.88,0.48
dw_cut_4_n1_3f_opt_disp_struct_13.xyz,Nucleus 5N :,3.343115,-5.4031,2.573681,123.76,52.68,185.0,133.6,293.37,338.78,330.16,-108.45,-204.62,-277.97,52.68,133.6,185.0,0,132.32,0.22
dw_cut_4_n1_3f_opt_disp_struct_13.xyz,Nucleus 21O :,2.43413,-5.508101,3.446707,-25.32,222.33,-36.94,-261.34,428.8,404.73,395.0,-182.93,-445.07,-676.49,-261.34,-36.94,222.33,0,483.67,-0.07
dw_cut_4_n1_3f_opt_disp_struct_13.xyz,Nucleus 22O :,3.484902,-4.543156,1.66053,-32.19,213.42,-265.56,-44.44,401.33,443.64,428.45,-229.03,-682.5,-458.47,-265.56,-44.44,213.42,0,478.98,-0.08
dw_cut_4_n1_3f_opt_disp_struct_13.xyz,Nucleus 10F :,4.066476,-7.368262,2.147472,305.72,398.49,225.57,293.11,483.49,467.51,460.14,-68.79,-234.83,-190.34,225.57,293.11,398.49,0,172.92,-0.22
dw_cut_4_n1_3f_opt_disp_struct_13.xyz,Nucleus 14F :,5.352965,-6.150052,2.16209,324.86,412.7,300.2,261.68,461.4,481.84,471.97,-60.41,-179.19,-201.04,261.68,300.2,412.7,0,151.02,-0.49
dw_cut_4_n1_3f_opt_disp_struct_13.xyz,Nucleus 16F :,4.626526,-6.736657,3.696455,352.7,458.52,306.77,292.8,485.71,460.91,463.39,-4.71,-163.01,-184.2,292.8,306.77,458.52,0,165.72,-0.83
dw_cut_4_n1_3f_opt_disp_struct_14.xyz,Nucleus 1H :,0.973862,-0.040575,-1.33426,29.29,35.3,23.68,28.88,40.37,26.82,29.0,-6.22,0.41,-2.52,23.68,28.88,35.3,0,11.62,-0.11
dw_cut_4_n1_3f_opt_disp_struct_14.xyz,Nucleus 2H :,1.723204,0.646458,-1.743314,28.46,34.55,23.86,26.98,45.08,24.15,26.52,-11.61,2.56,-1.31,23.86,26.98,34.55,0,10.69,-0.42
dw_cut_4_n1_3f_opt_disp_struct_14.xyz,Nucleus 6H :,1.249716,-1.060653,-1.636402,24.02,15.8,25.62,30.64,11.19,30.81,49.2,-18.88,4.78,-5.04,15.8,25.62,30.64,0,14.84,0.32
dw_cut_4_n1_3f_opt_disp_struct_14.xyz,Nucleus 12H :,0.899497,0.083391,0.145497,24.59,20.89,25.09,27.78,46.9,15.71,30.59,-21.83,5.29,-2.9,20.89,25.09,27.78,0,6.89,0.22
dw_cut_4_n1_3f_opt_disp_struct_14.xyz,Nucleus 17H :,1.687597,0.892644,0.941965,24.46,20.99,25.6,26.78,44.65,27.39,30.84,-18.98,-6.37,-4.17,20.99,25.6,26.78,0,5.79,0.59
dw_cut_4_n1_3f_opt_disp_struct_14.xyz,Nucleus 18H :,1.305927,0.724076,2.246026,28.91,34.94,27.95,23.84,42.4,27.38,32.73,-0.01,-10.26,-5.51,23.84,27.95,34.94,0,11.1,-0.26
dw_cut_4_n1_3f_opt_disp_struct_14.xyz,Nucleus 23H :,1.700961,1.188622,3.041257,29.75,32.48,28.85,27.91,14.45,24.23,37.53,14.3,4.08,-5.35,27.91,28.85,32.48,0,4.57,-0.59
dw_cut_4_n1_3f_opt_disp_struct_14.xyz,Nucleus 24H :,0.275961,-0.181519,2.318621,30.26,34.19,26.36,30.24,39.35,13.19,25.27,-5.37,13.23,5.12,26.36,30.24,34.19,0,7.83,-0.01
dw_cut_4_n1_3f_opt_disp_struct_14.xyz,Nucleus 25H :,-0.006175,-0.60217,1.016737,30.06,33.72,29.95,26.51,39.33,20.33,11.2,-5.69,9.6,15.4,26.51,29.95,33.72,0,7.21,-0.05
dw_cut_4_n1_3f_opt_disp_struct_14.xyz,Nucleus 0C :,-1.043454,-1.542676,0.835008,170.55,186.45,164.84,160.36,256.75,240.51,236.66,-78.57,-75.83,-67.87,160.36,164.84,186.45,0,26.09,-0.66
dw_cut_4_n1_3f_opt_disp_struct_14.xyz,Nucleus 3C :,-1.357757,-1.978581,-0.393291,61.71,148.34,53.97,-17.17,241.77,272.16,263.32,-93.44,-218.08,-280.59,-17.17,53.97,148.34,0,165.51,-0.14
dw_cut_4_n1_3f_opt_disp_struct_14.xyz,Nucleus 4C :,-1.75845,-2.034834,1.92765,57.09,-25.43,125.65,71.04,254.07,264.61,273.4,-291.17,-132.74,-196.9,-25.43,71.04,125.65,0,151.08,0.28
dw_cut_4_n1_3f_opt_disp_struct_14.xyz,Nucleus 7C :,-2.507843,-2.806705,1.797224,50.83,137.31,-3.48,18.65,260.32,271.97,269.22,-124.6,-275.29,-249.14,-3.48,18.65,137.31,0,140.79,-0.69
dw_cut_4_n1_3f_opt_disp_struct_14.xyz,Nucleus 8C :,-1.44619,-1.592725,3.205362,61.32,155.62,29.11,-0.77,237.67,262.74,268.22,-82.07,-234.35,-268.26,-0.77,29.11,155.62,0,156.39,-0.62
dw_cut_4_n1_3f_opt_disp_struct_14.xyz,Nucleus 9C :,-2.140482,-2.073283,4.246881,18.37,-53.95,78.06,31.0,233.68,265.61,262.74,-155.9,-234.23,-316.78,-53.95,31.0,78.06,0,132.01,0.29
dw_cut_4_n1_3f_opt_disp_struct_14.xyz,Nucleus 11C :,-0.429886,-0.662999,3.423444,79.2,153.45,14.25,69.91,236.5,265.07,272.36,-83.31,-252.86,-200.14,14.25,69.91,153.45,0,139.2,-0.2
dw_cut_4_n1_3f_opt_disp_struct_14.xyz,Nucleus 13C :,-0.136801,-0.241182,4.660667,26.35,87.26,18.52,-26.74,231.78,260.88,269.46,-144.57,-250.63,-287.88,-26.74,18.52,87.26,0,114.0,-0.21
dw_cut_4_n1_3f_opt_disp_struct_14.xyz,Nucleus 15C :,2.489805,1.563582,0.668482,38.29,88.54,25.8,0.54,233.17,269.57,266.91,-145.39,-243.03,-266.36,0.54,25.8,88.54,0,88.0,-0.43
dw_cut_4_n1_3f_opt_disp_struct_14.xyz,Nucleus 19C :,0.012703,0.181997,-1.812808,159.47,121.11,190.59,166.7,252.11,227.73,218.92,-98.36,-56.46,-65.54,121.11,166.7,190.59,0,69.48,0.31
dw_cut_4_n1_3f_opt_disp_struct_14.xyz,Nucleus 20C :,4.591444,-6.650413,2.679655,2.46,-86.85,67.14,27.08,202.05,255.39,266.81,-134.93,-342.22,-239.73,-86.85,27.08,67.14,0,153.99,0.48
dw_cut_4_n1_3f_opt_disp_struct_14.xyz,Nucleus 5N :,3.508088,-5.589346,2.598107,123.61,52.44,185.01,133.38,293.35,338.68,330.01,-108.41,-204.73,-278.08,52.44,133.38,185.01,0,132.57,0.22
dw_cut_4_n1_3f_opt_disp_struct_14.xyz,Nucleus 21O :,2.599102,-5.694347,3.471133,-25.23,222.91,-37.04,-261.56,429.45,404.9,394.81,-182.54,-445.25,-677.05,-261.56,-37.04,222.91,0,484.47,-0.07
dw_cut_4_n1_3f_opt_disp_struct_14.xyz,Nucleus 22O :,3.649875,-4.729402,1.684956,-32.68,213.87,-266.82,-45.09,401.32,444.88,428.92,-229.75,-684.69,-458.71,-266.82,-45.09,213.87,0,480.69,-0.08
dw_cut_4_n1_3f_opt_disp_struct_14.xyz,Nucleus 10F :,4.231449,-7.554507,2.171898,305.44,398.44,225.14,292.75,483.31,467.33,460.02,-68.7,-235.12,-190.52,225.14,292.75,398.44,0,173.3,-0.22
dw_cut_4_n1_3f_opt_disp_struct_14.xyz,Nucleus 14F :,5.517938,-6.336298,2.186516,324.65,412.59,299.94,261.42,461.27,481.67,472.05,-60.54,-179.35,-201.15,261.42,299.94,412.59,0,151.17,-0.49
dw_cut_4_n1_3f_opt_disp_struct_14.xyz,Nucleus 16F :,4.791499,-6.922903,3.720881,352.42,458.38,306.44,292.43,485.48,460.84,463.56,-5.04,-163.28,-184.31,292.43,306.44,458.38,0,165.95,-0.83
dw_cut_4_n1_3f_opt_disp_struct_15.xyz,Nucleus 1H :,0.973862,-0.040575,-1.33426,29.28,35.29,23.67,28.87,40.35,26.77,28.98,-6.19,0.42,-2.5,23.67,28.87,35.29,0,11.62,-0.11
dw_cut_4_n1_3f_opt_disp_struct_15.xyz,Nucleus 2H :,1.723204,0.646458,-1.743314,28.48,34.58,23.86,26.99,45.04,24.13,26.48,-11.53,2.6,-1.29,23.86,26.99,34.58,0,10.72,-0.42
dw_cut_4_n1_3f_opt_disp_struct_15.xyz,Nucleus 6H :,1.249716,-1.060653,-1.636402,24.0,15.77,25.62,30.62,11.17,30.78,49.11,-18.8,4.77,-5.02,15.77,25.62,30.62,0,14.85,0.33
dw_cut_4_n1_3f_opt_disp_struct_15.xyz,Nucleus 12H :,0.899497,0.083391,0.145497,24.58,20.86,25.1,27.79,46.79,15.71,30.57,-21.71,5.25,-2.88,20.86,25.1,27.79,0,6.93,0.23
dw_cut_4_n1_3f_opt_disp_struct_15.xyz,Nucleus 17H :,1.687597,0.892644,0.941965,24.44,20.96,25.58,26.78,44.6,27.36,30.8,-18.94,-6.36,-4.13,20.96,25.58,26.78,0,5.82,0.59
dw_cut_4_n1_3f_opt_disp_struct_15.xyz,Nucleus 18H :,1.305927,0.724076,2.246026,28.91,34.93,27.95,23.84,42.37,27.34,32.66,0.02,-10.19,-5.48,23.84,27.95,34.93,0,11.09,-0.26
dw_cut_4_n1_3f_opt_disp_struct_15.xyz,Nucleus 23H :,1.700961,1.188622,3.041257,29.74,32.43,28.86,27.93,13.93,24.33,37.5,14.85,3.99,-5.37,27.93,28.86,32.43,0,4.5,-0.59
dw_cut_4_n1_3f_opt_disp_struct_15.xyz,Nucleus 24H :,0.275961,-0.181519,2.318621,30.25,34.17,26.38,30.21,39.38,12.8,25.1,-5.44,13.64,5.28,26.38,30.21,34.17,0,7.79,-0.02
dw_cut_4_n1_3f_opt_disp_struct_15.xyz,Nucleus 25H :,-0.006175,-0.60217,1.016737,30.05,33.69,29.94,26.52,39.27,20.27,10.78,-5.68,9.66,15.84,26.52,29.94,33.69,0,7.17,-0.05
dw_cut_4_n1_3f_opt_disp_struct_15.xyz,Nucleus 0C :,-1.043454,-1.542676,0.835008,170.56,186.43,164.89,160.37,256.78,240.37,236.6,-78.46,-75.68,-67.91,160.37,164.89,186.43,0,26.06,-0.65
dw_cut_4_n1_3f_opt_disp_struct_15.xyz,Nucleus 3C :,-1.357757,-1.978581,-0.393291,61.71,148.3,53.96,-17.14,241.73,272.03,263.35,-93.44,-217.98,-280.57,-17.14,53.96,148.3,0,165.44,-0.14
dw_cut_4_n1_3f_opt_disp_struct_15.xyz,Nucleus 4C :,-1.75845,-2.034834,1.92765,56.95,-25.61,125.68,70.78,254.09,264.38,273.35,-291.27,-132.67,-197.02,-25.61,70.78,125.68,0,151.29,0.27
dw_cut_4_n1_3f_opt_disp_struct_15.xyz,Nucleus 7C :,-2.507843,-2.806705,1.797224,50.88,137.29,-3.34,18.68,260.25,271.7,269.08,-124.45,-274.88,-249.07,-3.34,18.68,137.29,0,140.63,-0.69
dw_cut_4_n1_3f_opt_disp_struct_15.xyz,Nucleus 8C :,-1.44619,-1.592725,3.205362,61.37,155.57,29.23,-0.69,237.67,262.6,268.13,-82.11,-234.1,-268.08,-0.69,29.23,155.57,0,156.26,-0.62
dw_cut_4_n1_3f_opt_disp_struct_15.xyz,Nucleus 9C :,-2.140482,-2.073283,4.246881,18.41,-53.85,78.06,31.03,233.65,265.54,262.63,-155.84,-234.17,-316.55,-53.85,31.03,78.06,0,131.91,0.29
dw_cut_4_n1_3f_opt_disp_struct_15.xyz,Nucleus 11C :,-0.429886,-0.662999,3.423444,79.21,153.46,14.3,69.88,236.36,264.86,272.32,-83.17,-252.58,-200.16,14.3,69.88,153.46,0,139.16,-0.2
dw_cut_4_n1_3f_opt_disp_struct_15.xyz,Nucleus 13C :,-0.136801,-0.241182,4.660667,26.4,87.25,18.58,-26.64,231.85,260.84,269.3,-144.65,-250.41,-287.74,-26.64,18.58,87.25,0,113.89,-0.21
dw_cut_4_n1_3f_opt_disp_struct_15.xyz,Nucleus 15C :,2.489805,1.563582,0.668482,38.33,88.53,25.88,0.59,233.31,269.36,266.82,-145.45,-242.82,-266.2,0.59,25.88,88.53,0,87.94,-0.42
dw_cut_4_n1_3f_opt_disp_struct_15.xyz,Nucleus 19C :,0.012703,0.181997,-1.812808,159.45,121.06,190.53,166.75,252.04,227.44,218.37,-97.88,-56.37,-65.28,121.06,166.75,190.53,0,69.47,0.32
dw_cut_4_n1_3f_opt_disp_struct_15.xyz,Nucleus 20C :,4.756417,-6.836659,2.704081,2.42,-87.0,67.13,27.14,202.04,255.2,267.22,-134.93,-342.18,-240.08,-87.0,27.14,67.13,0,154.13,0.48
dw_cut_4_n1_3f_opt_disp_struct_15.xyz,Nucleus 5N :,3.67306,-5.775591,2.622533,123.48,52.24,185.02,133.19,293.34,338.59,329.86,-108.38,-204.82,-278.14,52.24,133.19,185.02,0,132.78,0.22
dw_cut_4_n1_3f_opt_disp_struct_15.xyz,Nucleus 21O :,2.764075,-5.880592,3.495559,-25.12,223.44,-37.1,-261.7,430.02,405.51,394.74,-182.83,-445.38,-677.42,-261.7,-37.1,223.44,0,485.14,-0.07
dw_cut_4_n1_3f_opt_disp_struct_15.xyz,Nucleus 22O :,3.814847,-4.915647,1.709382,-33.05,214.34,-267.84,-45.65,401.27,446.15,429.3,-230.51,-686.45,-458.91,-267.84,-45.65,214.34,0,482.18,-0.08
dw_cut_4_n1_3f_opt_disp_struct_15.xyz,Nucleus 10F :,4.396421,-7.740753,2.196324,305.2,398.39,224.78,292.43,483.13,467.18,459.91,-68.61,-235.35,-190.66,224.78,292.43,398.39,0,173.61,-0.22
dw_cut_4_n1_3f_opt_disp_struct_15.xyz,Nucleus 14F :,5.68291,-6.522543,2.210943,324.46,412.5,299.71,261.18,461.16,481.49,472.14,-60.67,-179.49,-201.24,261.18,299.71,412.5,0,151.32,-0.49
dw_cut_4_n1_3f_opt_disp_struct_15.xyz,Nucleus 16F :,4.956471,-7.109148,3.745307,352.17,458.26,306.14,292.11,485.26,460.77,463.73,-5.35,-163.49,-184.41,292.11,306.14,458.26,0,166.15,-0.83
dw_cut_4_n1_3f_opt_disp_struct_16.xyz,Nucleus 1H :,0.973862,-0.040575,-1.33426,29.26,35.28,23.65,28.86,40.33,26.73,28.95,-6.17,0.44,-2.48,23.65,28.86,35.28,0,11.63,-0.1
dw_cut_4_n1_3f_opt_disp_struct_16.xyz,Nucleus 2H :,1.723204,0.646458,-1.743314,28.48,34.6,23.86,26.99,45.0,24.11,26.44,-11.47,2.63,-1.26,23.86,26.99,34.6,0,10.74,-0.42
dw_cut_4_n1_3f_opt_disp_struct_16.xyz,Nucleus 6H :,1.249716,-1.060653,-1.636402,23.99,15.75,25.61,30.62,11.15,30.76,49.03,-18.73,4.77,-5.0,15.75,25.61,30.62,0,14.87,0.33
dw_cut_4_n1_3f_opt_disp_struct_16.xyz,Nucleus 12H :,0.899497,0.083391,0.145497,24.57,20.83,25.1,27.79,46.69,15.7,30.56,-21.6,5.22,-2.86,20.83,25.1,27.79,0,6.96,0.23
dw_cut_4_n1_3f_opt_disp_struct_16.xyz,Nucleus 17H :,1.687597,0.892644,0.941965,24.42,20.93,25.57,26.77,44.56,27.33,30.76,-18.91,-6.36,-4.1,20.93,25.57,26.77,0,5.84,0.59
dw_cut_4_n1_3f_opt_disp_struct_16.xyz,Nucleus 18H :,1.305927,0.724076,2.246026,28.9,34.92,27.94,23.83,42.33,27.3,32.6,0.04,-10.13,-5.45,23.83,27.94,34.92,0,11.09,-0.26
dw_cut_4_n1_3f_opt_disp_struct_16.xyz,Nucleus 23H :,1.700961,1.188622,3.041257,29.73,32.39,28.87,27.94,13.37,24.39,37.46,15.43,3.93,-5.39,27.94,28.87,32.39,0,4.45,-0.58
dw_cut_4_n1_3f_opt_disp_struct_16.xyz,Nucleus 24H :,0.275961,-0.181519,2.318621,30.24,34.15,26.39,30.18,39.42,12.36,24.93,-5.51,14.1,5.44,26.39,30.18,34.15,0,7.76,-0.02
dw_cut_4_n1_3f_opt_disp_struct_16.xyz,Nucleus 25H :,-0.006175,-0.60217,1.016737,30.05,26.54,29.94,33.66,39.22,20.2,10.33,-5.66,9.74,16.31,26.54,29.94,33.66,0,7.12,-0.05
dw_cut_4_n1_3f_opt_disp_struct_16.xyz,Nucleus 0C :,-1.043454,-1.542676,0.835008,170.58,186.42,164.94,160.38,256.81,240.24,236.55,-78.37,-75.55,-67.95,160.38,164.94,186.42,0,26.04,-0.65
dw_cut_4_n1_3f_opt_disp_struct_16.xyz,Nucleus 3C :,-1.357757,-1.978581,-0.393291,61.7,148.27,53.95,-17.12,241.7,271.92,263.37,-93.44,-217.9,-280.56,-17.12,53.95,148.27,0,165.39,-0.14
dw_cut_4_n1_3f_opt_disp_struct_16.xyz,Nucleus 4C :,-1.75845,-2.034834,1.92765,56.83,-25.77,125.71,70.56,254.14,264.12,273.31,-291.35,-132.61,-197.11,-25.77,70.56,125.71,0,151.48,0.27
dw_cut_4_n1_3f_opt_disp_struct_16.xyz,Nucleus 7C :,-2.507843,-2.806705,1.797224,50.92,137.27,-3.22,18.72,260.23,271.51,268.89,-124.32,-274.56,-248.98,-3.22,18.72,137.27,0,140.49,-0.69
dw_cut_4_n1_3f_opt_disp_struct_16.xyz,Nucleus 8C :,-1.44619,-1.592725,3.205362,61.41,155.52,29.34,-0.63,237.65,262.53,268.03,-82.14,-233.92,-267.92,-0.63,29.34,155.52,0,156.15,-0.62
dw_cut_4_n1_3f_opt_disp_struct_16.xyz,Nucleus 9C :,-2.140482,-2.073283,4.246881,18.45,-53.76,78.06,31.06,233.63,265.47,262.56,-155.8,-234.13,-316.38,-53.76,31.06,78.06,0,131.82,0.29
dw_cut_4_n1_3f_opt_disp_struct_16.xyz,Nucleus 11C :,-0.429886,-0.662999,3.423444,79.22,153.46,14.34,69.86,236.23,264.68,272.3,-83.03,-252.33,-200.18,14.34,69.86,153.46,0,139.12,-0.2
dw_cut_4_n1_3f_opt_disp_struct_16.xyz,Nucleus 13C :,-0.136801,-0.241182,4.660667,26.44,87.24,18.63,-26.55,231.92,260.8,269.18,-144.73,-250.24,-287.61,-26.55,18.63,87.24,0,113.79,-0.21
dw_cut_4_n1_3f_opt_disp_struct_16.xyz,Nucleus 15C :,2.489805,1.563582,0.668482,38.37,88.52,25.95,0.64,233.42,269.18,266.72,-145.5,-242.66,-266.05,0.64,25.95,88.52,0,87.88,-0.42
dw_cut_4_n1_3f_opt_disp_struct_16.xyz,Nucleus 19C :,0.012703,0.181997,-1.812808,159.42,121.03,190.47,166.77,251.98,227.04,217.66,-97.21,-56.2,-65.0,121.03,166.77,190.47,0,69.44,0.32
dw_cut_4_n1_3f_opt_disp_struct_16.xyz,Nucleus 20C :,4.921389,-7.022904,2.728507,2.4,-87.12,67.14,27.19,202.01,255.04,267.66,-134.9,-342.15,-240.46,-87.12,27.19,67.14,0,154.26,0.48
dw_cut_4_n1_3f_opt_disp_struct_16.xyz,Nucleus 5N :,3.838033,-5.961837,2.646959,123.38,52.07,185.03,133.03,293.34,338.51,329.71,-108.37,-204.89,-278.17,52.07,133.03,185.03,0,132.96,0.22
dw_cut_4_n1_3f_opt_disp_struct_16.xyz,Nucleus 21O :,2.929048,-6.066838,3.519985,-25.03,223.81,-37.13,-261.76,430.57,406.29,394.7,-183.5,-445.47,-677.67,-261.76,-37.13,223.81,0,485.57,-0.07
dw_cut_4_n1_3f_opt_disp_struct_16.xyz,Nucleus 22O :,3.97982,-5.101893,1.733808,-33.33,214.68,-268.58,-46.1,401.22,447.48,429.63,-231.48,-687.8,-459.05,-268.58,-46.1,214.68,0,483.26,-0.08
dw_cut_4_n1_3f_opt_disp_struct_16.xyz,Nucleus 10F :,4.561394,-7.926998,2.22075,304.99,398.35,224.48,292.15,482.97,467.06,459.81,-68.55,-235.53,-190.76,224.48,292.15,398.35,0,173.87,-0.22
dw_cut_4_n1_3f_opt_disp_struct_16.xyz,Nucleus 14F :,5.847883,-6.708789,2.235369,324.3,412.42,299.51,260.98,461.06,481.34,472.24,-60.8,-179.61,-201.32,260.98,299.51,412.42,0,151.44,-0.49
dw_cut_4_n1_3f_opt_disp_struct_16.xyz,Nucleus 16F :,5.121444,-7.295394,3.769733,351.97,458.16,305.9,291.84,485.06,460.7,463.88,-5.63,-163.65,-184.48,291.84,305.9,458.16,0,166.32,-0.83
dw_cut_4_n1_3f_opt_disp_struct_17.xyz,Nucleus 1H :,0.973862,-0.040575,-1.33426,29.25,35.28,23.63,28.85,40.31,26.69,28.91,-6.15,0.46,-2.47,23.63,28.85,35.28,0,11.65,-0.1
dw_cut_4_n1_3f_opt_disp_struct_17.xyz,Nucleus 2H :,1.723204,0.646458,-1.743314,28.5,34.63,23.87,27.0,44.96,24.1,26.41,-11.41,2.66,-1.23,23.87,27.0,34.63,0,10.76,-0.42
dw_cut_4_n1_3f_opt_disp_struct_17.xyz,Nucleus 6H :,1.249716,-1.060653,-1.636402,23.98,15.73,25.6,30.61,11.13,30.73,48.96,-18.66,4.76,-4.98,15.73,25.6,30.61,0,14.88,0.33
dw_cut_4_n1_3f_opt_disp_struct_17.xyz,Nucleus 12H :,0.899497,0.083391,0.145497,24.57,20.8,25.11,27.79,46.6,15.7,30.55,-21.5,5.19,-2.84,20.8,25.11,27.79,0,6.99,0.23
dw_cut_4_n1_3f_opt_disp_struct_17.xyz,Nucleus 17H :,1.687597,0.892644,0.941965,24.42,20.91,25.57,26.77,44.52,27.3,30.72,-18.87,-6.36,-4.06,20.91,25.57,26.77,0,5.86,0.59
dw_cut_4_n1_3f_opt_disp_struct_17.xyz,Nucleus 18H :,1.305927,0.724076,2.246026,28.89,34.91,27.93,23.82,42.3,27.26,32.53,0.06,-10.08,-5.42,23.82,27.93,34.91,0,11.09,-0.26
dw_cut_4_n1_3f_opt_disp_struct_17.xyz,Nucleus 23H :,1.700961,1.188622,3.041257,29.73,32.36,28.87,27.95,12.79,24.44,37.43,16.03,3.89,-5.41,27.95,28.87,32.36,0,4.41,-0.59
dw_cut_4_n1_3f_opt_disp_struct_17.xyz,Nucleus 24H :,0.275961,-0.181519,2.318621,30.23,34.13,26.41,30.16,39.45,11.89,24.75,-5.57,14.58,5.61,26.41,30.16,34.13,0,7.72,-0.03
dw_cut_4_n1_3f_opt_disp_struct_17.xyz,Nucleus 25H :,-0.006175,-0.60217,1.016737,30.04,26.54,29.94,33.63,39.16,20.11,9.87,-5.65,9.82,16.79,26.54,29.94,33.63,0,7.09,-0.04
dw_cut_4_n1_3f_opt_disp_struct_17.xyz,Nucleus 0C :,-1.043454,-1.542676,0.835008,170.59,186.41,164.97,160.39,256.83,240.13,236.49,-78.28,-75.43,-67.97,160.39,164.97,186.41,0,26.02,-0.65
dw_cut_4_n1_3f_opt_disp_struct_17.xyz,Nucleus 3C :,-1.357757,-1.978581,-0.393291,61.69,148.24,53.93,-17.11,241.67,271.82,263.38,-93.44,-217.83,-280.55,-17.11,53.93,148.24,0,165.35,-0.14
dw_cut_4_n1_3f_opt_disp_struct_17.xyz,Nucleus 4C :,-1.75845,-2.034834,1.92765,56.73,-25.9,125.73,70.36,254.21,263.86,273.27,-291.4,-132.56,-197.18,-25.9,70.36,125.73,0,151.63,0.27
dw_cut_4_n1_3f_opt_disp_struct_17.xyz,Nucleus 7C :,-2.507843,-2.806705,1.797224,50.96,137.25,-3.12,18.74,260.21,271.36,268.7,-124.22,-274.28,-248.89,-3.12,18.74,137.25,0,140.37,-0.69
dw_cut_4_n1_3f_opt_disp_struct_17.xyz,Nucleus 8C :,-1.44619,-1.592725,3.205362,61.44,155.49,29.42,-0.58,237.63,262.47,267.92,-82.16,-233.77,-267.76,-0.58,29.42,155.49,0,156.07,-0.62
dw_cut_4_n1_3f_opt_disp_struct_17.xyz,Nucleus 9C :,-2.140482,-2.073283,4.246881,18.48,-53.69,78.06,31.08,233.63,265.41,262.51,-155.78,-234.1,-316.23,-53.69,31.08,78.06,0,131.75,0.29
dw_cut_4_n1_3f_opt_disp_struct_17.xyz,Nucleus 11C :,-0.429886,-0.662999,3.423444,79.23,153.47,14.38,69.85,236.13,264.51,272.29,-82.91,-252.12,-200.21,14.38,69.85,153.47,0,139.09,-0.2
dw_cut_4_n1_3f_opt_disp_struct_17.xyz,Nucleus 13C :,-0.136801,-0.241182,4.660667,26.48,87.23,18.68,-26.47,231.98,260.76,269.09,-144.79,-250.1,-287.5,-26.47,18.68,87.23,0,113.7,-0.21
dw_cut_4_n1_3f_opt_disp_struct_17.xyz,Nucleus 15C :,2.489805,1.563582,0.668482,38.4,88.51,26.0,0.69,233.51,269.04,266.61,-145.53,-242.52,-265.91,0.69,26.0,88.51,0,87.82,-0.42
dw_cut_4_n1_3f_opt_disp_struct_17.xyz,Nucleus 19C :,0.012703,0.181997,-1.812808,159.41,121.02,190.41,166.79,251.92,226.6,216.88,-96.45,-55.99,-64.74,121.02,166.79,190.41,0,69.39,0.32
dw_cut_4_n1_3f_opt_disp_struct_17.xyz,Nucleus 20C :,5.086362,-7.20915,2.752933,2.38,-87.24,67.15,27.22,201.97,254.9,268.1,-134.84,-342.14,-240.85,-87.24,27.22,67.15,0,154.39,0.48
dw_cut_4_n1_3f_opt_disp_struct_17.xyz,Nucleus 5N :,4.003005,-6.148082,2.671385,123.28,51.93,185.03,132.89,293.35,338.43,329.58,-108.38,-204.95,-278.17,51.93,132.89,185.03,0,133.1,0.22
dw_cut_4_n1_3f_opt_disp_struct_17.xyz,Nucleus 21O :,3.09402,-6.253084,3.544411,-24.96,224.04,-37.14,-261.77,431.11,407.17,394.68,-184.44,-445.53,-677.86,-261.77,-37.14,224.04,0,485.81,-0.08
dw_cut_4_n1_3f_opt_disp_struct_17.xyz,Nucleus 22O :,4.144792,-5.288139,1.758234,-33.54,214.88,-269.06,-46.44,401.16,448.84,429.94,-232.61,-688.83,-459.12,-269.06,-46.44,214.88,0,483.94,-0.08
dw_cut_4_n1_3f_opt_disp_struct_17.xyz,Nucleus 10F :,4.726367,-8.113244,2.245176,304.82,398.32,224.22,291.91,482.81,466.95,459.71,-68.49,-235.68,-190.85,224.22,291.91,398.32,0,174.1,-0.22
dw_cut_4_n1_3f_opt_disp_struct_17.xyz,Nucleus 14F :,6.012856,-6.895034,2.259795,324.16,412.35,299.34,260.79,460.96,481.19,472.33,-60.91,-179.7,-201.38,260.79,299.34,412.35,0,151.56,-0.49
dw_cut_4_n1_3f_opt_disp_struct_17.xyz,Nucleus 16F :,5.286416,-7.48164,3.794159,351.78,458.06,305.68,291.6,484.88,460.63,464.03,-5.88,-163.77,-184.55,291.6,305.68,458.06,0,166.46,-0.83
dw_cut_4_n1_3f_opt_disp_struct_18.xyz,Nucleus 1H :,0.973862,-0.040575,-1.33426,29.24,35.27,23.62,28.84,40.3,26.65,28.88,-6.13,0.48,-2.45,23.62,28.84,35.27,0,11.65,-0.1
dw_cut_4_n1_3f_opt_disp_struct_18.xyz,Nucleus 2H :,1.723204,0.646458,-1.743314,28.51,34.65,23.87,27.0,44.92,24.08,26.37,-11.35,2.69,-1.2,23.87,27.0,34.65,0,10.78,-0.42
dw_cut_4_n1_3f_opt_disp_struct_18.xyz,Nucleus 6H :,1.249716,-1.060653,-1.636402,23.97,15.71,25.6,30.6,11.12,30.7,48.89,-18.59,4.75,-4.95,15.71,25.6,30.6,0,14.89,0.33
dw_cut_4_n1_3f_opt_disp_struct_18.xyz,Nucleus 12H :,0.899497,0.083391,0.145497,24.56,20.78,25.11,27.8,46.52,15.7,30.55,-21.42,5.16,-2.83,20.78,25.11,27.8,0,7.02,0.24
dw_cut_4_n1_3f_opt_disp_struct_18.xyz,Nucleus 17H :,1.687597,0.892644,0.941965,24.41,20.89,25.56,26.77,44.48,27.28,30.68,-18.84,-6.36,-4.02,20.89,25.56,26.77,0,5.88,0.59
dw_cut_4_n1_3f_opt_disp_struct_18.xyz,Nucleus 18H :,1.305927,0.724076,2.246026,28.88,34.9,27.93,23.82,42.27,27.22,32.48,0.08,-10.03,-5.38,23.82,27.93,34.9,0,11.08,-0.26
dw_cut_4_n1_3f_opt_disp_struct_18.xyz,Nucleus 23H :,1.700961,1.188622,3.041257,29.72,32.33,28.87,27.96,12.2,24.47,37.41,16.64,3.86,-5.42,27.96,28.87,32.33,0,4.37,-0.58
dw_cut_4_n1_3f_opt_disp_struct_18.xyz,Nucleus 24H :,0.275961,-0.181519,2.318621,30.23,34.12,26.42,30.14,39.48,11.41,24.56,-5.63,15.07,5.78,26.42,30.14,34.12,0,7.7,-0.04
dw_cut_4_n1_3f_opt_disp_struct_18.xyz,Nucleus 25H :,-0.006175,-0.60217,1.016737,30.03,26.55,29.93,33.61,39.11,20.01,9.4,-5.64,9.92,17.29,26.55,29.93,33.61,0,7.06,-0.04
dw_cut_4_n1_3f_opt_disp_struct_18.xyz,Nucleus 0C :,-1.043454,-1.542676,0.835008,170.6,186.4,165.01,160.39,256.85,240.02,236.45,-78.19,-75.33,-67.99,160.39,165.01,186.4,0,26.01,-0.64
dw_cut_4_n1_3f_opt_disp_struct_18.xyz,Nucleus 3C :,-1.357757,-1.978581,-0.393291,61.68,148.22,53.91,-17.1,241.65,271.74,263.4,-93.44,-217.77,-280.55,-17.1,53.91,148.22,0,165.32,-0.14
dw_cut_4_n1_3f_opt_disp_struct_18.xyz,Nucleus 4C :,-1.75845,-2.034834,1.92765,56.64,-26.02,125.75,70.19,254.28,263.59,273.23,-291.44,-132.5,-197.24,-26.02,70.19,125.75,0,151.77,0.27
dw_cut_4_n1_3f_opt_disp_struct_18.xyz,Nucleus 7C :,-2.507843,-2.806705,1.797224,50.99,137.24,-3.03,18.76,260.2,271.24,268.51,-124.13,-274.05,-248.8,-3.03,18.76,137.24,0,140.27,-0.69
dw_cut_4_n1_3f_opt_disp_struct_18.xyz,Nucleus 8C :,-1.44619,-1.592725,3.205362,61.47,155.45,29.5,-0.54,237.61,262.45,267.82,-82.17,-233.66,-267.62,-0.54,29.5,155.45,0,155.99,-0.61
dw_cut_4_n1_3f_opt_disp_struct_18.xyz,Nucleus 9C :,-2.140482,-2.073283,4.246881,18.51,-53.62,78.06,31.09,233.64,265.36,262.48,-155.76,-234.08,-316.12,-53.62,31.09,78.06,0,131.68,0.29
dw_cut_4_n1_3f_opt_disp_struct_18.xyz,Nucleus 11C :,-0.429886,-0.662999,3.423444,79.24,153.47,14.42,69.84,236.04,264.36,272.3,-82.8,-251.93,-200.23,14.42,69.84,153.47,0,139.05,-0.2
dw_cut_4_n1_3f_opt_disp_struct_18.xyz,Nucleus 13C :,-0.136801,-0.241182,4.660667,26.51,87.22,18.71,-26.41,232.03,260.72,269.01,-144.85,-249.97,-287.41,-26.41,18.71,87.22,0,113.63,-0.21
dw_cut_4_n1_3f_opt_disp_struct_18.xyz,Nucleus 15C :,2.489805,1.563582,0.668482,38.42,88.5,26.05,0.72,233.58,268.93,266.51,-145.56,-242.41,-265.77,0.72,26.05,88.5,0,87.78,-0.42
dw_cut_4_n1_3f_opt_disp_struct_18.xyz,Nucleus 19C :,0.012703,0.181997,-1.812808,159.39,121.01,190.36,166.81,251.87,226.11,216.04,-95.62,-55.74,-64.48,121.01,166.81,190.36,0,69.35,0.32
dw_cut_4_n1_3f_opt_disp_struct_18.xyz,Nucleus 20C :,5.251334,-7.395395,2.777359,2.36,-87.35,67.17,27.26,201.89,254.78,268.54,-134.74,-342.13,-241.25,-87.35,27.26,67.17,0,154.52,0.48
dw_cut_4_n1_3f_opt_disp_struct_18.xyz,Nucleus 5N :,4.167978,-6.334328,2.695811,123.21,51.81,185.04,132.78,293.36,338.35,329.45,-108.38,-204.98,-278.17,51.81,132.78,185.04,0,133.23,0.22
dw_cut_4_n1_3f_opt_disp_struct_18.xyz,Nucleus 21O :,3.258993,-6.439329,3.568837,-24.9,224.21,-37.14,-261.77,431.65,408.13,394.66,-185.54,-445.58,-678.02,-261.77,-37.14,224.21,0,485.98,-0.08
dw_cut_4_n1_3f_opt_disp_struct_18.xyz,Nucleus 22O :,4.309765,-5.474384,1.78266,-33.69,215.03,-269.39,-46.72,401.11,450.24,430.23,-233.85,-689.65,-459.16,-269.39,-46.72,215.03,0,484.42,-0.08
dw_cut_4_n1_3f_opt_disp_struct_18.xyz,Nucleus 10F :,4.891339,-8.29949,2.269602,304.66,398.29,224.0,291.7,482.67,466.86,459.62,-68.43,-235.8,-190.92,224.0,291.7,398.29,0,174.29,-0.22
dw_cut_4_n1_3f_opt_disp_struct_18.xyz,Nucleus 14F :,6.177828,-7.08128,2.284221,324.03,412.29,299.18,260.63,460.87,481.05,472.41,-61.01,-179.79,-201.44,260.63,299.18,412.29,0,151.66,-0.49
dw_cut_4_n1_3f_opt_disp_struct_18.xyz,Nucleus 16F :,5.451389,-7.667885,3.818585,351.62,457.98,305.49,291.4,484.71,460.56,464.16,-6.1,-163.87,-184.6,291.4,305.49,457.98,0,166.58,-0.83
dw_cut_4_n1_3f_opt_disp_struct_19.xyz,Nucleus 1H :,0.973862,-0.040575,-1.33426,29.23,35.27,23.6,28.83,40.29,26.62,28.84,-6.11,0.5,-2.43,23.6,28.83,35.27,0,11.67,-0.1
dw_cut_4_n1_3f_opt_disp_struct_19.xyz,Nucleus 2H :,1.723204,0.646458,-1.743314,28.52,34.67,23.87,27.01,44.88,24.07,26.34,-11.3,2.72,-1.16,23.87,27.01,34.67,0,10.8,-0.42
dw_cut_4_n1_3f_opt_disp_struct_19.xyz,Nucleus 6H :,1.249716,-1.060653,-1.636402,23.96,15.69,25.6,30.6,11.1,30.68,48.82,-18.53,4.74,-4.93,15.69,25.6,30.6,0,14.91,0.33
dw_cut_4_n1_3f_opt_disp_struct_19.xyz,Nucleus 12H :,0.899497,0.083391,0.145497,24.56,20.76,25.12,27.8,46.45,15.7,30.55,-21.33,5.13,-2.82,20.76,25.12,27.8,0,7.04,0.24
dw_cut_4_n1_3f_opt_disp_struct_19.xyz,Nucleus 17H :,1.687597,0.892644,0.941965,24.4,20.87,25.55,26.77,44.44,27.26,30.64,-18.81,-6.36,-3.98,20.87,25.55,26.77,0,5.9,0.58
dw_cut_4_n1_3f_opt_disp_struct_19.xyz,Nucleus 18H :,1.305927,0.724076,2.246026,28.87,34.89,27.92,23.81,42.24,27.18,32.42,0.1,-9.98,-5.35,23.81,27.92,34.89,0,11.08,-0.26
dw_cut_4_n1_3f_opt_disp_struct_19.xyz,Nucleus 23H :,1.700961,1.188622,3.041257,29.71,32.3,28.87,27.97,11.59,24.49,37.39,17.26,3.85,-5.44,27.97,28.87,32.3,0,4.33,-0.58
dw_cut_4_n1_3f_opt_disp_struct_19.xyz,Nucleus 24H :,0.275961,-0.181519,2.318621,30.22,34.11,26.43,30.11,39.52,10.92,24.38,-5.69,15.58,5.95,26.43,30.11,34.11,0,7.68,-0.04
dw_cut_4_n1_3f_opt_disp_struct_19.xyz,Nucleus 25H :,-0.006175,-0.60217,1.016737,30.02,26.56,29.93,33.58,39.07,19.91,8.92,-5.63,10.02,17.78,26.56,29.93,33.58,0,7.02,-0.04
dw_cut_4_n1_3f_opt_disp_struct_19.xyz,Nucleus 0C :,-1.043454,-1.542676,0.835008,170.61,186.39,165.04,160.4,256.86,239.92,236.4,-78.11,-75.23,-68.01,160.4,165.04,186.39,0,25.99,-0.64
dw_cut_4_n1_3f_opt_disp_struct_19.xyz,Nucleus 3C :,-1.357757,-1.978581,-0.393291,61.66,148.19,53.89,-17.1,241.63,271.65,263.41,-93.45,-217.72,-280.54,-17.1,53.89,148.19,0,165.29,-0.14
dw_cut_4_n1_3f_opt_disp_struct_19.xyz,Nucleus 4C :,-1.75845,-2.034834,1.92765,56.56,-26.12,125.77,70.04,254.36,263.34,273.19,-291.47,-132.45,-197.28,-26.12,70.04,125.77,0,151.89,0.27
dw_cut_4_n1_3f_opt_disp_struct_19.xyz,Nucleus 7C :,-2.507843,-2.806705,1.797224,51.02,137.22,-2.95,18.78,260.19,271.13,268.33,-124.05,-273.85,-248.71,-2.95,18.78,137.22,0,140.17,-0.69
dw_cut_4_n1_3f_opt_disp_struct_19.xyz,Nucleus 8C :,-1.44619,-1.592725,3.205362,61.49,155.42,29.56,-0.5,237.58,262.45,267.72,-82.19,-233.58,-267.5,-0.5,29.56,155.42,0,155.92,-0.61
dw_cut_4_n1_3f_opt_disp_struct_19.xyz,Nucleus 9C :,-2.140482,-2.073283,4.246881,18.53,-53.56,78.06,31.1,233.66,265.32,262.46,-155.75,-234.06,-316.03,-53.56,31.1,78.06,0,131.62,0.29
dw_cut_4_n1_3f_opt_disp_struct_19.xyz,Nucleus 11C :,-0.429886,-0.662999,3.423444,79.25,153.47,14.45,69.83,235.96,264.22,272.31,-82.71,-251.77,-200.25,14.45,69.83,153.47,0,139.02,-0.2
dw_cut_4_n1_3f_opt_disp_struct_19.xyz,Nucleus 13C :,-0.136801,-0.241182,4.660667,26.54,87.22,18.74,-26.35,232.08,260.68,268.95,-144.91,-249.87,-287.32,-26.35,18.74,87.22,0,113.57,-0.21
dw_cut_4_n1_3f_opt_disp_struct_19.xyz,Nucleus 15C :,2.489805,1.563582,0.668482,38.44,88.49,26.09,0.75,233.64,268.83,266.41,-145.58,-242.31,-265.65,0.75,26.09,88.49,0,87.74,-0.42
dw_cut_4_n1_3f_opt_disp_struct_19.xyz,Nucleus 19C :,0.012703,0.181997,-1.812808,159.38,121.01,190.32,166.82,251.82,225.62,215.17,-94.76,-55.47,-64.24,121.01,166.82,190.32,0,69.31,0.32
dw_cut_4_n1_3f_opt_disp_struct_19.xyz,Nucleus 20C :,5.416307,-7.581641,2.801785,2.34,-87.44,67.19,27.28,201.78,254.68,268.97,-134.62,-342.13,-241.64,-87.44,27.28,67.19,0,154.63,0.48
dw_cut_4_n1_3f_opt_disp_struct_19.xyz,Nucleus 5N :,4.332951,-6.520574,2.720237,123.14,51.7,185.04,132.68,293.37,338.28,329.34,-108.4,-205.01,-278.16,51.7,132.68,185.04,0,133.34,0.21
dw_cut_4_n1_3f_opt_disp_struct_19.xyz,Nucleus 21O :,3.423965,-6.625575,3.593263,-24.85,224.33,-37.13,-261.74,432.2,409.08,394.64,-186.69,-445.61,-678.16,-261.74,-37.13,224.33,0,486.07,-0.08
dw_cut_4_n1_3f_opt_disp_struct_19.xyz,Nucleus 22O :,4.474737,-5.66063,1.807086,-33.8,215.15,-269.61,-46.94,401.07,451.67,430.51,-235.15,-690.32,-459.18,-269.61,-46.94,215.15,0,484.76,-0.08
dw_cut_4_n1_3f_opt_disp_struct_19.xyz,Nucleus 10F :,5.056312,-8.485735,2.294028,304.53,398.27,223.81,291.51,482.53,466.78,459.53,-68.39,-235.9,-190.97,223.81,291.51,398.27,0,174.46,-0.22
dw_cut_4_n1_3f_opt_disp_struct_19.xyz,Nucleus 14F :,6.342801,-7.267526,2.308647,323.92,412.23,299.04,260.49,460.78,480.93,472.49,-61.1,-179.86,-201.48,260.49,299.04,412.23,0,151.74,-0.49
dw_cut_4_n1_3f_opt_disp_struct_19.xyz,Nucleus 16F :,5.616362,-7.854131,3.843011,351.48,457.91,305.32,291.22,484.56,460.49,464.28,-6.29,-163.94,-184.64,291.22,305.32,457.91,0,166.69,-0.83
dw_cut_4_n1_3f_opt_disp_struct_2.xyz,Nucleus 1H :,0.973862,-0.040575,-1.33426,29.5,35.51,23.94,29.05,40.59,26.79,28.89,1.25,-6.27,-2.76,23.94,29.05,35.51,0,11.57,-0.12
dw_cut_4_n1_3f_opt_disp_struct_2.xyz,Nucleus 2H :,1.723204,0.646458,-1.743314,28.44,34.04,24.0,27.28,44.75,23.35,27.38,-12.09,2.71,-0.79,24.0,27.28,34.04,0,10.04,-0.35
dw_cut_4_n1_3f_opt_disp_struct_2.xyz,Nucleus 6H :,1.249716,-1.060653,-1.636402,24.64,16.37,26.05,31.49,11.92,32.01,49.31,-18.42,4.94,-5.86,16.37,26.05,31.49,0,15.12,0.28
dw_cut_4_n1_3f_opt_disp_struct_2.xyz,Nucleus 12H :,0.899497,0.083391,0.145497,25.08,21.58,25.7,27.96,48.76,15.92,32.49,-23.49,6.1,-4.55,21.58,25.7,27.96,0,6.38,0.29
dw_cut_4_n1_3f_opt_disp_struct_2.xyz,Nucleus 17H :,1.687597,0.892644,0.941965,24.88,21.55,26.21,26.87,45.11,28.0,31.32,-18.98,-6.56,-4.25,21.55,26.21,26.87,0,5.32,0.75
dw_cut_4_n1_3f_opt_disp_struct_2.xyz,Nucleus 18H :,1.305927,0.724076,2.246026,28.91,35.05,27.93,23.76,42.22,27.32,32.85,-10.64,-0.01,-5.0,23.76,27.93,35.05,0,11.29,-0.26
dw_cut_4_n1_3f_opt_disp_struct_2.xyz,Nucleus 23H :,1.700961,1.188622,3.041257,30.01,33.76,28.59,27.67,38.51,21.3,19.95,-5.01,6.87,8.41,27.67,28.59,33.76,0,6.09,-0.7
dw_cut_4_n1_3f_opt_disp_struct_2.xyz,Nucleus 24H :,0.275961,-0.181519,2.318621,30.58,34.99,25.97,30.77,39.14,14.83,27.42,-4.31,11.2,3.44,25.97,30.77,34.99,0,9.02,0.06
dw_cut_4_n1_3f_opt_disp_struct_2.xyz,Nucleus 25H :,-0.006175,-0.60217,1.016737,30.28,34.78,29.86,26.21,40.6,19.91,16.13,-5.87,9.64,10.44,26.21,29.86,34.78,0,8.57,-0.15
dw_cut_4_n1_3f_opt_disp_struct_2.xyz,Nucleus 0C :,-1.043454,-1.542676,0.835008,169.78,186.55,163.17,159.62,255.27,240.05,236.91,-66.31,-78.14,-78.45,159.62,163.17,186.55,0,26.93,-0.74
dw_cut_4_n1_3f_opt_disp_struct_2.xyz,Nucleus 3C :,-1.357757,-1.978581,-0.393291,60.91,149.24,52.54,-19.06,242.63,263.25,275.37,-93.9,-221.42,-283.22,-19.06,52.54,149.24,0,168.3,-0.15
dw_cut_4_n1_3f_opt_disp_struct_2.xyz,Nucleus 4C :,-1.75845,-2.034834,1.92765,62.03,-18.25,124.7,79.63,254.7,265.46,274.24,-284.56,-134.38,-189.38,-18.25,79.63,124.7,0,142.95,0.37
dw_cut_4_n1_3f_opt_disp_struct_2.xyz,Nucleus 7C :,-2.507843,-2.806705,1.797224,50.45,137.87,-6.07,19.54,261.41,272.28,276.87,-130.77,-281.29,-247.16,-6.07,19.54,137.87,0,143.94,-0.64
dw_cut_4_n1_3f_opt_disp_struct_2.xyz,Nucleus 8C :,-1.44619,-1.592725,3.205362,54.4,157.04,18.13,-11.97,237.59,262.04,265.84,-81.01,-245.38,-275.88,-11.97,18.13,157.04,0,169.01,-0.64
dw_cut_4_n1_3f_opt_disp_struct_2.xyz,Nucleus 9C :,-2.140482,-2.073283,4.246881,18.16,-53.75,29.89,78.34,235.02,264.27,265.26,-156.81,-234.44,-318.81,-53.75,29.89,78.34,0,132.09,0.27
dw_cut_4_n1_3f_opt_disp_struct_2.xyz,Nucleus 11C :,-0.429886,-0.662999,3.423444,79.57,152.79,13.45,72.48,239.26,267.55,277.35,-87.21,-259.27,-198.96,13.45,72.48,152.79,0,139.34,-0.15
dw_cut_4_n1_3f_opt_disp_struct_2.xyz,Nucleus 13C :,-0.136801,-0.241182,4.660667,22.28,87.71,13.26,-34.13,227.97,260.3,274.99,-140.63,-261.54,-294.27,-34.13,13.26,87.71,0,121.84,-0.22
dw_cut_4_n1_3f_opt_disp_struct_2.xyz,Nucleus 15C :,2.489805,1.563582,0.668482,36.21,88.88,21.42,-1.68,233.01,272.79,267.24,-145.76,-250.96,-267.71,-1.68,21.42,88.88,0,90.56,-0.49
dw_cut_4_n1_3f_opt_disp_struct_2.xyz,Nucleus 19C :,0.012703,0.181997,-1.812808,159.5,121.37,192.62,164.51,255.25,227.6,221.37,-100.23,-56.22,-69.28,121.37,164.51,192.62,0,71.25,0.21
dw_cut_4_n1_3f_opt_disp_struct_2.xyz,Nucleus 20C :,2.611773,-4.415466,2.386543,3.01,-81.66,72.04,18.64,201.68,257.87,266.04,-129.74,-344.38,-242.45,-81.66,18.64,72.04,0,153.7,0.31
dw_cut_4_n1_3f_opt_disp_struct_2.xyz,Nucleus 5N :,1.528417,-3.354398,2.304995,130.24,63.72,184.76,142.25,293.88,340.12,329.74,-109.4,-197.52,-266.1,63.72,142.25,184.76,0,121.04,0.3
dw_cut_4_n1_3f_opt_disp_struct_2.xyz,Nucleus 21O :,0.619432,-3.4594,3.178021,-47.99,212.96,-58.95,-297.99,401.68,412.17,419.79,-200.38,-464.22,-713.02,-297.99,-58.95,212.96,0,510.95,-0.06
dw_cut_4_n1_3f_opt_disp_struct_2.xyz,Nucleus 22O :,1.670204,-2.494455,1.391843,-52.59,-305.33,-49.41,196.96,398.42,420.63,430.91,-715.38,-468.98,-223.38,-305.33,-49.41,196.96,0,502.29,0.02
dw_cut_4_n1_3f_opt_disp_struct_2.xyz,Nucleus 10F :,2.251778,-5.31956,1.878785,317.13,399.8,245.73,305.85,460.43,470.93,487.04,-70.91,-215.02,-181.09,245.73,305.85,399.8,0,154.07,-0.22
dw_cut_4_n1_3f_opt_disp_struct_2.xyz,Nucleus 14F :,3.538267,-4.101351,1.893404,327.71,415.14,305.2,262.79,484.94,465.9,470.22,-57.05,-176.55,-204.33,262.79,305.2,415.14,0,152.35,-0.44
dw_cut_4_n1_3f_opt_disp_struct_2.xyz,Nucleus 16F :,2.811828,-4.687956,3.427769,361.95,462.56,318.05,305.23,485.38,466.64,462.2,-3.07,-150.51,-174.81,305.23,318.05,462.56,0,157.33,-0.84
dw_cut_4_n1_3f_opt_disp_struct_3.xyz,Nucleus 1H :,0.973862,-0.040575,-1.33426,29.49,35.51,23.91,29.04,40.7,27.07,29.1,-6.52,0.84,-2.74,23.91,29.04,35.51,0,11.6,-0.12
dw_cut_4_n1_3f_opt_disp_struct_3.xyz,Nucleus 2H :,1.723204,0.646458,-1.743314,28.43,34.07,23.95,27.27,45.07,23.96,27.3,-12.33,2.27,-0.98,23.95,27.27,34.07,0,10.12,-0.34
dw_cut_4_n1_3f_opt_disp_struct_3.xyz,Nucleus 6H :,1.249716,-1.060653,-1.636402,24.51,16.28,25.95,31.3,11.75,31.79,49.67,-18.96,5.06,-5.78,16.28,25.95,31.3,0,15.02,0.29
dw_cut_4_n1_3f_opt_disp_struct_3.xyz,Nucleus 12H :,0.899497,0.083391,0.145497,24.96,21.5,25.51,27.86,48.79,15.53,32.21,-23.59,6.3,-4.38,21.5,25.51,27.86,0,6.36,0.26
dw_cut_4_n1_3f_opt_disp_struct_3.xyz,Nucleus 17H :,1.687597,0.892644,0.941965,24.81,21.47,26.12,26.83,45.17,28.03,31.48,-19.13,-6.59,-4.54,21.47,26.12,26.83,0,5.36,0.73
dw_cut_4_n1_3f_opt_disp_struct_3.xyz,Nucleus 18H :,1.305927,0.724076,2.246026,28.95,35.08,27.96,23.8,42.51,27.65,33.2,-0.26,-10.91,-5.35,23.8,27.96,35.08,0,11.28,-0.26
dw_cut_4_n1_3f_opt_disp_struct_3.xyz,Nucleus 23H :,1.700961,1.188622,3.041257,29.96,33.58,28.64,27.66,38.33,21.36,19.26,-5.0,9.2,6.73,27.66,28.64,33.58,0,5.92,-0.67
dw_cut_4_n1_3f_opt_disp_struct_3.xyz,Nucleus 24H :,0.275961,-0.181519,2.318621,30.52,34.86,26.01,30.69,38.95,14.63,27.02,-4.26,11.43,3.78,26.01,30.69,34.86,0,8.85,0.06
dw_cut_4_n1_3f_opt_disp_struct_3.xyz,Nucleus 25H :,-0.006175,-0.60217,1.016737,30.26,34.64,29.87,26.26,40.36,19.75,15.41,-5.76,10.01,11.02,26.26,29.87,34.64,0,8.38,-0.14
dw_cut_4_n1_3f_opt_disp_struct_3.xyz,Nucleus 0C :,-1.043454,-1.542676,0.835008,169.91,186.62,163.41,159.71,255.72,240.86,237.17,-66.4,-78.98,-78.64,159.71,163.41,186.62,0,26.91,-0.72
dw_cut_4_n1_3f_opt_disp_struct_3.xyz,Nucleus 3C :,-1.357757,-1.978581,-0.393291,60.98,149.11,52.69,-18.85,243.12,263.58,276.57,-94.36,-222.52,-283.45,-18.85,52.69,149.11,0,167.96,-0.15
dw_cut_4_n1_3f_opt_disp_struct_3.xyz,Nucleus 4C :,-1.75845,-2.034834,1.92765,61.2,-19.59,124.88,78.32,255.55,264.72,274.69,-285.93,-134.23,-191.2,-19.59,78.32,124.88,0,144.47,0.36
dw_cut_4_n1_3f_opt_disp_struct_3.xyz,Nucleus 7C :,-2.507843,-2.806705,1.797224,49.91,137.8,-6.56,18.49,261.4,273.13,277.78,-130.85,-282.67,-249.06,-6.56,18.49,137.8,0,144.36,-0.65
dw_cut_4_n1_3f_opt_disp_struct_3.xyz,Nucleus 8C :,-1.44619,-1.592725,3.205362,56.58,156.86,21.35,-8.47,237.57,264.62,267.28,-81.06,-244.76,-273.92,-8.47,21.35,156.86,0,165.33,-0.64
dw_cut_4_n1_3f_opt_disp_struct_3.xyz,Nucleus 9C :,-2.140482,-2.073283,4.246881,17.53,-55.38,78.1,29.88,235.59,265.54,266.36,-157.66,-235.85,-321.38,-55.38,29.88,78.1,0,133.48,0.28
dw_cut_4_n1_3f_opt_disp_struct_3.xyz,Nucleus 11C :,-0.429886,-0.662999,3.423444,79.34,152.96,13.36,71.7,238.19,268.44,276.77,-85.93,-259.33,-200.1,13.36,71.7,152.96,0,139.6,-0.16
dw_cut_4_n1_3f_opt_disp_struct_3.xyz,Nucleus 13C :,-0.136801,-0.241182,4.660667,23.33,87.64,14.52,-32.17,227.55,261.46,273.3,-140.41,-258.53,-293.39,-32.17,14.52,87.64,0,119.81,-0.22
dw_cut_4_n1_3f_opt_disp_struct_3.xyz,Nucleus 15C :,2.489805,1.563582,0.668482,36.54,88.77,22.4,-1.56,232.53,272.25,268.34,-145.49,-249.21,-268.81,-1.56,22.4,88.77,0,90.33,-0.47
dw_cut_4_n1_3f_opt_disp_struct_3.xyz,Nucleus 19C :,0.012703,0.181997,-1.812808,159.66,121.54,192.32,165.11,254.66,226.42,220.1,-98.75,-55.32,-68.15,121.54,165.11,192.32,0,70.78,0.23
dw_cut_4_n1_3f_opt_disp_struct_3.xyz,Nucleus 20C :,2.776746,-4.601712,2.410969,2.6,-82.38,69.61,20.56,202.48,257.79,265.06,-132.92,-343.96,-240.66,-82.38,20.56,69.61,0,151.99,0.35
dw_cut_4_n1_3f_opt_disp_struct_3.xyz,Nucleus 5N :,1.693389,-3.540644,2.329421,128.7,60.98,184.81,140.3,293.42,340.41,330.2,-109.08,-199.72,-269.15,60.98,140.3,184.81,0,123.83,0.28
dw_cut_4_n1_3f_opt_disp_struct_3.xyz,Nucleus 21O :,0.784404,-3.645645,3.202447,-35.97,217.62,-49.36,-276.17,400.4,408.19,418.37,-191.71,-453.89,-689.26,-276.17,-49.36,217.62,0,493.79,-0.08
dw_cut_4_n1_3f_opt_disp_struct_3.xyz,Nucleus 22O :,1.835176,-2.6807,1.416269,-38.35,207.83,-279.02,-43.86,398.06,419.38,428.19,-211.44,-685.4,-463.84,-279.02,-43.86,207.83,0,486.85,-0.03
dw_cut_4_n1_3f_opt_disp_struct_3.xyz,Nucleus 10F :,2.416751,-5.505806,1.903211,314.09,399.55,239.84,302.88,460.77,470.85,486.58,-71.1,-221.27,-183.57,239.84,302.88,399.55,0,159.71,-0.21
dw_cut_4_n1_3f_opt_disp_struct_3.xyz,Nucleus 14F :,3.70324,-4.287596,1.91783,327.56,414.68,304.53,263.48,484.74,465.25,470.4,-58.48,-176.93,-202.29,263.48,304.53,414.68,0,151.2,-0.46
dw_cut_4_n1_3f_opt_disp_struct_3.xyz,Nucleus 16F :,2.9768,-4.874201,3.452195,359.88,461.76,315.56,302.32,485.57,466.49,462.23,-4.38,-153.3,-176.97,302.32,315.56,461.76,0,159.44,-0.83
dw_cut_4_n1_3f_opt_disp_struct_4.xyz,Nucleus 1H :,0.973862,-0.040575,-1.33426,29.47,35.5,23.89,29.02,40.75,27.22,29.21,-6.64,0.59,-2.72,23.89,29.02,35.5,0,11.61,-0.12
dw_cut_4_n1_3f_opt_disp_struct_4.xyz,Nucleus 2H :,1.723204,0.646458,-1.743314,28.42,34.12,23.92,27.23,45.25,24.27,27.23,-12.41,2.09,-1.16,23.92,27.23,34.12,0,10.2,-0.35
dw_cut_4_n1_3f_opt_disp_struct_4.xyz,Nucleus 6H :,1.249716,-1.060653,-1.636402,24.41,16.21,25.88,31.15,11.58,31.62,49.83,-19.25,5.16,-5.69,16.21,25.88,31.15,0,14.94,0.3
dw_cut_4_n1_3f_opt_disp_struct_4.xyz,Nucleus 12H :,0.899497,0.083391,0.145497,24.87,21.43,25.36,27.81,48.66,15.41,31.93,-23.52,6.27,-4.14,21.43,25.36,27.81,0,6.38,0.23
dw_cut_4_n1_3f_opt_disp_struct_4.xyz,Nucleus 17H :,1.687597,0.892644,0.941965,24.75,21.41,26.03,26.81,45.19,27.99,31.49,-19.23,-6.55,-4.65,21.41,26.03,26.81,0,5.4,0.71
dw_cut_4_n1_3f_opt_disp_struct_4.xyz,Nucleus 18H :,1.305927,0.724076,2.246026,28.97,35.09,27.98,23.83,42.68,27.81,33.38,-0.37,-11.02,-5.58,23.83,27.98,35.09,0,11.26,-0.26
dw_cut_4_n1_3f_opt_disp_struct_4.xyz,Nucleus 23H :,1.700961,1.188622,3.041257,29.92,33.42,28.69,27.66,38.12,21.55,18.67,-4.95,9.87,6.51,27.66,28.69,33.42,0,5.76,-0.64
dw_cut_4_n1_3f_opt_disp_struct_4.xyz,Nucleus 24H :,0.275961,-0.181519,2.318621,30.48,34.75,26.05,30.63,38.83,14.4,26.68,-4.25,11.7,4.08,26.05,30.63,34.75,0,8.7,0.05
dw_cut_4_n1_3f_opt_disp_struct_4.xyz,Nucleus 25H :,-0.006175,-0.60217,1.016737,30.23,34.51,29.89,26.29,40.13,19.7,14.86,-5.66,10.12,11.54,26.29,29.89,34.51,0,8.22,-0.12
dw_cut_4_n1_3f_opt_disp_struct_4.xyz,Nucleus 0C :,-1.043454,-1.542676,0.835008,170.04,186.64,163.64,159.84,256.01,241.36,237.25,-66.58,-79.41,-78.51,159.84,163.64,186.64,0,26.8,-0.72
dw_cut_4_n1_3f_opt_disp_struct_4.xyz,Nucleus 3C :,-1.357757,-1.978581,-0.393291,61.16,149.0,53.02,-18.54,243.44,263.8,277.07,-94.67,-222.85,-283.31,-18.54,53.02,149.0,0,167.54,-0.15
dw_cut_4_n1_3f_opt_disp_struct_4.xyz,Nucleus 4C :,-1.75845,-2.034834,1.92765,60.53,-20.62,125.03,77.17,256.06,264.16,274.83,-286.93,-134.05,-192.49,-20.62,77.17,125.03,0,145.65,0.34
dw_cut_4_n1_3f_opt_disp_struct_4.xyz,Nucleus 7C :,-2.507843,-2.806705,1.797224,49.82,137.74,-6.4,18.11,261.21,273.12,277.99,-130.25,-282.67,-249.94,-6.4,18.11,137.74,0,144.14,-0.66
dw_cut_4_n1_3f_opt_disp_struct_4.xyz,Nucleus 8C :,-1.44619,-1.592725,3.205362,58.1,156.66,23.64,-6.01,237.49,268.39,265.72,-81.12,-243.77,-272.43,-6.01,23.64,156.66,0,162.67,-0.64
dw_cut_4_n1_3f_opt_disp_struct_4.xyz,Nucleus 9C :,-2.140482,-2.073283,4.246881,17.41,-55.82,78.03,30.02,235.88,266.0,266.64,-157.95,-236.33,-322.01,-55.82,30.02,78.03,0,133.85,0.28
dw_cut_4_n1_3f_opt_disp_struct_4.xyz,Nucleus 11C :,-0.429886,-0.662999,3.423444,79.26,153.1,13.42,71.25,237.81,268.59,276.06,-85.28,-258.79,-200.62,13.42,71.25,153.1,0,139.68,-0.17
dw_cut_4_n1_3f_opt_disp_struct_4.xyz,Nucleus 13C :,-0.136801,-0.241182,4.660667,24.15,87.58,15.56,-30.7,227.75,262.01,272.42,-140.71,-256.51,-292.52,-30.7,15.56,87.58,0,118.28,-0.22
dw_cut_4_n1_3f_opt_disp_struct_4.xyz,Nucleus 15C :,2.489805,1.563582,0.668482,36.88,88.72,23.16,-1.25,232.27,268.51,272.03,-145.2,-247.9,-269.07,-1.25,23.16,88.72,0,89.97,-0.46
dw_cut_4_n1_3f_opt_disp_struct_4.xyz,Nucleus 19C :,0.012703,0.181997,-1.812808,159.71,121.63,192.02,165.47,254.13,225.44,219.0,-97.53,-54.61,-67.31,121.63,165.47,192.02,0,70.39,0.25
dw_cut_4_n1_3f_opt_disp_struct_4.xyz,Nucleus 20C :,2.941718,-4.787957,2.435395,2.44,-83.19,68.38,22.13,203.35,258.05,264.44,-135.0,-343.71,-239.81,-83.19,22.13,68.38,0,151.57,0.39
dw_cut_4_n1_3f_opt_disp_struct_4.xyz,Nucleus 5N :,1.858362,-3.72689,2.353847,127.58,59.0,184.86,138.89,293.03,340.57,330.39,-108.78,-201.23,-271.23,59.0,138.89,184.86,0,125.86,0.27
dw_cut_4_n1_3f_opt_disp_struct_4.xyz,Nucleus 21O :,0.949377,-3.831891,3.226873,-29.99,218.76,-42.63,-266.1,418.71,406.11,399.24,-188.36,-447.28,-678.39,-266.1,-42.63,218.76,0,484.86,-0.08
dw_cut_4_n1_3f_opt_disp_struct_4.xyz,Nucleus 22O :,2.000149,-2.866946,1.440695,-31.44,212.13,-266.55,-39.9,398.64,420.41,427.03,-208.52,-672.51,-459.38,-266.55,-39.9,212.13,0,478.68,-0.05
dw_cut_4_n1_3f_opt_disp_struct_4.xyz,Nucleus 10F :,2.581723,-5.692051,1.927637,312.1,399.36,236.15,300.8,460.87,470.54,486.06,-70.98,-225.06,-185.12,236.15,300.8,399.36,0,163.21,-0.21
dw_cut_4_n1_3f_opt_disp_struct_4.xyz,Nucleus 14F :,3.868212,-4.473842,1.942256,327.4,414.37,303.99,263.85,484.19,464.17,471.18,-59.37,-177.12,-200.86,263.85,303.99,414.37,0,150.52,-0.47
dw_cut_4_n1_3f_opt_disp_struct_4.xyz,Nucleus 16F :,3.141773,-5.060447,3.476621,358.4,461.16,313.74,300.3,485.85,466.11,461.93,-4.74,-155.22,-178.74,300.3,313.74,461.16,0,160.86,-0.83
dw_cut_4_n1_3f_opt_disp_struct_5.xyz,Nucleus 1H :,0.973862,-0.040575,-1.33426,29.45,35.47,23.87,29.0,40.74,27.27,29.22,-6.66,0.44,-2.67,23.87,29.0,35.47,0,11.6,-0.12
dw_cut_4_n1_3f_opt_disp_struct_5.xyz,Nucleus 2H :,1.723204,0.646458,-1.743314,28.41,34.16,23.9,27.18,45.32,24.4,27.16,-12.39,2.05,-1.3,23.9,27.18,34.16,0,10.26,-0.36
dw_cut_4_n1_3f_opt_disp_struct_5.xyz,Nucleus 6H :,1.249716,-1.060653,-1.636402,24.34,16.15,25.83,31.03,11.44,31.48,49.88,-19.39,5.21,-5.61,16.15,25.83,31.03,0,14.88,0.3
dw_cut_4_n1_3f_opt_disp_struct_5.xyz,Nucleus 12H :,0.899497,0.083391,0.145497,24.8,21.36,25.26,27.79,48.45,15.43,31.67,-23.36,6.12,-3.91,21.36,25.26,27.79,0,6.43,0.21
dw_cut_4_n1_3f_opt_disp_struct_5.xyz,Nucleus 17H :,1.687597,0.892644,0.941965,24.7,21.35,25.95,26.8,45.17,27.91,31.42,-19.28,-6.47,-4.65,21.35,25.95,26.8,0,5.45,0.69
dw_cut_4_n1_3f_opt_disp_struct_5.xyz,Nucleus 18H :,1.305927,0.724076,2.246026,28.97,35.08,27.99,23.85,42.76,27.87,33.41,-0.42,-11.01,-5.7,23.85,27.99,35.08,0,11.23,-0.26
dw_cut_4_n1_3f_opt_disp_struct_5.xyz,Nucleus 23H :,1.700961,1.188622,3.041257,29.89,33.27,28.72,27.69,37.94,18.11,21.8,-4.91,10.48,6.26,27.69,28.72,33.27,0,5.58,-0.63
dw_cut_4_n1_3f_opt_disp_struct_5.xyz,Nucleus 24H :,0.275961,-0.181519,2.318621,30.44,34.65,26.1,30.58,38.76,14.19,26.37,-4.29,11.96,4.35,26.1,30.58,34.65,0,8.55,0.05
dw_cut_4_n1_3f_opt_disp_struct_5.xyz,Nucleus 25H :,-0.006175,-0.60217,1.016737,30.2,34.38,29.9,26.32,39.92,19.71,14.35,-5.57,10.14,12.07,26.32,29.9,34.38,0,8.06,-0.11
dw_cut_4_n1_3f_opt_disp_struct_5.xyz,Nucleus 0C :,-1.043454,-1.542676,0.835008,170.15,186.64,163.85,159.95,256.19,241.61,237.24,-66.81,-79.61,-78.2,159.95,163.85,186.64,0,26.69,-0.71
dw_cut_4_n1_3f_opt_disp_struct_5.xyz,Nucleus 3C :,-1.357757,-1.978581,-0.393291,61.33,148.9,53.33,-18.24,243.45,276.9,263.86,-94.68,-222.64,-282.9,-18.24,53.33,148.9,0,167.14,-0.14
dw_cut_4_n1_3f_opt_disp_struct_5.xyz,Nucleus 4C :,-1.75845,-2.034834,1.92765,59.93,-21.5,125.15,76.15,256.25,263.87,274.77,-287.76,-133.88,-193.45,-21.5,76.15,125.15,0,146.65,0.33
dw_cut_4_n1_3f_opt_disp_struct_5.xyz,Nucleus 7C :,-2.507843,-2.806705,1.797224,49.9,137.68,-6.02,18.03,261.32,272.25,277.64,-129.38,-282.09,-250.05,-6.02,18.03,137.68,0,143.7,-0.67
dw_cut_4_n1_3f_opt_disp_struct_5.xyz,Nucleus 8C :,-1.44619,-1.592725,3.205362,59.1,156.47,25.2,-4.37,237.3,268.84,266.29,-81.09,-242.69,-271.36,-4.37,25.2,156.47,0,160.84,-0.63
dw_cut_4_n1_3f_opt_disp_struct_5.xyz,Nucleus 9C :,-2.140482,-2.073283,4.246881,17.47,-55.78,78.02,30.18,235.9,266.55,265.97,-157.91,-236.32,-321.76,-55.78,30.18,78.02,0,133.8,0.28
dw_cut_4_n1_3f_opt_disp_struct_5.xyz,Nucleus 11C :,-0.429886,-0.662999,3.423444,79.21,153.2,13.51,70.93,237.73,268.34,275.35,-84.94,-258.03,-200.81,13.51,70.93,153.2,0,139.69,-0.18
dw_cut_4_n1_3f_opt_disp_struct_5.xyz,Nucleus 13C :,-0.136801,-0.241182,4.660667,24.75,87.54,16.35,-29.65,228.42,262.13,271.97,-141.36,-255.21,-291.72,-29.65,16.35,87.54,0,117.19,-0.22
dw_cut_4_n1_3f_opt_disp_struct_5.xyz,Nucleus 15C :,2.489805,1.563582,0.668482,37.18,88.7,23.75,-0.92,232.22,268.28,271.87,-145.02,-246.95,-268.86,-0.92,23.75,88.7,0,89.62,-0.45
dw_cut_4_n1_3f_opt_disp_struct_5.xyz,Nucleus 19C :,0.012703,0.181997,-1.812808,159.71,121.65,191.77,165.7,253.68,224.61,217.98,-96.49,-54.02,-66.65,121.65,165.7,191.77,0,70.12,0.26
dw_cut_4_n1_3f_opt_disp_struct_5.xyz,Nucleus 20C :,3.106691,-4.974203,2.459821,2.44,-83.9,67.84,23.37,203.77,258.21,264.3,-135.96,-343.51,-239.51,-83.9,23.37,67.84,0,151.74,0.41
dw_cut_4_n1_3f_opt_disp_struct_5.xyz,Nucleus 5N :,2.023335,-3.913135,2.378273,126.73,57.52,184.89,137.78,292.9,340.59,330.47,-108.66,-202.31,-272.8,57.52,137.78,184.89,0,127.37,0.26
dw_cut_4_n1_3f_opt_disp_struct_5.xyz,Nucleus 21O :,1.114349,-4.018137,3.251299,-27.24,218.76,-38.82,-261.66,419.85,405.52,398.39,-187.81,-444.08,-673.59,-261.66,-38.82,218.76,0,480.42,-0.07
dw_cut_4_n1_3f_opt_disp_struct_5.xyz,Nucleus 22O :,2.165121,-3.053191,1.465121,-28.65,213.3,-261.07,-38.19,399.38,422.5,426.98,-209.98,-667.97,-456.87,-261.07,-38.19,213.3,0,474.37,-0.06
dw_cut_4_n1_3f_opt_disp_struct_5.xyz,Nucleus 10F :,2.746696,-5.878297,1.952063,310.67,399.18,233.64,299.18,460.87,470.13,485.54,-70.71,-227.59,-186.24,233.64,299.18,399.18,0,165.54,-0.21
dw_cut_4_n1_3f_opt_disp_struct_5.xyz,Nucleus 14F :,4.033185,-4.660087,1.966682,327.16,414.12,303.42,263.93,483.57,463.37,471.8,-59.87,-177.35,-200.06,263.93,303.42,414.12,0,150.19,-0.47
dw_cut_4_n1_3f_opt_disp_struct_5.xyz,Nucleus 16F :,3.306746,-5.246693,3.501047,357.22,460.65,312.27,298.75,486.1,465.48,461.67,-4.63,-156.74,-180.21,298.75,312.27,460.65,0,161.9,-0.83
dw_cut_4_n1_3f_opt_disp_struct_6.xyz,Nucleus 1H :,0.973862,-0.040575,-1.33426,29.43,35.45,23.86,28.99,40.72,27.28,29.2,-6.63,0.35,-2.63,23.86,28.99,35.45,0,11.59,-0.11
dw_cut_4_n1_3f_opt_disp_struct_6.xyz,Nucleus 2H :,1.723204,0.646458,-1.743314,28.41,34.21,23.89,27.13,45.33,24.44,27.1,-12.3,2.07,-1.4,23.89,27.13,34.21,0,10.32,-0.37
dw_cut_4_n1_3f_opt_disp_struct_6.xyz,Nucleus 6H :,1.249716,-1.060653,-1.636402,24.28,16.11,25.8,30.92,11.36,31.36,49.86,-19.45,5.2,-5.51,16.11,25.8,30.92,0,14.81,0.31
dw_cut_4_n1_3f_opt_disp_struct_6.xyz,Nucleus 12H :,0.899497,0.083391,0.145497,24.75,21.29,25.19,27.77,48.23,15.5,31.44,-23.16,5.94,-3.69,21.29,25.19,27.77,0,6.48,0.2
dw_cut_4_n1_3f_opt_disp_struct_6.xyz,Nucleus 17H :,1.687597,0.892644,0.941965,24.65,21.3,25.87,26.79,45.13,27.81,31.32,-19.29,-6.41,-4.6,21.3,25.87,26.79,0,5.49,0.67
dw_cut_4_n1_3f_opt_disp_struct_6.xyz,Nucleus 18H :,1.305927,0.724076,2.246026,28.97,35.06,27.99,23.86,42.77,27.87,33.36,-0.42,-10.94,-5.74,23.86,27.99,35.06,0,11.2,-0.26
dw_cut_4_n1_3f_opt_disp_struct_6.xyz,Nucleus 23H :,1.700961,1.188622,3.041257,29.87,33.14,28.75,27.72,37.8,17.55,22.07,-4.9,11.08,6.02,27.72,28.75,33.14,0,5.42,-0.62
dw_cut_4_n1_3f_opt_disp_struct_6.xyz,Nucleus 24H :,0.275961,-0.181519,2.318621,30.41,34.57,26.13,30.53,38.75,14.0,26.11,-4.37,12.18,4.57,26.13,30.53,34.57,0,8.44,0.04
dw_cut_4_n1_3f_opt_disp_struct_6.xyz,Nucleus 25H :,-0.006175,-0.60217,1.016737,30.18,34.28,29.91,26.36,39.76,19.75,13.85,-5.52,10.12,12.59,26.36,29.91,34.28,0,7.92,-0.1
dw_cut_4_n1_3f_opt_disp_struct_6.xyz,Nucleus 0C :,-1.043454,-1.542676,0.835008,170.23,186.62,164.04,160.04,256.3,241.71,237.21,-67.03,-79.68,-77.81,160.04,164.04,186.62,0,26.58,-0.7
dw_cut_4_n1_3f_opt_disp_struct_6.xyz,Nucleus 3C :,-1.357757,-1.978581,-0.393291,61.47,148.83,53.56,-17.97,243.22,276.3,263.8,-94.46,-222.09,-282.35,-17.97,53.56,148.83,0,166.8,-0.14
dw_cut_4_n1_3f_opt_disp_struct_6.xyz,Nucleus 4C :,-1.75845,-2.034834,1.92765,59.39,-22.27,125.23,75.22,256.17,263.85,274.58,-288.48,-133.74,-194.2,-22.27,75.22,125.23,0,147.5,0.32
dw_cut_4_n1_3f_opt_disp_struct_6.xyz,Nucleus 7C :,-2.507843,-2.806705,1.797224,50.03,137.63,-5.61,18.08,261.56,271.09,277.03,-128.44,-281.33,-249.8,-5.61,18.08,137.63,0,143.24,-0.67
dw_cut_4_n1_3f_opt_disp_struct_6.xyz,Nucleus 8C :,-1.44619,-1.592725,3.205362,59.8,156.36,26.29,-3.25,237.19,266.59,268.79,-81.08,-241.5,-270.59,-3.25,26.29,156.36,0,159.61,-0.63
dw_cut_4_n1_3f_opt_disp_struct_6.xyz,Nucleus 9C :,-2.140482,-2.073283,4.246881,17.61,-55.55,78.03,30.36,235.7,266.44,265.62,-157.67,-236.08,-321.18,-55.55,30.36,78.03,0,133.58,0.29
dw_cut_4_n1_3f_opt_disp_struct_6.xyz,Nucleus 11C :,-0.429886,-0.662999,3.423444,79.2,153.28,13.63,70.7,237.74,267.89,274.72,-84.75,-257.19,-200.8,13.63,70.7,153.28,0,139.65,-0.18
dw_cut_4_n1_3f_opt_disp_struct_6.xyz,Nucleus 13C :,-0.136801,-0.241182,4.660667,25.16,87.47,16.92,-28.9,229.19,262.04,271.73,-142.12,-254.34,-291.0,-28.9,16.92,87.47,0,116.37,-0.21
dw_cut_4_n1_3f_opt_disp_struct_6.xyz,Nucleus 15C :,2.489805,1.563582,0.668482,37.42,88.67,24.2,-0.62,232.25,267.96,271.7,-144.94,-246.25,-268.46,-0.62,24.2,88.67,0,89.29,-0.44
dw_cut_4_n1_3f_opt_disp_struct_6.xyz,Nucleus 19C :,0.012703,0.181997,-1.812808,159.67,121.61,191.56,165.84,253.3,224.08,217.15,-95.71,-53.66,-66.16,121.61,165.84,191.56,0,69.95,0.26
dw_cut_4_n1_3f_opt_disp_struct_6.xyz,Nucleus 20C :,3.271664,-5.160448,2.484247,2.5,-84.49,67.68,24.32,203.93,258.09,264.53,-136.28,-343.32,-239.45,-84.49,24.32,67.68,0,152.17,0.43
dw_cut_4_n1_3f_opt_disp_struct_6.xyz,Nucleus 5N :,2.188307,-4.099381,2.402699,126.02,56.32,184.89,136.84,292.97,340.47,330.51,-108.7,-203.11,-274.09,56.32,136.84,184.89,0,128.57,0.25
dw_cut_4_n1_3f_opt_disp_struct_6.xyz,Nucleus 21O :,1.279322,-4.204382,3.275725,-26.05,218.61,-36.96,-259.8,421.2,405.78,397.78,-188.36,-442.92,-671.63,-259.8,-36.96,218.61,0,478.41,-0.07
dw_cut_4_n1_3f_opt_disp_struct_6.xyz,Nucleus 22O :,2.330094,-3.239437,1.489547,-27.97,213.18,-259.02,-38.07,399.94,428.19,424.19,-213.11,-667.17,-455.94,-259.02,-38.07,213.18,0,472.2,-0.06
dw_cut_4_n1_3f_opt_disp_struct_6.xyz,Nucleus 10F :,2.911668,-6.064543,1.976489,309.62,399.08,231.8,297.99,485.11,469.72,460.83,-70.33,-229.43,-187.02,231.8,297.99,399.08,0,167.28,-0.21
dw_cut_4_n1_3f_opt_disp_struct_6.xyz,Nucleus 14F :,4.198157,-4.846333,1.991108,326.88,413.87,302.94,263.82,483.05,462.91,472.07,-60.14,-177.52,-199.75,263.82,302.94,413.87,0,150.05,-0.48
dw_cut_4_n1_3f_opt_disp_struct_6.xyz,Nucleus 16F :,3.471718,-5.432938,3.525473,356.32,460.2,311.2,297.56,486.31,464.7,461.57,-4.37,-158.02,-181.23,297.56,311.2,460.2,0,162.64,-0.83
dw_cut_4_n1_3f_opt_disp_struct_7.xyz,Nucleus 1H :,0.973862,-0.040575,-1.33426,29.41,35.42,23.84,28.97,40.68,27.26,29.17,-6.58,0.31,-2.6,23.84,28.97,35.42,0,11.58,-0.11
dw_cut_4_n1_3f_opt_disp_struct_7.xyz,Nucleus 2H :,1.723204,0.646458,-1.743314,28.41,34.25,23.89,27.09,45.31,24.43,27.03,-12.21,2.12,-1.46,23.89,27.09,34.25,0,10.36,-0.38
dw_cut_4_n1_3f_opt_disp_struct_7.xyz,Nucleus 6H :,1.249716,-1.060653,-1.636402,24.22,16.06,25.76,30.85,11.32,31.24,49.82,-19.45,5.15,-5.42,16.06,25.76,30.85,0,14.79,0.31
dw_cut_4_n1_3f_opt_disp_struct_7.xyz,Nucleus 12H :,0.899497,0.083391,0.145497,24.71,21.22,25.15,27.77,48.02,15.57,31.24,-22.97,5.78,-3.51,21.22,25.15,27.77,0,6.55,0.2
dw_cut_4_n1_3f_opt_disp_struct_7.xyz,Nucleus 17H :,1.687597,0.892644,0.941965,24.62,21.25,25.81,26.79,45.08,27.73,31.23,-19.27,-6.38,-4.54,21.25,25.81,26.79,0,5.54,0.64
dw_cut_4_n1_3f_opt_disp_struct_7.xyz,Nucleus 18H :,1.305927,0.724076,2.246026,28.97,35.05,27.99,23.86,42.75,27.84,33.28,-0.39,-10.84,-5.74,23.86,27.99,35.05,0,11.19,-0.26
dw_cut_4_n1_3f_opt_disp_struct_7.xyz,Nucleus 23H :,1.700961,1.188622,3.041257,29.85,33.02,28.77,27.76,37.71,17.03,22.35,11.63,5.77,-4.93,27.76,28.77,33.02,0,5.26,-0.62
dw_cut_4_n1_3f_opt_disp_struct_7.xyz,Nucleus 24H :,0.275961,-0.181519,2.318621,30.39,34.5,26.17,30.49,38.78,13.87,25.92,-4.48,12.35,4.72,26.17,30.49,34.5,0,8.33,0.04
dw_cut_4_n1_3f_opt_disp_struct_7.xyz,Nucleus 25H :,-0.006175,-0.60217,1.016737,30.16,34.18,29.93,26.38,39.64,19.82,13.38,-5.5,10.06,13.09,26.38,29.93,34.18,0,7.8,-0.09
dw_cut_4_n1_3f_opt_disp_struct_7.xyz,Nucleus 0C :,-1.043454,-1.542676,0.835008,170.3,186.59,164.19,160.11,256.38,241.69,237.15,-67.23,-79.65,-77.45,160.11,164.19,186.59,0,26.48,-0.69
dw_cut_4_n1_3f_opt_disp_struct_7.xyz,Nucleus 3C :,-1.357757,-1.978581,-0.393291,61.57,148.74,53.74,-17.76,242.9,275.53,263.68,-94.2,-221.35,-281.83,-17.76,53.74,148.74,0,166.5,-0.14
dw_cut_4_n1_3f_opt_disp_struct_7.xyz,Nucleus 4C :,-1.75845,-2.034834,1.92765,58.93,-22.91,125.3,74.41,255.87,264.05,274.34,-289.06,-133.58,-194.81,-22.91,74.41,125.3,0,148.21,0.31
dw_cut_4_n1_3f_opt_disp_struct_7.xyz,Nucleus 7C :,-2.507843,-2.806705,1.797224,50.18,137.57,-5.21,18.17,261.73,270.03,276.33,-127.57,-280.48,-249.51,-5.21,18.17,137.57,0,142.78,-0.67
dw_cut_4_n1_3f_opt_disp_struct_7.xyz,Nucleus 8C :,-1.44619,-1.592725,3.205362,60.25,156.22,27.04,-2.52,237.16,266.59,268.61,-81.16,-240.33,-270.13,-2.52,27.04,156.22,0,158.74,-0.63
dw_cut_4_n1_3f_opt_disp_struct_7.xyz,Nucleus 9C :,-2.140482,-2.073283,4.246881,17.76,-55.27,78.04,30.5,235.37,266.34,265.15,-157.35,-235.77,-320.47,-55.27,30.5,78.04,0,133.31,0.29
dw_cut_4_n1_3f_opt_disp_struct_7.xyz,Nucleus 11C :,-0.429886,-0.662999,3.423444,79.19,153.32,13.74,70.51,237.69,267.41,274.19,-84.59,-256.42,-200.71,13.74,70.51,153.32,0,139.58,-0.19
dw_cut_4_n1_3f_opt_disp_struct_7.xyz,Nucleus 13C :,-0.136801,-0.241182,4.660667,25.48,87.42,17.35,-28.34,229.95,261.82,271.52,-142.82,-253.68,-290.35,-28.34,17.35,87.42,0,115.76,-0.21
dw_cut_4_n1_3f_opt_disp_struct_7.xyz,Nucleus 15C :,2.489805,1.563582,0.668482,37.62,88.65,24.57,-0.36,232.27,267.67,271.53,-144.91,-245.67,-268.03,-0.36,24.57,88.65,0,89.01,-0.44
dw_cut_4_n1_3f_opt_disp_struct_7.xyz,Nucleus 19C :,0.012703,0.181997,-1.812808,159.63,121.57,191.37,165.95,253.0,224.02,216.71,-95.31,-53.64,-65.87,121.57,165.95,191.37,0,69.8,0.27
dw_cut_4_n1_3f_opt_disp_struct_7.xyz,Nucleus 20C :,3.436636,-5.346694,2.508673,2.55,-84.99,67.6,25.05,203.91,257.79,264.89,-136.33,-343.16,-239.43,-84.99,25.05,67.6,0,152.59,0.44
dw_cut_4_n1_3f_opt_disp_struct_7.xyz,Nucleus 5N :,2.35328,-4.285626,2.427125,125.48,55.44,184.91,136.1,293.13,340.23,330.53,-108.74,-203.59,-275.1,55.44,136.1,184.91,0,129.47,0.25
dw_cut_4_n1_3f_opt_disp_struct_7.xyz,Nucleus 21O :,1.444294,-4.390628,3.300151,-25.61,218.58,-36.2,-259.22,422.58,406.44,397.33,-189.24,-442.78,-671.17,-259.22,-36.2,218.58,0,477.8,-0.07
dw_cut_4_n1_3f_opt_disp_struct_7.xyz,Nucleus 22O :,2.495067,-3.425683,1.513973,-28.21,212.77,-258.63,-38.77,400.32,430.58,424.98,-216.59,-667.98,-455.94,-258.63,-38.77,212.77,0,471.4,-0.07
dw_cut_4_n1_3f_opt_disp_struct_7.xyz,Nucleus 10F :,3.076641,-6.250788,2.000916,308.76,398.97,230.37,296.94,484.76,469.31,460.78,-69.99,-230.82,-187.76,230.37,296.94,398.97,0,168.6,-0.21
dw_cut_4_n1_3f_opt_disp_struct_7.xyz,Nucleus 14F :,4.36313,-5.032579,2.015534,326.55,413.64,302.43,263.58,482.69,462.64,472.09,-60.22,-177.79,-199.77,263.58,302.43,413.64,0,150.06,-0.48
dw_cut_4_n1_3f_opt_disp_struct_7.xyz,Nucleus 16F :,3.636691,-5.619184,3.549899,355.55,459.85,310.24,296.56,486.45,463.86,461.62,-4.06,-159.13,-182.09,296.56,310.24,459.85,0,163.29,-0.83
dw_cut_4_n1_3f_opt_disp_struct_8.xyz,Nucleus 1H :,0.973862,-0.040575,-1.33426,29.39,35.4,23.81,28.96,40.63,27.21,29.14,-6.52,0.29,-2.58,23.81,28.96,35.4,0,11.59,-0.11
dw_cut_4_n1_3f_opt_disp_struct_8.xyz,Nucleus 2H :,1.723204,0.646458,-1.743314,28.41,34.3,23.88,27.06,45.29,24.41,26.95,-12.12,2.18,-1.48,23.88,27.06,34.3,0,10.42,-0.39
dw_cut_4_n1_3f_opt_disp_struct_8.xyz,Nucleus 6H :,1.249716,-1.060653,-1.636402,24.18,16.01,25.73,30.79,11.3,31.14,49.75,-19.4,5.07,-5.33,16.01,25.73,30.79,0,14.78,0.31
dw_cut_4_n1_3f_opt_disp_struct_8.xyz,Nucleus 12H :,0.899497,0.083391,0.145497,24.68,21.16,25.12,27.77,47.82,15.63,31.08,-22.78,5.65,-3.36,21.16,25.12,27.77,0,6.61,0.2
dw_cut_4_n1_3f_opt_disp_struct_8.xyz,Nucleus 17H :,1.687597,0.892644,0.941965,24.58,21.2,25.76,26.78,45.02,27.67,31.15,-19.24,-6.37,-4.47,21.2,25.76,26.78,0,5.58,0.63
dw_cut_4_n1_3f_opt_disp_struct_8.xyz,Nucleus 18H :,1.305927,0.724076,2.246026,28.96,35.03,27.99,23.86,42.7,27.78,33.19,-0.34,-10.74,-5.71,23.86,27.99,35.03,0,11.17,-0.26
dw_cut_4_n1_3f_opt_disp_struct_8.xyz,Nucleus 23H :,1.700961,1.188622,3.041257,29.83,32.91,28.79,27.79,37.66,16.59,22.65,12.09,5.5,-4.99,27.79,28.79,32.91,0,5.12,-0.61
dw_cut_4_n1_3f_opt_disp_struct_8.xyz,Nucleus 24H :,0.275961,-0.181519,2.318621,30.36,34.43,26.21,30.44,38.86,13.8,25.8,-4.62,12.45,4.79,26.21,30.44,34.43,0,8.22,0.03
dw_cut_4_n1_3f_opt_disp_struct_8.xyz,Nucleus 25H :,-0.006175,-0.60217,1.016737,30.14,34.09,29.93,26.41,39.56,19.94,12.98,-5.52,9.95,13.52,26.41,29.93,34.09,0,7.68,-0.08
dw_cut_4_n1_3f_opt_disp_struct_8.xyz,Nucleus 0C :,-1.043454,-1.542676,0.835008,170.35,186.56,164.33,160.17,256.44,241.59,237.09,-67.4,-79.54,-77.12,160.17,164.33,186.56,0,26.39,-0.68
dw_cut_4_n1_3f_opt_disp_struct_8.xyz,Nucleus 3C :,-1.357757,-1.978581,-0.393291,61.64,148.66,53.85,-17.6,242.58,274.71,263.53,-93.95,-220.57,-281.4,-17.6,53.85,148.66,0,166.26,-0.14
dw_cut_4_n1_3f_opt_disp_struct_8.xyz,Nucleus 4C :,-1.75845,-2.034834,1.92765,58.54,-23.46,125.37,73.71,255.45,264.36,274.1,-289.56,-133.42,-195.3,-23.46,73.71,125.37,0,148.83,0.31
dw_cut_4_n1_3f_opt_disp_struct_8.xyz,Nucleus 7C :,-2.507843,-2.806705,1.797224,50.31,137.52,-4.85,18.26,261.67,269.39,275.59,-126.8,-279.61,-249.32,-4.85,18.26,137.52,0,142.37,-0.68
dw_cut_4_n1_3f_opt_disp_struct_8.xyz,Nucleus 8C :,-1.44619,-1.592725,3.205362,60.57,156.1,27.59,-1.99,237.24,266.13,268.46,-81.32,-239.09,-269.74,-1.99,27.59,156.1,0,158.09,-0.63
dw_cut_4_n1_3f_opt_disp_struct_8.xyz,Nucleus 9C :,-2.140482,-2.073283,4.246881,17.89,-55.01,78.05,30.62,234.99,266.24,264.65,-157.04,-235.44,-319.76,-55.01,30.62,78.05,0,133.06,0.29
dw_cut_4_n1_3f_opt_disp_struct_8.xyz,Nucleus 11C :,-0.429886,-0.662999,3.423444,79.18,153.35,13.84,70.36,237.61,266.93,273.72,-84.44,-255.7,-200.57,13.84,70.36,153.35,0,139.51,-0.19
dw_cut_4_n1_3f_opt_disp_struct_8.xyz,Nucleus 13C :,-0.136801,-0.241182,4.660667,25.7,87.38,17.67,-27.94,230.55,261.59,271.28,-143.36,-253.13,-289.81,-27.94,17.67,87.38,0,115.32,-0.21
dw_cut_4_n1_3f_opt_disp_struct_8.xyz,Nucleus 15C :,2.489805,1.563582,0.668482,37.78,88.63,24.86,-0.15,232.28,271.32,267.44,-144.89,-245.17,-267.64,-0.15,24.86,88.63,0,88.78,-0.44
dw_cut_4_n1_3f_opt_disp_struct_8.xyz,Nucleus 19C :,0.012703,0.181997,-1.812808,159.6,121.54,191.2,166.06,252.75,224.48,216.76,-95.43,-54.01,-65.75,121.54,166.06,191.2,0,69.66,0.28
dw_cut_4_n1_3f_opt_disp_struct_8.xyz,Nucleus 20C :,3.601609,-5.53294,2.533099,2.59,-85.41,67.56,25.61,203.67,257.41,265.21,-136.13,-343.02,-239.37,-85.41,25.61,67.56,0,152.97,0.45
dw_cut_4_n1_3f_opt_disp_struct_8.xyz,Nucleus 5N :,2.518252,-4.471872,2.451551,125.05,54.74,184.93,135.49,293.27,339.93,330.53,-108.74,-203.9,-275.93,54.74,135.49,184.93,0,130.19,0.24
dw_cut_4_n1_3f_opt_disp_struct_8.xyz,Nucleus 21O :,1.609267,-4.576873,3.324577,-25.49,218.83,-36.05,-259.26,423.91,406.97,396.92,-189.61,-443.11,-671.55,-259.26,-36.05,218.83,0,478.09,-0.07
dw_cut_4_n1_3f_opt_disp_struct_8.xyz,Nucleus 22O :,2.660039,-3.611928,1.538399,-28.82,212.4,-259.08,-39.79,400.59,433.52,425.48,-220.11,-669.59,-456.36,-259.08,-39.79,212.4,0,471.48,-0.07
dw_cut_4_n1_3f_opt_disp_struct_8.xyz,Nucleus 10F :,3.241614,-6.437034,2.025342,308.03,398.86,229.21,296.03,484.48,468.94,460.71,-69.7,-231.91,-188.41,229.21,296.03,398.86,0,169.65,-0.21
dw_cut_4_n1_3f_opt_disp_struct_8.xyz,Nucleus 14F :,4.528102,-5.218824,2.03996,326.21,413.44,301.94,263.26,482.48,462.43,472.0,-60.21,-178.08,-199.98,263.26,301.94,413.44,0,150.18,-0.48
dw_cut_4_n1_3f_opt_disp_struct_8.xyz,Nucleus 16F :,3.801663,-5.805429,3.574325,354.89,459.55,309.42,295.7,486.5,463.16,461.71,-3.84,-160.1,-182.76,295.7,309.42,459.55,0,163.85,-0.83
dw_cut_4_n1_3f_opt_disp_struct_9.xyz,Nucleus 1H :,0.973862,-0.040575,-1.33426,29.37,35.38,23.79,28.94,40.57,27.15,29.11,-6.46,0.3,-2.56,23.79,28.94,35.38,0,11.59,-0.11
dw_cut_4_n1_3f_opt_disp_struct_9.xyz,Nucleus 2H :,1.723204,0.646458,-1.743314,28.42,34.35,23.88,27.03,45.26,24.37,26.87,-12.03,2.25,-1.47,23.88,27.03,34.35,0,10.47,-0.4
dw_cut_4_n1_3f_opt_disp_struct_9.xyz,Nucleus 6H :,1.249716,-1.060653,-1.636402,24.14,15.97,25.7,30.75,11.29,31.05,49.67,-19.33,4.98,-5.25,15.97,25.7,30.75,0,14.78,0.32
dw_cut_4_n1_3f_opt_disp_struct_9.xyz,Nucleus 12H :,0.899497,0.083391,0.145497,24.66,21.11,25.1,27.77,47.64,15.67,30.95,-22.59,5.55,-3.24,21.11,25.1,27.77,0,6.66,0.2
dw_cut_4_n1_3f_opt_disp_struct_9.xyz,Nucleus 17H :,1.687597,0.892644,0.941965,24.55,21.16,25.72,26.78,44.95,27.61,31.08,-19.19,-6.38,-4.4,21.16,25.72,26.78,0,5.62,0.62
dw_cut_4_n1_3f_opt_disp_struct_9.xyz,Nucleus 18H :,1.305927,0.724076,2.246026,28.95,35.01,27.98,23.86,42.64,27.7,33.1,-0.27,-10.64,-5.67,23.86,27.98,35.01,0,11.15,-0.26
dw_cut_4_n1_3f_opt_disp_struct_9.xyz,Nucleus 23H :,1.700961,1.188622,3.041257,29.81,32.82,28.81,27.81,37.63,16.23,22.97,12.46,5.21,-5.07,27.81,28.81,32.82,0,5.01,-0.6
dw_cut_4_n1_3f_opt_disp_struct_9.xyz,Nucleus 24H :,0.275961,-0.181519,2.318621,30.34,34.38,26.24,30.4,38.95,13.81,25.74,-4.77,12.48,4.81,26.24,30.4,34.38,0,8.14,0.02
dw_cut_4_n1_3f_opt_disp_struct_9.xyz,Nucleus 25H :,-0.006175,-0.60217,1.016737,30.12,34.0,29.94,26.43,39.51,20.08,12.67,-5.56,9.83,13.84,26.43,29.94,34.0,0,7.57,-0.07
dw_cut_4_n1_3f_opt_disp_struct_9.xyz,Nucleus 0C :,-1.043454,-1.542676,0.835008,170.41,186.54,164.45,160.23,256.5,241.43,237.01,-79.37,-76.84,-67.52,160.23,164.45,186.54,0,26.31,-0.68
dw_cut_4_n1_3f_opt_disp_struct_9.xyz,Nucleus 3C :,-1.357757,-1.978581,-0.393291,61.68,148.59,53.93,-17.48,242.32,273.97,263.41,-93.76,-219.84,-281.08,-17.48,53.93,148.59,0,166.07,-0.14
dw_cut_4_n1_3f_opt_disp_struct_9.xyz,Nucleus 4C :,-1.75845,-2.034834,1.92765,58.2,-23.93,125.44,73.09,255.02,264.64,273.89,-289.98,-133.27,-195.71,-23.93,73.09,125.44,0,149.37,0.3
dw_cut_4_n1_3f_opt_disp_struct_9.xyz,Nucleus 7C :,-2.507843,-2.806705,1.797224,50.42,137.47,-4.54,18.34,261.46,269.13,274.81,-126.19,-278.73,-249.21,-4.54,18.34,137.47,0,142.01,-0.68
dw_cut_4_n1_3f_opt_disp_struct_9.xyz,Nucleus 8C :,-1.44619,-1.592725,3.205362,60.78,155.99,27.99,-1.63,237.33,265.41,268.44,-81.47,-237.92,-269.45,-1.63,27.99,155.99,0,157.62,-0.62
dw_cut_4_n1_3f_opt_disp_struct_9.xyz,Nucleus 9C :,-2.140482,-2.073283,4.246881,18.0,-54.77,78.05,30.71,234.62,266.14,264.17,-156.74,-235.13,-319.07,-54.77,30.71,78.05,0,132.82,0.29
dw_cut_4_n1_3f_opt_disp_struct_9.xyz,Nucleus 11C :,-0.429886,-0.662999,3.423444,79.18,153.38,13.93,70.24,237.45,266.51,273.33,-84.25,-255.06,-200.43,13.93,70.24,153.38,0,139.45,-0.19
dw_cut_4_n1_3f_opt_disp_struct_9.xyz,Nucleus 13C :,-0.136801,-0.241182,4.660667,25.88,87.34,17.92,-27.62,230.99,261.36,270.96,-143.75,-252.61,-289.32,-27.62,17.92,87.34,0,114.96,-0.21
dw_cut_4_n1_3f_opt_disp_struct_9.xyz,Nucleus 15C :,2.489805,1.563582,0.668482,37.91,88.61,25.1,0.03,232.35,271.07,267.27,-144.93,-244.71,-267.32,0.03,25.1,88.61,0,88.58,-0.43
dw_cut_4_n1_3f_opt_disp_struct_9.xyz,Nucleus 19C :,0.012703,0.181997,-1.812808,159.58,121.49,191.06,166.18,252.56,225.3,217.27,-96.03,-54.62,-65.75,121.49,166.18,191.06,0,69.57,0.28
dw_cut_4_n1_3f_opt_disp_struct_9.xyz,Nucleus 20C :,3.766581,-5.719185,2.557525,2.6,-85.76,67.51,26.05,203.26,257.0,265.45,-135.77,-342.86,-239.28,-85.76,26.05,67.51,0,153.27,0.46
dw_cut_4_n1_3f_opt_disp_struct_9.xyz,Nucleus 5N :,2.683225,-4.658118,2.475977,124.7,54.16,184.95,134.98,293.37,339.61,330.51,-108.71,-204.1,-276.6,54.16,134.98,184.95,0,130.79,0.24
dw_cut_4_n1_3f_opt_disp_struct_9.xyz,Nucleus 21O :,1.77424,-4.763119,3.349003,-25.5,219.31,-36.17,-259.65,425.11,406.83,396.52,-188.88,-443.61,-672.49,-259.65,-36.17,219.31,0,478.96,-0.07
dw_cut_4_n1_3f_opt_disp_struct_9.xyz,Nucleus 22O :,2.825012,-3.798174,1.562825,-29.54,212.19,-259.96,-40.85,400.82,436.36,426.0,-223.21,-671.72,-456.86,-259.96,-40.85,212.19,0,472.15,-0.07
dw_cut_4_n1_3f_opt_disp_struct_9.xyz,Nucleus 10F :,3.406586,-6.623279,2.049768,307.42,398.76,228.23,295.26,484.25,468.58,460.62,-69.44,-232.78,-188.97,228.23,295.26,398.76,0,170.53,-0.21
dw_cut_4_n1_3f_opt_disp_struct_9.xyz,Nucleus 14F :,4.693075,-5.40507,2.064386,325.9,413.26,301.51,262.93,482.35,462.19,471.91,-60.17,-178.34,-200.25,262.93,301.51,413.26,0,150.33,-0.49
dw_cut_4_n1_3f_opt_disp_struct_9.xyz,Nucleus 16F :,3.966636,-5.991675,3.598751,354.32,459.29,308.72,294.95,486.46,461.63,462.84,-3.79,-160.93,-183.25,294.95,308.72,459.29,0,164.34,-0.83
dw_cut_4_n1_4f_opt.xyz,Nucleus 1H :,0.985638,-0.02725,-1.331932,29.42,35.19,24.16,28.92,39.93,25.01,27.42,3.04,-4.96,-2.17,24.16,28.92,35.19,0,11.03,-0.14
dw_cut_4_n1_4f_opt.xyz,Nucleus 2H :,1.739031,0.65836,-1.735411,28.3,33.99,24.03,26.88,42.53,20.69,27.58,-9.71,4.73,-0.92,24.03,26.88,33.99,0,9.96,-0.43
dw_cut_4_n1_4f_opt.xyz,Nucleus 6H :,1.258612,-1.047127,-1.636604,25.66,16.9,27.01,33.08,12.47,32.76,47.12,4.94,-14.93,-5.37,16.9,27.01,33.08,0,16.18,0.25
dw_cut_4_n1_4f_opt.xyz,Nucleus 17H :,0.907904,0.092448,0.148459,25.27,21.98,26.66,27.17,44.79,27.11,29.54,-18.19,-5.32,-2.13,21.98,26.66,27.17,0,5.19,0.8
dw_cut_4_n1_4f_opt.xyz,Nucleus 18H :,1.692775,0.901329,0.948093,28.52,34.73,27.54,23.3,40.72,25.48,30.62,1.36,-8.75,-3.86,23.3,27.54,34.73,0,11.43,-0.26
dw_cut_4_n1_4f_opt.xyz,Nucleus 23H :,1.310217,0.729511,2.251245,30.02,34.27,28.66,27.13,39.11,22.87,20.74,-5.07,4.96,7.45,27.13,28.66,34.27,0,7.14,-0.57
dw_cut_4_n1_4f_opt.xyz,Nucleus 24H :,1.705441,1.191252,3.048015,30.5,25.01,35.42,31.06,40.05,15.15,28.82,-4.77,9.93,2.3,25.01,31.06,35.42,0,10.41,0.16
dw_cut_4_n1_4f_opt.xyz,Nucleus 25H :,0.281738,-0.178837,2.320283,30.08,34.89,29.59,25.75,40.85,20.92,19.63,-6.04,8.87,6.01,25.75,29.59,34.89,0,9.14,-0.16
dw_cut_4_n1_4f_opt.xyz,Nucleus 0C :,0.002467,-0.597088,1.016675,169.54,185.72,162.86,160.03,253.29,233.98,236.49,-66.65,-72.91,-75.59,160.03,162.86,185.72,0,25.69,-0.78
dw_cut_4_n1_4f_opt.xyz,Nucleus 3C :,-1.031606,-1.538886,0.829566,68.18,151.27,63.09,-9.83,239.33,262.82,270.12,-89.21,-204.8,-273.74,-9.83,63.09,151.27,0,161.1,-0.09
dw_cut_4_n1_4f_opt.xyz,Nucleus 4C :,-1.340539,-1.970511,-0.402246,66.92,-8.19,124.08,84.87,250.7,271.0,264.15,-272.39,-132.36,-180.34,-8.19,84.87,124.08,0,132.27,0.41
dw_cut_4_n1_4f_opt.xyz,Nucleus 7C :,-1.738603,-2.02646,1.929494,68.88,138.47,51.87,16.31,260.08,272.16,267.12,-125.92,-251.85,-214.94,16.31,51.87,138.47,0,122.16,-0.42
dw_cut_4_n1_4f_opt.xyz,Nucleus 8C :,-2.719,-2.922964,1.742887,58.16,159.5,19.6,-4.62,231.88,243.85,255.3,-77.0,-223.39,-256.16,-4.62,19.6,159.5,0,164.12,-0.7
dw_cut_4_n1_4f_opt.xyz,Nucleus 9C :,-1.437287,-1.593497,3.211292,43.83,101.09,0.4,29.99,230.08,262.9,258.39,-136.91,-261.9,-221.08,0.4,29.99,101.09,0,100.69,-0.41
dw_cut_4_n1_4f_opt.xyz,Nucleus 11C :,-2.127351,-2.07314,4.25676,37.65,97.34,19.17,-3.56,275.71,257.31,244.59,-149.07,-237.82,-277.77,-3.56,19.17,97.34,0,100.9,-0.55
dw_cut_4_n1_4f_opt.xyz,Nucleus 13C :,-0.423718,-0.663351,3.424981,28.19,93.87,3.23,-12.53,289.66,237.37,259.5,-144.39,-260.53,-297.03,-12.53,3.23,93.87,0,106.4,-0.7
dw_cut_4_n1_4f_opt.xyz,Nucleus 15C :,-0.129074,-0.240237,4.66132,39.69,92.94,17.84,8.3,232.05,273.48,258.61,-140.8,-257.64,-246.63,8.3,17.84,92.94,0,84.64,-0.77
dw_cut_4_n1_4f_opt.xyz,Nucleus 19C :,2.4944,1.573464,0.676369,157.43,193.7,121.74,156.86,257.76,230.29,227.27,-105.61,-59.73,-77.67,121.74,156.86,193.7,0,71.96,-0.02
dw_cut_4_n1_4f_opt.xyz,Nucleus 20C :,0.027228,0.201471,-1.812872,8.15,-91.06,103.24,12.26,210.52,263.12,271.38,-107.79,-358.92,-253.87,-91.06,12.26,103.24,0,194.3,0.06
dw_cut_4_n1_4f_opt.xyz,Nucleus 5N :,2.123007,-3.857018,2.308741,143.71,87.04,183.88,160.22,291.03,338.75,324.93,-107.18,-239.18,-177.22,87.04,160.22,183.88,0,96.84,0.51
dw_cut_4_n1_4f_opt.xyz,Nucleus 21O :,1.037328,-2.798268,2.227952,-151.16,-531.98,-86.46,164.97,436.47,405.03,402.14,-965.04,-494.79,-237.27,-531.98,-86.46,164.97,0,696.95,0.28
dw_cut_4_n1_4f_opt.xyz,Nucleus 22O :,0.126888,-2.907769,3.098906,-187.1,-578.58,-45.47,62.76,401.31,419.06,442.33,-1014.17,-460.4,-349.42,-578.58,-45.47,62.76,0,641.34,0.66
dw_cut_4_n1_4f_opt.xyz,Nucleus 10F :,1.178884,-1.935515,1.317418,379.13,453.29,359.33,324.78,486.72,456.71,465.95,-13.12,-99.3,-159.55,324.78,359.33,453.29,0,128.51,-0.46
dw_cut_4_n1_4f_opt.xyz,Nucleus 12F :,1.707587,-4.813178,1.967342,380.92,461.92,318.92,361.93,483.01,466.87,459.4,-2.47,-163.72,-100.32,318.92,361.93,461.92,0,143.0,-0.4
dw_cut_4_n1_4f_opt.xyz,Nucleus 14F :,2.991828,-3.614489,1.68793,362.33,464.09,316.32,306.57,482.05,465.27,469.19,-2.82,-153.3,-173.42,306.57,316.32,464.09,0,157.52,-0.88
dw_cut_4_n1_4f_opt.xyz,Nucleus 16F :,2.435687,-4.000801,3.348517,379.95,458.22,357.64,323.99,460.47,472.92,483.75,-9.8,-107.92,-159.56,323.99,357.64,458.22,0,134.23,-0.5
dw_cut_4_n1_4f_opt_disp_struct_0.xyz,Nucleus 1H :,0.985638,-0.02725,-1.331932,29.47,35.4,24.01,29.0,40.2,25.56,27.94,2.56,-5.37,-2.48,24.01,29.0,35.4,0,11.39,-0.12
dw_cut_4_n1_4f_opt_disp_struct_0.xyz,Nucleus 2H :,1.739031,0.65836,-1.735411,28.38,33.93,24.05,27.16,43.5,21.43,27.41,-10.8,4.3,-0.69,24.05,27.16,33.93,0,9.88,-0.37
dw_cut_4_n1_4f_opt_disp_struct_0.xyz,Nucleus 6H :,1.258612,-1.047127,-1.636604,25.16,16.64,26.49,32.35,12.13,32.64,48.08,4.97,-16.49,-5.84,16.64,26.49,32.35,0,15.71,0.25
dw_cut_4_n1_4f_opt_disp_struct_0.xyz,Nucleus 17H :,0.907904,0.092448,0.148459,25.08,21.74,26.49,27.01,44.95,27.46,30.1,-18.56,-5.93,-2.78,21.74,26.49,27.01,0,5.27,0.8
dw_cut_4_n1_4f_opt_disp_struct_0.xyz,Nucleus 18H :,1.692775,0.901329,0.948093,28.72,34.87,27.77,23.51,41.15,26.13,31.54,-9.4,0.99,-4.26,23.51,27.77,34.87,0,11.36,-0.25
dw_cut_4_n1_4f_opt_disp_struct_0.xyz,Nucleus 23H :,1.310217,0.729511,2.251245,30.07,34.2,28.74,27.27,39.09,22.37,20.15,-5.18,6.09,7.69,27.27,28.74,34.2,0,6.93,-0.58
dw_cut_4_n1_4f_opt_disp_struct_0.xyz,Nucleus 24H :,1.705441,1.191252,3.048015,30.66,25.56,35.4,31.02,15.1,39.78,28.66,10.52,-4.53,2.44,25.56,31.02,35.4,0,9.84,0.11
dw_cut_4_n1_4f_opt_disp_struct_0.xyz,Nucleus 25H :,0.281738,-0.178837,2.320283,30.22,34.82,29.65,26.18,40.78,20.49,18.57,-6.06,7.46,9.41,26.18,29.65,34.82,0,8.64,-0.2
dw_cut_4_n1_4f_opt_disp_struct_0.xyz,Nucleus 0C :,0.002467,-0.597088,1.016675,169.61,186.15,162.83,159.86,254.12,235.3,237.36,-66.59,-74.75,-76.6,159.86,162.83,186.15,0,26.29,-0.77
dw_cut_4_n1_4f_opt_disp_struct_0.xyz,Nucleus 3C :,-1.031606,-1.538886,0.829566,62.67,149.23,56.25,-17.48,239.93,262.54,270.84,-91.35,-213.03,-280.93,-17.48,56.25,149.23,0,166.71,-0.12
dw_cut_4_n1_4f_opt_disp_struct_0.xyz,Nucleus 4C :,-1.340539,-1.970511,-0.402246,63.94,-14.19,124.68,81.34,252.18,272.24,265.31,-279.7,-133.22,-184.99,-14.19,81.34,124.68,0,138.87,0.38
dw_cut_4_n1_4f_opt_disp_struct_0.xyz,Nucleus 7C :,-1.738603,-2.02646,1.929494,60.37,138.72,5.25,37.13,260.2,275.11,270.16,-128.48,-266.94,-228.93,5.25,37.13,138.72,0,133.47,-0.52
dw_cut_4_n1_4f_opt_disp_struct_0.xyz,Nucleus 8C :,-2.719,-2.922964,1.742887,52.26,160.68,9.81,-13.7,236.13,251.09,260.06,-76.98,-241.72,-271.79,-13.7,9.81,160.68,0,174.38,-0.73
dw_cut_4_n1_4f_opt_disp_struct_0.xyz,Nucleus 9C :,-1.437287,-1.593497,3.211292,34.05,87.61,21.88,-7.35,234.04,260.56,264.9,-147.83,-237.56,-271.96,-7.35,21.88,87.61,0,94.96,-0.38
dw_cut_4_n1_4f_opt_disp_struct_0.xyz,Nucleus 11C :,-2.127351,-2.07314,4.25676,35.34,95.47,17.01,-6.47,243.14,260.22,276.42,-149.06,-242.45,-282.26,-6.47,17.01,95.47,0,101.94,-0.54
dw_cut_4_n1_4f_opt_disp_struct_0.xyz,Nucleus 13C :,-0.423718,-0.663351,3.424981,27.94,94.53,3.04,-13.74,284.31,237.03,260.76,-142.6,-265.82,-289.86,-13.74,3.04,94.53,0,108.27,-0.69
dw_cut_4_n1_4f_opt_disp_struct_0.xyz,Nucleus 15C :,-0.129074,-0.240237,4.66132,37.08,90.78,16.23,4.22,232.25,275.28,260.75,-142.68,-259.3,-255.08,4.22,16.23,90.78,0,86.56,-0.72
dw_cut_4_n1_4f_opt_disp_struct_0.xyz,Nucleus 19C :,2.4944,1.573464,0.676369,158.88,122.45,193.72,160.48,257.28,230.65,226.2,-103.91,-58.52,-75.05,122.45,160.48,193.72,0,71.27,0.07
dw_cut_4_n1_4f_opt_disp_struct_0.xyz,Nucleus 20C :,0.027228,0.201471,-1.812872,6.21,-82.51,87.55,13.59,206.6,260.78,269.04,-119.39,-348.32,-250.09,-82.51,13.59,87.55,0,170.06,0.13
dw_cut_4_n1_4f_opt_disp_struct_0.xyz,Nucleus 5N :,2.288358,-4.042953,2.332974,137.48,75.99,184.34,152.1,292.53,339.94,327.12,-108.25,-252.1,-186.81,75.99,152.1,184.34,0,108.35,0.4
dw_cut_4_n1_4f_opt_disp_struct_0.xyz,Nucleus 21O :,1.20268,-2.984203,2.252184,-92.39,-392.36,-74.04,189.22,427.97,414.5,404.01,-817.29,-481.24,-225.14,-392.36,-74.04,189.22,0,581.58,0.09
dw_cut_4_n1_4f_opt_disp_struct_0.xyz,Nucleus 22O :,0.29224,-3.093703,3.123138,-131.14,-457.11,-54.23,117.91,403.07,424.96,440.91,-886.58,-469.59,-306.2,-457.11,-54.23,117.91,0,575.02,0.4
dw_cut_4_n1_4f_opt_disp_struct_0.xyz,Nucleus 10F :,1.344235,-2.121449,1.341651,359.23,450.23,306.65,320.82,486.27,458.08,466.85,-16.69,-140.69,-176.12,306.65,320.82,450.23,0,143.58,-0.8
dw_cut_4_n1_4f_opt_disp_struct_0.xyz,Nucleus 12F :,1.872938,-4.999112,1.991574,372.43,459.88,312.82,344.59,483.27,467.17,459.11,-4.5,-169.99,-117.78,312.82,344.59,459.88,0,147.06,-0.57
dw_cut_4_n1_4f_opt_disp_struct_0.xyz,Nucleus 14F :,3.157179,-3.800423,1.712162,354.66,462.08,304.84,297.05,483.09,465.42,470.07,-7.03,-165.44,-182.14,297.05,304.84,462.08,0,165.03,-0.91
dw_cut_4_n1_4f_opt_disp_struct_0.xyz,Nucleus 16F :,2.601039,-4.186735,3.37275,369.17,456.06,334.78,316.66,462.46,473.2,483.15,-15.3,-130.16,-165.85,316.66,334.78,456.06,0,139.4,-0.74
dw_cut_4_n1_4f_opt_disp_struct_1.xyz,Nucleus 1H :,0.985638,-0.02725,-1.331932,29.5,35.52,23.95,29.02,40.46,26.09,28.34,1.95,-5.84,-2.51,23.95,29.02,35.52,0,11.57,-0.12
dw_cut_4_n1_4f_opt_disp_struct_1.xyz,Nucleus 2H :,1.739031,0.65836,-1.735411,28.41,33.95,23.99,27.3,44.16,22.42,27.25,-11.48,3.47,-0.57,23.99,27.3,33.95,0,9.96,-0.33
dw_cut_4_n1_4f_opt_disp_struct_1.xyz,Nucleus 6H :,1.258612,-1.047127,-1.636604,24.86,16.44,26.22,31.93,11.88,32.37,48.92,-17.7,5.04,-5.92,16.44,26.22,31.93,0,15.49,0.26
dw_cut_4_n1_4f_opt_disp_struct_1.xyz,Nucleus 17H :,0.907904,0.092448,0.148459,24.95,21.59,26.36,26.91,45.04,27.68,30.58,-18.76,-6.23,-3.44,21.59,26.36,26.91,0,5.32,0.8
dw_cut_4_n1_4f_opt_disp_struct_1.xyz,Nucleus 18H :,1.692775,0.901329,0.948093,28.84,34.98,27.9,23.65,41.55,26.78,32.22,-9.88,0.44,-4.6,23.65,27.9,34.98,0,11.33,-0.25
dw_cut_4_n1_4f_opt_disp_struct_1.xyz,Nucleus 23H :,1.310217,0.729511,2.251245,30.04,34.04,28.8,27.29,38.99,21.65,19.45,-5.24,7.18,8.1,27.29,28.8,34.04,0,6.75,-0.55
dw_cut_4_n1_4f_opt_disp_struct_1.xyz,Nucleus 24H :,1.705441,1.191252,3.048015,30.67,35.31,25.77,30.92,39.54,14.93,28.23,-4.4,10.9,2.79,25.77,30.92,35.31,0,9.54,0.08
dw_cut_4_n1_4f_opt_disp_struct_1.xyz,Nucleus 25H :,0.281738,-0.178837,2.320283,30.24,34.68,29.66,26.37,40.59,20.04,17.3,-6.01,8.74,10.05,26.37,29.66,34.68,0,8.31,-0.21
dw_cut_4_n1_4f_opt_disp_struct_1.xyz,Nucleus 0C :,0.002467,-0.597088,1.016675,169.73,186.44,162.99,159.77,254.83,238.48,236.27,-76.57,-77.44,-66.37,159.77,162.99,186.44,0,26.67,-0.76
dw_cut_4_n1_4f_opt_disp_struct_1.xyz,Nucleus 3C :,-1.031606,-1.538886,0.829566,60.91,148.83,53.58,-19.69,240.25,262.69,272.01,-91.93,-216.98,-283.32,-19.69,53.58,148.83,0,168.52,-0.13
dw_cut_4_n1_4f_opt_disp_struct_1.xyz,Nucleus 4C :,-1.340539,-1.970511,-0.402246,62.2,-17.5,125.09,79.0,253.61,265.19,273.13,-283.45,-133.49,-188.4,-17.5,79.0,125.09,0,142.59,0.35
dw_cut_4_n1_4f_opt_disp_struct_1.xyz,Nucleus 7C :,-1.738603,-2.02646,1.929494,56.61,138.85,0.02,30.95,261.14,271.8,277.11,-130.14,-275.24,-234.85,0.02,30.95,138.85,0,138.83,-0.55
dw_cut_4_n1_4f_opt_disp_struct_1.xyz,Nucleus 8C :,-2.719,-2.922964,1.742887,53.37,160.8,11.06,-11.76,237.37,257.92,262.56,-77.2,-247.19,-273.37,-11.76,11.06,160.8,0,172.56,-0.74
dw_cut_4_n1_4f_opt_disp_struct_1.xyz,Nucleus 9C :,-1.437287,-1.593497,3.211292,29.71,84.33,18.38,-13.58,236.09,263.67,267.36,-151.8,-245.35,-280.84,-13.58,18.38,84.33,0,97.91,-0.35
dw_cut_4_n1_4f_opt_disp_struct_1.xyz,Nucleus 11C :,-2.127351,-2.07314,4.25676,34.74,94.85,16.49,-7.11,241.5,262.8,276.38,-147.82,-245.41,-283.21,-7.11,16.49,94.85,0,101.96,-0.54
dw_cut_4_n1_4f_opt_disp_struct_1.xyz,Nucleus 13C :,-0.423718,-0.663351,3.424981,29.39,94.66,5.5,-11.98,235.78,280.08,263.22,-141.36,-265.58,-283.95,-11.98,5.5,94.66,0,106.64,-0.67
dw_cut_4_n1_4f_opt_disp_struct_1.xyz,Nucleus 15C :,-0.129074,-0.240237,4.66132,36.28,90.03,16.81,2.01,232.01,275.02,262.99,-143.15,-258.19,-259.82,2.01,16.81,90.03,0,88.02,-0.66
dw_cut_4_n1_4f_opt_disp_struct_1.xyz,Nucleus 19C :,2.4944,1.573464,0.676369,159.49,122.7,193.45,162.32,256.65,229.75,224.49,-101.97,-57.34,-73.12,122.7,162.32,193.45,0,70.75,0.12
dw_cut_4_n1_4f_opt_disp_struct_1.xyz,Nucleus 20C :,0.027228,0.201471,-1.812872,4.03,-81.14,77.75,15.47,203.57,258.95,267.37,-126.02,-345.51,-246.28,-81.14,15.47,77.75,0,158.89,0.22
dw_cut_4_n1_4f_opt_disp_struct_1.xyz,Nucleus 5N :,2.45371,-4.228887,2.357206,133.7,69.29,184.48,147.32,293.14,340.63,328.72,-108.84,-260.27,-192.29,69.29,147.32,184.48,0,115.19,0.35
dw_cut_4_n1_4f_opt_disp_struct_1.xyz,Nucleus 21O :,1.368032,-3.170137,2.276416,-55.87,208.66,-63.21,-313.07,403.66,418.58,420.96,-210.11,-470.0,-730.72,-313.07,-63.21,208.66,0,521.73,-0.04
dw_cut_4_n1_4f_opt_disp_struct_1.xyz,Nucleus 22O :,0.457591,-3.279638,3.14737,-86.64,-365.3,-57.06,162.44,401.15,424.26,435.73,-783.83,-475.39,-261.85,-365.3,-57.06,162.44,0,527.74,0.17
dw_cut_4_n1_4f_opt_disp_struct_1.xyz,Nucleus 10F :,1.509587,-2.307384,1.365883,348.66,448.86,292.95,304.17,459.23,467.66,485.84,-18.73,-162.58,-185.43,292.95,304.17,448.86,0,155.91,-0.86
dw_cut_4_n1_4f_opt_disp_struct_1.xyz,Nucleus 12F :,2.03829,-5.185047,2.015806,367.03,458.26,308.81,334.02,483.38,467.54,459.14,-6.64,-174.0,-128.34,308.81,334.02,458.26,0,149.45,-0.66
dw_cut_4_n1_4f_opt_disp_struct_1.xyz,Nucleus 14F :,3.322531,-3.986358,1.736395,351.8,460.62,300.98,293.81,484.3,465.69,470.1,-10.55,-168.86,-185.28,293.81,300.98,460.62,0,166.81,-0.91
dw_cut_4_n1_4f_opt_disp_struct_1.xyz,Nucleus 16F :,2.76639,-4.37267,3.396982,362.95,454.56,322.33,311.95,463.26,473.67,483.13,-19.49,-141.98,-169.74,311.95,322.33,454.56,0,142.61,-0.85
dw_cut_4_n1_4f_opt_disp_struct_10.xyz,Nucleus 1H :,0.985638,-0.02725,-1.331932,29.35,35.41,23.75,28.88,40.59,26.67,28.78,-6.35,0.63,-2.28,23.75,28.88,35.41,0,11.66,-0.12
dw_cut_4_n1_4f_opt_disp_struct_10.xyz,Nucleus 2H :,1.739031,0.65836,-1.735411,28.41,34.34,23.82,27.08,45.0,24.36,26.31,-11.69,2.32,-1.05,23.82,27.08,34.34,0,10.52,-0.38
dw_cut_4_n1_4f_opt_disp_struct_10.xyz,Nucleus 6H :,1.258612,-1.047127,-1.636604,24.16,15.86,25.69,30.92,10.86,30.95,49.79,-19.36,5.29,-5.07,15.86,25.69,30.92,0,15.06,0.3
dw_cut_4_n1_4f_opt_disp_struct_10.xyz,Nucleus 17H :,0.907904,0.092448,0.148459,24.5,21.06,25.71,26.74,44.86,27.22,30.57,-19.09,-6.1,-3.96,21.06,25.71,26.74,0,5.68,0.64
dw_cut_4_n1_4f_opt_disp_struct_10.xyz,Nucleus 18H :,1.692775,0.901329,0.948093,28.94,34.98,28.01,23.84,42.2,27.58,32.79,-0.21,-10.09,-5.44,23.84,28.01,34.98,0,11.14,-0.25
dw_cut_4_n1_4f_opt_disp_struct_10.xyz,Nucleus 23H :,1.310217,0.729511,2.251245,29.82,32.89,29.06,27.52,15.38,22.48,37.8,12.94,6.07,-5.2,27.52,29.06,32.89,0,5.37,-0.42
dw_cut_4_n1_4f_opt_disp_struct_10.xyz,Nucleus 24H :,1.705441,1.191252,3.048015,30.38,34.53,26.19,30.41,39.3,13.37,26.07,-4.95,12.84,4.5,26.19,30.41,34.53,0,8.34,0.01
dw_cut_4_n1_4f_opt_disp_struct_10.xyz,Nucleus 25H :,0.281738,-0.178837,2.320283,30.04,33.63,29.79,26.69,39.13,20.17,13.08,-5.61,9.44,13.9,26.69,29.79,33.63,0,6.94,-0.11
dw_cut_4_n1_4f_opt_disp_struct_10.xyz,Nucleus 0C :,0.002467,-0.597088,1.016675,170.54,186.58,164.59,160.44,256.52,240.78,236.59,-78.74,-76.09,-67.45,160.44,164.59,186.58,0,26.14,-0.68
dw_cut_4_n1_4f_opt_disp_struct_10.xyz,Nucleus 3C :,-1.031606,-1.538886,0.829566,61.53,147.84,54.58,-17.83,240.04,271.6,263.23,-92.23,-216.84,-281.21,-17.83,54.58,147.84,0,165.67,-0.13
dw_cut_4_n1_4f_opt_disp_struct_10.xyz,Nucleus 4C :,-1.340539,-1.970511,-0.402246,56.87,-25.61,126.14,70.09,254.46,263.97,273.32,-291.31,-132.06,-197.76,-25.61,70.09,126.14,0,151.75,0.26
dw_cut_4_n1_4f_opt_disp_struct_10.xyz,Nucleus 7C :,-1.738603,-2.02646,1.929494,55.38,138.4,0.38,27.36,275.78,268.86,262.11,-126.14,-275.15,-239.31,0.38,27.36,138.4,0,138.02,-0.61
dw_cut_4_n1_4f_opt_disp_struct_10.xyz,Nucleus 8C :,-2.719,-2.922964,1.742887,62.11,159.41,24.76,2.16,236.6,264.19,267.16,-77.37,-239.39,-264.87,2.16,24.76,159.41,0,157.25,-0.71
dw_cut_4_n1_4f_opt_disp_struct_10.xyz,Nucleus 9C :,-1.437287,-1.593497,3.211292,28.54,82.91,19.27,-16.57,237.54,269.28,267.42,-154.9,-248.4,-285.33,-16.57,19.27,82.91,0,99.48,-0.28
dw_cut_4_n1_4f_opt_disp_struct_10.xyz,Nucleus 11C :,-2.127351,-2.07314,4.25676,36.65,94.33,19.42,-3.81,239.94,265.17,271.52,-145.81,-245.93,-274.94,-3.81,19.42,94.33,0,98.14,-0.53
dw_cut_4_n1_4f_opt_disp_struct_10.xyz,Nucleus 13C :,-0.423718,-0.663351,3.424981,35.28,94.29,14.28,-2.72,236.88,265.36,272.49,-142.71,-254.53,-271.64,-2.72,14.28,94.29,0,97.01,-0.65
dw_cut_4_n1_4f_opt_disp_struct_10.xyz,Nucleus 15C :,-0.129074,-0.240237,4.66132,37.77,89.43,21.38,2.49,231.24,271.68,264.31,-142.35,-249.75,-261.83,2.49,21.38,89.43,0,86.94,-0.57
dw_cut_4_n1_4f_opt_disp_struct_10.xyz,Nucleus 19C :,2.4944,1.573464,0.676369,159.71,122.62,191.59,164.92,252.93,227.03,219.62,-97.26,-55.24,-67.96,122.62,164.92,191.59,0,68.97,0.23
dw_cut_4_n1_4f_opt_disp_struct_10.xyz,Nucleus 20C :,0.027228,0.201471,-1.812872,2.51,-85.98,67.53,25.98,202.68,256.71,265.54,-135.16,-342.71,-239.52,-85.98,25.98,67.53,0,153.51,0.46
dw_cut_4_n1_4f_opt_disp_struct_10.xyz,Nucleus 5N :,3.941875,-5.902297,2.575297,125.64,55.07,184.68,137.16,292.18,340.35,330.16,-107.73,-201.69,-276.36,55.07,137.16,184.68,0,129.61,0.27
dw_cut_4_n1_4f_opt_disp_struct_10.xyz,Nucleus 21O :,2.856197,-4.843547,2.494507,-18.94,226.27,-30.67,-252.42,397.57,411.6,424.61,-186.94,-438.83,-664.83,-252.42,-30.67,226.27,0,478.69,-0.07
dw_cut_4_n1_4f_opt_disp_struct_10.xyz,Nucleus 22O :,1.945756,-4.953047,3.365461,-36.87,203.85,-267.6,-46.85,402.05,439.5,428.01,-235.09,-682.79,-462.29,-267.6,-46.85,203.85,0,471.45,-0.06
dw_cut_4_n1_4f_opt_disp_struct_10.xyz,Nucleus 10F :,2.997752,-3.980794,1.583974,332.15,444.76,264.63,287.07,482.29,465.77,460.14,-20.66,-201.74,-189.33,264.63,287.07,444.76,0,180.13,-0.75
dw_cut_4_n1_4f_opt_disp_struct_10.xyz,Nucleus 12F :,3.526455,-6.858457,2.233897,353.95,452.57,297.13,312.15,481.54,469.82,459.61,-17.31,-183.42,-148.38,297.13,312.15,452.57,0,155.44,-0.81
dw_cut_4_n1_4f_opt_disp_struct_10.xyz,Nucleus 14F :,4.810696,-5.659768,1.954485,348.63,456.28,299.17,290.43,462.1,481.46,472.8,-19.05,-163.66,-187.77,290.43,299.17,456.28,0,165.85,-0.89
dw_cut_4_n1_4f_opt_disp_struct_10.xyz,Nucleus 16F :,4.254555,-6.046079,3.615072,350.11,449.54,303.14,297.65,461.14,474.33,483.33,-26.36,-160.69,-181.41,297.65,303.14,449.54,0,151.89,-0.93
dw_cut_4_n1_4f_opt_disp_struct_11.xyz,Nucleus 1H :,0.985638,-0.02725,-1.331932,29.33,35.39,23.73,28.86,40.55,26.6,28.76,-6.3,0.65,-2.28,23.73,28.86,35.39,0,11.66,-0.12
dw_cut_4_n1_4f_opt_disp_struct_11.xyz,Nucleus 2H :,1.739031,0.65836,-1.735411,28.42,34.38,23.82,27.07,44.97,24.31,26.22,-11.61,2.39,-1.02,23.82,27.07,34.38,0,10.56,-0.38
dw_cut_4_n1_4f_opt_disp_struct_11.xyz,Nucleus 6H :,1.258612,-1.047127,-1.636604,24.13,15.82,25.68,30.89,10.83,30.9,49.69,-19.27,5.24,-5.01,15.82,25.68,30.89,0,15.07,0.31
dw_cut_4_n1_4f_opt_disp_struct_11.xyz,Nucleus 17H :,0.907904,0.092448,0.148459,24.48,21.02,25.68,26.73,44.79,27.17,30.52,-19.04,-6.09,-3.91,21.02,25.68,26.73,0,5.71,0.63
dw_cut_4_n1_4f_opt_disp_struct_11.xyz,Nucleus 18H :,1.692775,0.901329,0.948093,28.93,34.97,28.0,23.83,42.15,27.5,32.71,-0.14,-10.01,-5.41,23.83,28.0,34.97,0,11.14,-0.25
dw_cut_4_n1_4f_opt_disp_struct_11.xyz,Nucleus 23H :,1.310217,0.729511,2.251245,29.81,32.81,29.08,27.54,15.12,22.73,37.78,13.22,5.85,-5.26,27.54,29.08,32.81,0,5.27,-0.42
dw_cut_4_n1_4f_opt_disp_struct_11.xyz,Nucleus 24H :,1.705441,1.191252,3.048015,30.36,34.49,26.21,30.38,39.39,13.33,26.0,-5.08,12.91,4.54,26.21,30.38,34.49,0,8.28,0.01
dw_cut_4_n1_4f_opt_disp_struct_11.xyz,Nucleus 25H :,0.281738,-0.178837,2.320283,30.02,33.56,29.79,26.71,39.1,20.28,12.88,-5.64,9.34,14.11,26.71,29.79,33.56,0,6.85,-0.1
dw_cut_4_n1_4f_opt_disp_struct_11.xyz,Nucleus 0C :,0.002467,-0.597088,1.016675,170.57,186.56,164.67,160.47,256.58,240.57,236.53,-78.55,-75.89,-67.53,160.47,164.67,186.56,0,26.09,-0.68
dw_cut_4_n1_4f_opt_disp_struct_11.xyz,Nucleus 3C :,-1.031606,-1.538886,0.829566,61.56,147.79,54.6,-17.71,239.94,271.15,263.2,-92.18,-216.4,-281.05,-17.71,54.6,147.79,0,165.5,-0.13
dw_cut_4_n1_4f_opt_disp_struct_11.xyz,Nucleus 4C :,-1.340539,-1.970511,-0.402246,56.6,-25.98,126.17,69.61,254.16,264.08,273.2,-291.62,-131.96,-198.07,-25.98,69.61,126.17,0,152.15,0.26
dw_cut_4_n1_4f_opt_disp_struct_11.xyz,Nucleus 7C :,-1.738603,-2.02646,1.929494,55.48,138.35,0.64,27.45,261.81,275.12,268.89,-125.76,-274.31,-239.31,0.64,27.45,138.35,0,137.71,-0.61
dw_cut_4_n1_4f_opt_disp_struct_11.xyz,Nucleus 8C :,-2.719,-2.922964,1.742887,62.26,159.36,25.05,2.36,236.66,263.56,267.01,-77.43,-238.43,-264.6,2.36,25.05,159.36,0,157.0,-0.71
dw_cut_4_n1_4f_opt_disp_struct_11.xyz,Nucleus 9C :,-1.437287,-1.593497,3.211292,28.65,82.91,19.43,-16.39,237.35,269.03,267.15,-154.77,-248.03,-284.78,-16.39,19.43,82.91,0,99.3,-0.28
dw_cut_4_n1_4f_opt_disp_struct_11.xyz,Nucleus 11C :,-2.127351,-2.07314,4.25676,36.73,94.29,19.57,-3.67,239.89,264.95,271.13,-145.78,-245.6,-274.39,-3.67,19.57,94.29,0,97.96,-0.53
dw_cut_4_n1_4f_opt_disp_struct_11.xyz,Nucleus 13C :,-0.423718,-0.663351,3.424981,35.41,94.23,14.51,-2.5,236.98,265.13,272.09,-142.81,-254.07,-271.08,-2.5,14.51,94.23,0,96.73,-0.65
dw_cut_4_n1_4f_opt_disp_struct_11.xyz,Nucleus 15C :,-0.129074,-0.240237,4.66132,37.85,89.4,21.53,2.61,231.47,271.39,264.21,-142.54,-249.38,-261.61,2.61,21.53,89.4,0,86.79,-0.56
dw_cut_4_n1_4f_opt_disp_struct_11.xyz,Nucleus 19C :,2.4944,1.573464,0.676369,159.67,122.48,191.51,165.03,252.8,227.75,220.31,-98.13,-55.79,-67.93,122.48,165.03,191.51,0,69.03,0.23
dw_cut_4_n1_4f_opt_disp_struct_11.xyz,Nucleus 20C :,0.027228,0.201471,-1.812872,2.51,-86.21,67.46,26.29,202.35,256.31,265.76,-134.91,-342.52,-239.45,-86.21,26.29,67.46,0,153.67,0.46
dw_cut_4_n1_4f_opt_disp_struct_11.xyz,Nucleus 5N :,4.107227,-6.088232,2.599529,125.37,54.64,184.68,136.78,292.17,340.12,330.08,-107.67,-201.81,-276.8,54.64,136.78,184.68,0,130.04,0.26
dw_cut_4_n1_4f_opt_disp_struct_11.xyz,Nucleus 21O :,3.021549,-5.029482,2.518739,-18.88,227.45,-31.03,-253.07,397.26,410.83,425.41,-184.76,-439.35,-666.04,-253.07,-31.03,227.45,0,480.52,-0.08
dw_cut_4_n1_4f_opt_disp_struct_11.xyz,Nucleus 22O :,2.111108,-5.138982,3.389693,-37.54,204.37,-269.15,-47.85,402.17,441.31,428.73,-236.34,-685.76,-462.74,-269.15,-47.85,204.37,0,473.52,-0.07
dw_cut_4_n1_4f_opt_disp_struct_11.xyz,Nucleus 10F :,3.163104,-4.166728,1.608206,331.75,444.61,263.91,286.72,482.08,465.49,460.03,-20.59,-202.1,-189.67,263.91,286.72,444.61,0,180.7,-0.75
dw_cut_4_n1_4f_opt_disp_struct_11.xyz,Nucleus 12F :,3.691807,-7.044391,2.258129,353.46,452.26,296.73,311.4,481.35,469.83,459.54,-17.73,-183.62,-148.98,296.73,311.4,452.26,0,155.53,-0.81
dw_cut_4_n1_4f_opt_disp_struct_11.xyz,Nucleus 14F :,4.976048,-5.845702,1.978717,348.37,456.0,298.87,290.23,461.93,481.37,472.79,-19.28,-163.8,-187.9,290.23,298.87,456.0,0,165.77,-0.9
dw_cut_4_n1_4f_opt_disp_struct_11.xyz,Nucleus 16F :,4.419907,-6.232014,3.639305,349.68,449.29,302.63,297.12,461.04,474.51,483.09,-26.76,-161.29,-181.56,297.12,302.63,449.29,0,152.17,-0.93
dw_cut_4_n1_4f_opt_disp_struct_12.xyz,Nucleus 1H :,0.985638,-0.02725,-1.331932,29.31,35.38,23.7,28.85,40.5,26.53,28.75,-6.25,0.68,-2.28,23.7,28.85,35.38,0,11.68,-0.12
dw_cut_4_n1_4f_opt_disp_struct_12.xyz,Nucleus 2H :,1.739031,0.65836,-1.735411,28.43,34.42,23.81,27.06,44.94,24.27,26.14,-11.53,2.45,-0.98,23.81,27.06,34.42,0,10.61,-0.39
dw_cut_4_n1_4f_opt_disp_struct_12.xyz,Nucleus 6H :,1.258612,-1.047127,-1.636604,24.1,15.79,25.66,30.86,10.81,30.86,49.59,-19.17,5.21,-4.97,15.79,25.66,30.86,0,15.07,0.31
dw_cut_4_n1_4f_opt_disp_struct_12.xyz,Nucleus 17H :,0.907904,0.092448,0.148459,24.46,20.98,25.66,26.73,44.73,27.12,30.48,-18.99,-6.09,-3.87,20.98,25.66,26.73,0,5.75,0.63
dw_cut_4_n1_4f_opt_disp_struct_12.xyz,Nucleus 18H :,1.692775,0.901329,0.948093,28.93,34.95,28.0,23.83,42.1,27.43,32.64,-0.08,-9.93,-5.39,23.83,28.0,34.95,0,11.12,-0.25
dw_cut_4_n1_4f_opt_disp_struct_12.xyz,Nucleus 23H :,1.310217,0.729511,2.251245,29.8,32.75,29.09,27.56,14.81,22.94,37.76,13.55,5.66,-5.31,27.56,29.09,32.75,0,5.19,-0.41
dw_cut_4_n1_4f_opt_disp_struct_12.xyz,Nucleus 24H :,1.705441,1.191252,3.048015,30.34,34.45,26.24,30.34,39.48,13.19,25.9,-5.21,13.08,4.61,26.24,30.34,34.45,0,8.21,0.0
dw_cut_4_n1_4f_opt_disp_struct_12.xyz,Nucleus 25H :,0.281738,-0.178837,2.320283,30.01,33.5,29.8,26.73,39.06,20.35,12.64,-5.67,9.29,14.36,26.73,29.8,33.5,0,6.77,-0.09
dw_cut_4_n1_4f_opt_disp_struct_12.xyz,Nucleus 0C :,0.002467,-0.597088,1.016675,170.6,186.55,164.75,160.5,256.64,240.37,236.46,-78.38,-75.7,-67.59,160.5,164.75,186.55,0,26.05,-0.67
dw_cut_4_n1_4f_opt_disp_struct_12.xyz,Nucleus 3C :,-1.031606,-1.538886,0.829566,61.57,147.73,54.6,-17.63,239.87,270.83,263.21,-92.15,-216.08,-280.97,-17.63,54.6,147.73,0,165.36,-0.13
dw_cut_4_n1_4f_opt_disp_struct_12.xyz,Nucleus 4C :,-1.340539,-1.970511,-0.402246,56.38,-26.27,126.21,69.2,253.94,264.1,273.11,-291.85,-131.86,-198.31,-26.27,69.2,126.21,0,152.48,0.25
dw_cut_4_n1_4f_opt_disp_struct_12.xyz,Nucleus 7C :,-1.738603,-2.02646,1.929494,55.57,138.32,0.86,27.52,261.51,274.57,268.99,-125.46,-273.58,-239.34,0.86,27.52,138.32,0,137.46,-0.61
dw_cut_4_n1_4f_opt_disp_struct_12.xyz,Nucleus 8C :,-2.719,-2.922964,1.742887,62.36,159.29,25.27,2.51,236.71,263.02,266.88,-77.51,-237.68,-264.36,2.51,25.27,159.29,0,156.78,-0.71
dw_cut_4_n1_4f_opt_disp_struct_12.xyz,Nucleus 9C :,-1.437287,-1.593497,3.211292,28.73,82.9,19.55,-16.25,237.2,268.82,266.94,-154.67,-247.75,-284.33,-16.25,19.55,82.9,0,99.15,-0.28
dw_cut_4_n1_4f_opt_disp_struct_12.xyz,Nucleus 11C :,-2.127351,-2.07314,4.25676,36.8,94.27,19.7,-3.56,239.85,264.78,270.81,-145.74,-245.34,-273.95,-3.56,19.7,94.27,0,97.83,-0.52
dw_cut_4_n1_4f_opt_disp_struct_12.xyz,Nucleus 13C :,-0.423718,-0.663351,3.424981,35.51,94.2,14.67,-2.33,237.0,264.96,271.74,-142.83,-253.7,-270.63,-2.33,14.67,94.2,0,96.53,-0.65
dw_cut_4_n1_4f_opt_disp_struct_12.xyz,Nucleus 15C :,-0.129074,-0.240237,4.66132,37.92,89.38,21.67,2.7,231.67,271.13,264.14,-142.7,-249.06,-261.44,2.7,21.67,89.38,0,86.68,-0.56
dw_cut_4_n1_4f_opt_disp_struct_12.xyz,Nucleus 19C :,2.4944,1.573464,0.676369,159.64,122.36,191.44,165.13,252.7,228.17,220.71,-98.69,-56.13,-67.83,122.36,165.13,191.44,0,69.08,0.24
dw_cut_4_n1_4f_opt_disp_struct_12.xyz,Nucleus 20C :,0.027228,0.201471,-1.812872,2.48,-86.43,67.35,26.52,202.17,255.97,266.02,-134.84,-342.38,-239.49,-86.43,26.52,67.35,0,153.78,0.47
dw_cut_4_n1_4f_opt_disp_struct_12.xyz,Nucleus 5N :,4.272579,-6.274166,2.623761,125.16,54.3,184.69,136.48,292.14,339.95,329.96,-107.59,-201.91,-277.09,54.3,136.48,184.69,0,130.39,0.26
dw_cut_4_n1_4f_opt_disp_struct_12.xyz,Nucleus 21O :,3.1869,-5.215416,2.542971,-18.82,228.53,-31.35,-253.63,396.99,410.37,426.12,-183.09,-439.79,-667.06,-253.63,-31.35,228.53,0,482.16,-0.08
dw_cut_4_n1_4f_opt_disp_struct_12.xyz,Nucleus 22O :,2.27646,-5.324916,3.413926,-38.22,205.02,-270.87,-48.8,402.23,442.74,429.43,-237.06,-688.82,-463.18,-270.87,-48.8,205.02,0,475.89,-0.07
dw_cut_4_n1_4f_opt_disp_struct_12.xyz,Nucleus 10F :,3.328456,-4.352663,1.632438,331.37,444.47,263.32,286.32,481.87,465.24,459.91,-20.54,-202.42,-189.97,263.32,286.32,444.47,0,181.15,-0.75
dw_cut_4_n1_4f_opt_disp_struct_12.xyz,Nucleus 12F :,3.857159,-7.230325,2.282362,353.01,452.01,296.29,310.74,481.15,469.87,459.45,-18.08,-183.86,-149.49,296.29,310.74,452.01,0,155.72,-0.81
dw_cut_4_n1_4f_opt_disp_struct_12.xyz,Nucleus 14F :,5.141399,-6.031637,2.00295,348.12,455.79,298.58,289.98,461.76,481.23,472.86,-19.5,-163.91,-188.09,289.98,298.58,455.79,0,165.81,-0.9
dw_cut_4_n1_4f_opt_disp_struct_12.xyz,Nucleus 16F :,4.585259,-6.417948,3.663537,349.28,449.09,302.13,296.62,460.93,474.75,482.84,-27.16,-161.79,-181.73,296.62,302.13,449.09,0,152.47,-0.93
dw_cut_4_n1_4f_opt_disp_struct_13.xyz,Nucleus 1H :,0.985638,-0.02725,-1.331932,29.3,35.37,23.68,28.84,40.47,26.47,28.73,-6.21,0.69,-2.27,23.68,28.84,35.37,0,11.69,-0.12
dw_cut_4_n1_4f_opt_disp_struct_13.xyz,Nucleus 2H :,1.739031,0.65836,-1.735411,28.44,34.46,23.81,27.06,44.91,24.23,26.08,-11.45,2.51,-0.95,23.81,27.06,34.46,0,10.65,-0.39
dw_cut_4_n1_4f_opt_disp_struct_13.xyz,Nucleus 6H :,1.258612,-1.047127,-1.636604,24.09,15.76,25.65,30.85,10.78,30.83,49.5,-19.08,5.19,-4.95,15.76,25.65,30.85,0,15.09,0.31
dw_cut_4_n1_4f_opt_disp_struct_13.xyz,Nucleus 17H :,0.907904,0.092448,0.148459,24.44,20.95,25.64,26.73,44.67,27.08,30.44,-18.95,-6.08,-3.84,20.95,25.64,26.73,0,5.78,0.62
dw_cut_4_n1_4f_opt_disp_struct_13.xyz,Nucleus 18H :,1.692775,0.901329,0.948093,28.92,34.94,27.99,23.82,42.06,27.38,32.58,-0.04,-9.86,-5.36,23.82,27.99,34.94,0,11.12,-0.25
dw_cut_4_n1_4f_opt_disp_struct_13.xyz,Nucleus 23H :,1.310217,0.729511,2.251245,29.79,32.69,29.1,27.58,14.44,23.09,37.73,13.94,5.52,-5.35,27.58,29.1,32.69,0,5.11,-0.41
dw_cut_4_n1_4f_opt_disp_struct_13.xyz,Nucleus 24H :,1.705441,1.191252,3.048015,30.33,34.42,26.27,30.31,39.55,12.95,25.77,-5.31,13.34,4.71,26.27,30.31,34.42,0,8.15,-0.01
dw_cut_4_n1_4f_opt_disp_struct_13.xyz,Nucleus 25H :,0.281738,-0.178837,2.320283,30.0,33.45,29.8,26.74,39.01,20.38,12.35,-5.68,9.27,14.66,26.74,29.8,33.45,0,6.71,-0.09
dw_cut_4_n1_4f_opt_disp_struct_13.xyz,Nucleus 0C :,0.002467,-0.597088,1.016675,170.62,186.53,164.81,160.52,256.69,240.19,236.41,-78.23,-75.53,-67.65,160.52,164.81,186.53,0,26.01,-0.67
dw_cut_4_n1_4f_opt_disp_struct_13.xyz,Nucleus 3C :,-1.031606,-1.538886,0.829566,61.57,147.69,54.59,-17.57,239.82,270.61,263.23,-92.15,-215.89,-280.92,-17.57,54.59,147.69,0,165.26,-0.13
dw_cut_4_n1_4f_opt_disp_struct_13.xyz,Nucleus 4C :,-1.340539,-1.970511,-0.402246,56.19,-26.53,126.25,68.84,253.82,264.03,273.04,-292.04,-131.78,-198.52,-26.53,68.84,126.25,0,152.78,0.25
dw_cut_4_n1_4f_opt_disp_struct_13.xyz,Nucleus 7C :,-1.738603,-2.02646,1.929494,55.64,138.29,1.05,27.58,261.3,274.12,268.98,-125.21,-272.94,-239.35,1.05,27.58,138.29,0,137.24,-0.61
dw_cut_4_n1_4f_opt_disp_struct_13.xyz,Nucleus 8C :,-2.719,-2.922964,1.742887,62.44,159.23,25.45,2.63,236.75,262.65,266.8,-77.58,-237.14,-264.17,2.63,25.45,159.23,0,156.6,-0.71
dw_cut_4_n1_4f_opt_disp_struct_13.xyz,Nucleus 9C :,-1.437287,-1.593497,3.211292,28.81,82.89,19.66,-16.12,237.09,268.63,266.79,-154.59,-247.55,-283.95,-16.12,19.66,82.89,0,99.01,-0.28
dw_cut_4_n1_4f_opt_disp_struct_13.xyz,Nucleus 11C :,-2.127351,-2.07314,4.25676,36.86,94.25,19.8,-3.47,239.79,264.65,270.55,-145.7,-245.13,-273.58,-3.47,19.8,94.25,0,97.72,-0.52
dw_cut_4_n1_4f_opt_disp_struct_13.xyz,Nucleus 13C :,-0.423718,-0.663351,3.424981,35.6,94.18,14.8,-2.19,237.0,264.83,271.45,-142.84,-253.39,-270.26,-2.19,14.8,94.18,0,96.37,-0.65
dw_cut_4_n1_4f_opt_disp_struct_13.xyz,Nucleus 15C :,-0.129074,-0.240237,4.66132,37.98,89.37,21.78,2.78,231.85,270.89,264.07,-142.83,-248.77,-261.28,2.78,21.78,89.37,0,86.59,-0.56
dw_cut_4_n1_4f_opt_disp_struct_13.xyz,Nucleus 19C :,2.4944,1.573464,0.676369,159.61,122.26,191.37,165.21,252.62,220.81,228.32,-98.93,-56.33,-67.66,122.26,165.21,191.37,0,69.11,0.24
dw_cut_4_n1_4f_opt_disp_struct_13.xyz,Nucleus 20C :,0.027228,0.201471,-1.812872,2.44,-86.62,67.26,26.69,202.11,255.67,266.34,-134.87,-342.26,-239.65,-86.62,26.69,67.26,0,153.88,0.47
dw_cut_4_n1_4f_opt_disp_struct_13.xyz,Nucleus 5N :,4.43793,-6.460101,2.647993,124.98,54.02,184.69,136.23,292.11,339.82,329.82,-107.51,-202.01,-277.28,54.02,136.23,184.69,0,130.67,0.26
dw_cut_4_n1_4f_opt_disp_struct_13.xyz,Nucleus 21O :,3.352252,-5.401351,2.567204,-18.74,229.4,-31.57,-254.04,426.76,410.22,396.76,-182.02,-440.1,-667.84,-254.04,-31.57,229.4,0,483.44,-0.08
dw_cut_4_n1_4f_opt_disp_struct_13.xyz,Nucleus 22O :,2.441811,-5.510851,3.438158,-38.84,205.61,-272.5,-49.64,402.23,443.97,430.08,-237.65,-691.62,-463.54,-272.5,-49.64,205.61,0,478.11,-0.07
dw_cut_4_n1_4f_opt_disp_struct_13.xyz,Nucleus 10F :,3.493807,-4.538597,1.65667,331.04,444.34,262.82,285.96,481.66,465.03,459.81,-20.51,-202.68,-190.18,262.82,285.96,444.34,0,181.52,-0.75
dw_cut_4_n1_4f_opt_disp_struct_13.xyz,Nucleus 12F :,4.02251,-7.41626,2.306594,352.63,451.8,295.9,310.18,480.96,469.92,459.36,-18.38,-184.06,-149.91,295.9,310.18,451.8,0,155.9,-0.82
dw_cut_4_n1_4f_opt_disp_struct_13.xyz,Nucleus 14F :,5.306751,-6.217571,2.027182,347.88,455.61,298.31,289.73,461.59,481.06,472.99,-19.74,-164.0,-188.24,289.73,298.31,455.61,0,165.88,-0.9
dw_cut_4_n1_4f_opt_disp_struct_13.xyz,Nucleus 16F :,4.750611,-6.603883,3.687769,348.93,448.91,301.7,296.17,460.82,475.0,482.58,-27.56,-162.2,-181.86,296.17,301.7,448.91,0,152.74,-0.93
dw_cut_4_n1_4f_opt_disp_struct_14.xyz,Nucleus 1H :,0.985638,-0.02725,-1.331932,29.28,35.36,23.66,28.82,40.44,26.42,28.72,-6.18,0.71,-2.26,23.66,28.82,35.36,0,11.7,-0.12
dw_cut_4_n1_4f_opt_disp_struct_14.xyz,Nucleus 2H :,1.739031,0.65836,-1.735411,28.45,34.49,23.81,27.05,44.87,24.2,26.03,-11.38,2.55,-0.92,23.81,27.05,34.49,0,10.68,-0.39
dw_cut_4_n1_4f_opt_disp_struct_14.xyz,Nucleus 6H :,1.258612,-1.047127,-1.636604,24.07,15.73,25.64,30.83,10.75,30.8,49.41,-19.0,5.18,-4.93,15.73,25.64,30.83,0,15.1,0.31
dw_cut_4_n1_4f_opt_disp_struct_14.xyz,Nucleus 17H :,0.907904,0.092448,0.148459,24.42,20.92,25.62,26.73,44.62,27.04,30.41,-18.91,-6.08,-3.8,20.92,25.62,26.73,0,5.81,0.62
dw_cut_4_n1_4f_opt_disp_struct_14.xyz,Nucleus 18H :,1.692775,0.901329,0.948093,28.91,34.92,27.98,23.82,42.02,27.33,32.51,-0.0,-9.8,-5.34,23.82,27.98,34.92,0,11.1,-0.25
dw_cut_4_n1_4f_opt_disp_struct_14.xyz,Nucleus 23H :,1.310217,0.729511,2.251245,29.79,32.64,29.12,27.6,14.02,23.2,37.69,14.4,5.42,-5.37,27.6,29.12,32.64,0,5.04,-0.4
dw_cut_4_n1_4f_opt_disp_struct_14.xyz,Nucleus 24H :,1.705441,1.191252,3.048015,30.32,34.4,26.29,30.28,39.6,12.61,25.62,-5.4,13.7,4.84,26.29,30.28,34.4,0,8.11,-0.01
dw_cut_4_n1_4f_opt_disp_struct_14.xyz,Nucleus 25H :,0.281738,-0.178837,2.320283,29.99,33.41,29.8,26.76,38.95,20.36,12.01,-5.68,9.29,15.03,26.76,29.8,33.41,0,6.65,-0.09
dw_cut_4_n1_4f_opt_disp_struct_14.xyz,Nucleus 0C :,0.002467,-0.597088,1.016675,170.64,186.52,164.87,160.53,256.74,240.02,236.35,-78.11,-75.38,-67.7,160.53,164.87,186.52,0,25.99,-0.67
dw_cut_4_n1_4f_opt_disp_struct_14.xyz,Nucleus 3C :,-1.031606,-1.538886,0.829566,61.57,147.64,54.58,-17.52,239.79,270.46,263.26,-92.16,-215.76,-280.88,-17.52,54.58,147.64,0,165.16,-0.13
dw_cut_4_n1_4f_opt_disp_struct_14.xyz,Nucleus 4C :,-1.340539,-1.970511,-0.402246,56.03,-26.74,126.28,68.54,253.77,263.89,272.98,-292.18,-131.71,-198.68,-26.74,68.54,126.28,0,153.02,0.25
dw_cut_4_n1_4f_opt_disp_struct_14.xyz,Nucleus 7C :,-1.738603,-2.02646,1.929494,55.7,138.26,1.21,27.63,261.17,273.78,268.9,-125.0,-272.42,-239.33,1.21,27.63,138.26,0,137.05,-0.61
dw_cut_4_n1_4f_opt_disp_struct_14.xyz,Nucleus 8C :,-2.719,-2.922964,1.742887,62.5,159.18,25.6,2.72,236.75,262.4,266.7,-77.62,-236.75,-263.98,2.72,25.6,159.18,0,156.46,-0.71
dw_cut_4_n1_4f_opt_disp_struct_14.xyz,Nucleus 9C :,-1.437287,-1.593497,3.211292,28.87,82.88,19.75,-16.01,237.01,268.47,266.68,-154.52,-247.4,-283.62,-16.01,19.75,82.88,0,98.89,-0.28
dw_cut_4_n1_4f_opt_disp_struct_14.xyz,Nucleus 11C :,-2.127351,-2.07314,4.25676,36.91,94.23,19.88,-3.39,239.75,264.54,270.35,-145.66,-244.96,-273.28,-3.39,19.88,94.23,0,97.62,-0.52
dw_cut_4_n1_4f_opt_disp_struct_14.xyz,Nucleus 13C :,-0.423718,-0.663351,3.424981,35.67,94.16,14.91,-2.07,236.99,264.73,271.23,-142.84,-253.12,-269.99,-2.07,14.91,94.16,0,96.23,-0.65
dw_cut_4_n1_4f_opt_disp_struct_14.xyz,Nucleus 15C :,-0.129074,-0.240237,4.66132,38.02,89.35,21.88,2.84,231.98,270.7,263.99,-142.93,-248.54,-261.13,2.84,21.88,89.35,0,86.51,-0.56
dw_cut_4_n1_4f_opt_disp_struct_14.xyz,Nucleus 19C :,2.4944,1.573464,0.676369,159.59,122.19,191.31,165.27,252.55,220.59,228.21,-98.81,-56.37,-67.41,122.19,165.27,191.31,0,69.12,0.25
dw_cut_4_n1_4f_opt_disp_struct_14.xyz,Nucleus 20C :,0.027228,0.201471,-1.812872,2.41,-86.78,67.21,26.81,202.13,255.42,266.71,-134.94,-342.18,-239.89,-86.78,26.81,67.21,0,153.99,0.48
dw_cut_4_n1_4f_opt_disp_struct_14.xyz,Nucleus 5N :,4.603282,-6.646035,2.672226,124.84,53.79,184.7,136.02,292.07,339.71,329.67,-107.46,-202.11,-277.39,53.79,136.02,184.7,0,130.91,0.26
dw_cut_4_n1_4f_opt_disp_struct_14.xyz,Nucleus 21O :,3.517604,-5.587285,2.591436,-18.63,230.13,-31.7,-254.33,427.32,410.54,396.59,-181.68,-440.3,-668.38,-254.33,-31.7,230.13,0,484.46,-0.08
dw_cut_4_n1_4f_opt_disp_struct_14.xyz,Nucleus 22O :,2.607163,-5.696785,3.46239,-39.38,206.14,-273.92,-50.35,402.2,445.09,430.64,-238.2,-694.03,-463.83,-273.92,-50.35,206.14,0,480.06,-0.07
dw_cut_4_n1_4f_opt_disp_struct_14.xyz,Nucleus 10F :,3.659159,-4.724531,1.680903,330.77,444.23,262.41,285.66,481.46,464.85,459.7,-20.48,-202.89,-190.34,262.41,285.66,444.23,0,181.82,-0.74
dw_cut_4_n1_4f_opt_disp_struct_14.xyz,Nucleus 12F :,4.187862,-7.602194,2.330826,352.3,451.62,295.58,309.71,480.78,469.97,459.26,-18.64,-184.22,-150.25,295.58,309.71,451.62,0,156.04,-0.82
dw_cut_4_n1_4f_opt_disp_struct_14.xyz,Nucleus 14F :,5.472103,-6.403505,2.051414,347.67,455.44,298.06,289.52,461.43,480.87,473.15,-19.97,-164.08,-188.37,289.52,298.06,455.44,0,165.92,-0.9
dw_cut_4_n1_4f_opt_disp_struct_14.xyz,Nucleus 16F :,4.915962,-6.789817,3.712002,348.62,448.75,301.34,295.78,460.72,475.25,482.35,-27.95,-162.53,-181.95,295.78,301.34,448.75,0,152.97,-0.93
dw_cut_4_n1_4f_opt_disp_struct_15.xyz,Nucleus 1H :,0.985638,-0.02725,-1.331932,29.27,35.35,23.65,28.82,40.42,26.37,28.7,-6.15,0.72,-2.25,23.65,28.82,35.35,0,11.7,-0.12
dw_cut_4_n1_4f_opt_disp_struct_15.xyz,Nucleus 2H :,1.739031,0.65836,-1.735411,28.46,34.52,23.81,27.06,44.84,24.17,25.99,-11.31,2.59,-0.9,23.81,27.06,34.52,0,10.71,-0.39
dw_cut_4_n1_4f_opt_disp_struct_15.xyz,Nucleus 6H :,1.258612,-1.047127,-1.636604,24.05,15.7,25.64,30.82,10.72,30.77,49.32,-18.92,5.17,-4.91,15.7,25.64,30.82,0,15.12,0.32
dw_cut_4_n1_4f_opt_disp_struct_15.xyz,Nucleus 17H :,0.907904,0.092448,0.148459,24.41,20.89,25.61,26.73,44.57,27.01,30.37,-18.87,-6.08,-3.77,20.89,25.61,26.73,0,5.84,0.62
dw_cut_4_n1_4f_opt_disp_struct_15.xyz,Nucleus 18H :,1.692775,0.901329,0.948093,28.9,34.91,27.98,23.81,41.99,27.29,32.45,0.03,-9.74,-5.31,23.81,27.98,34.91,0,11.1,-0.25
dw_cut_4_n1_4f_opt_disp_struct_15.xyz,Nucleus 23H :,1.310217,0.729511,2.251245,29.78,32.6,29.12,27.61,13.52,23.26,37.65,14.92,5.36,-5.38,27.61,29.12,32.6,0,4.99,-0.4
dw_cut_4_n1_4f_opt_disp_struct_15.xyz,Nucleus 24H :,1.705441,1.191252,3.048015,30.31,34.37,26.31,30.25,39.65,12.19,25.45,-5.48,14.14,4.99,26.31,30.25,34.37,0,8.06,-0.02
dw_cut_4_n1_4f_opt_disp_struct_15.xyz,Nucleus 25H :,0.281738,-0.178837,2.320283,29.98,33.37,29.8,26.77,38.89,20.32,11.6,-5.67,9.33,15.47,26.77,29.8,33.37,0,6.6,-0.08
dw_cut_4_n1_4f_opt_disp_struct_15.xyz,Nucleus 0C :,0.002467,-0.597088,1.016675,170.66,186.5,164.92,160.55,256.77,239.88,236.3,-78.0,-75.24,-67.75,160.55,164.92,186.5,0,25.95,-0.66
dw_cut_4_n1_4f_opt_disp_struct_15.xyz,Nucleus 3C :,-1.031606,-1.538886,0.829566,61.56,147.61,54.56,-17.48,239.76,270.35,263.28,-92.17,-215.68,-280.86,-17.48,54.56,147.61,0,165.09,-0.13
dw_cut_4_n1_4f_opt_disp_struct_15.xyz,Nucleus 4C :,-1.340539,-1.970511,-0.402246,55.89,-26.92,126.31,68.28,253.77,263.7,272.92,-292.28,-131.64,-198.81,-26.92,68.28,126.31,0,153.23,0.24
dw_cut_4_n1_4f_opt_disp_struct_15.xyz,Nucleus 7C :,-1.738603,-2.02646,1.929494,55.76,138.24,1.36,27.67,261.1,273.51,268.75,-124.84,-271.99,-239.28,1.36,27.67,138.24,0,136.88,-0.62
dw_cut_4_n1_4f_opt_disp_struct_15.xyz,Nucleus 8C :,-2.719,-2.922964,1.742887,62.55,159.13,25.72,2.8,236.73,262.23,266.61,-77.64,-236.47,-263.8,2.8,25.72,159.13,0,156.33,-0.71
dw_cut_4_n1_4f_opt_disp_struct_15.xyz,Nucleus 9C :,-1.437287,-1.593497,3.211292,28.93,82.87,19.83,-15.92,236.97,268.33,266.62,-154.47,-247.3,-283.37,-15.92,19.83,82.87,0,98.79,-0.28
dw_cut_4_n1_4f_opt_disp_struct_15.xyz,Nucleus 11C :,-2.127351,-2.07314,4.25676,36.95,94.22,19.96,-3.32,239.71,264.45,270.2,-145.64,-244.82,-273.05,-3.32,19.96,94.22,0,97.54,-0.52
dw_cut_4_n1_4f_opt_disp_struct_15.xyz,Nucleus 13C :,-0.423718,-0.663351,3.424981,35.72,94.14,15.0,-1.98,236.97,264.64,271.06,-142.83,-252.9,-269.77,-1.98,15.0,94.14,0,96.12,-0.65
dw_cut_4_n1_4f_opt_disp_struct_15.xyz,Nucleus 15C :,-0.129074,-0.240237,4.66132,38.07,89.34,21.96,2.9,232.09,270.55,263.89,-143.01,-248.36,-260.98,2.9,21.96,89.34,0,86.44,-0.56
dw_cut_4_n1_4f_opt_disp_struct_15.xyz,Nucleus 19C :,2.4944,1.573464,0.676369,159.56,122.13,191.25,165.31,252.48,220.05,227.87,-98.33,-56.28,-67.1,122.13,165.31,191.25,0,69.12,0.25
dw_cut_4_n1_4f_opt_disp_struct_15.xyz,Nucleus 20C :,0.027228,0.201471,-1.812872,2.39,-86.93,67.19,26.9,202.15,255.21,267.13,-134.98,-342.13,-240.21,-86.93,26.9,67.19,0,154.12,0.48
dw_cut_4_n1_4f_opt_disp_struct_15.xyz,Nucleus 5N :,4.768634,-6.831969,2.696458,124.71,53.59,184.71,135.84,292.05,339.62,329.52,-107.42,-202.18,-277.45,53.59,135.84,184.71,0,131.12,0.25
dw_cut_4_n1_4f_opt_disp_struct_15.xyz,Nucleus 21O :,3.682955,-5.773219,2.615668,-18.51,230.74,-31.78,-254.5,396.47,411.34,427.83,-182.04,-440.43,-668.7,-254.5,-31.78,230.74,0,485.24,-0.08
dw_cut_4_n1_4f_opt_disp_struct_15.xyz,Nucleus 22O :,2.772515,-5.88272,3.486622,-39.81,206.64,-275.09,-50.97,402.13,446.27,431.09,-238.85,-695.98,-464.07,-275.09,-50.97,206.64,0,481.73,-0.07
dw_cut_4_n1_4f_opt_disp_struct_15.xyz,Nucleus 10F :,3.824511,-4.910466,1.705135,330.53,444.14,262.06,285.39,481.25,464.7,459.6,-20.46,-203.06,-190.44,262.06,285.39,444.14,0,182.08,-0.74
dw_cut_4_n1_4f_opt_disp_struct_15.xyz,Nucleus 12F :,4.353214,-7.788129,2.355058,352.02,451.46,295.29,309.31,480.6,470.03,459.17,-18.87,-184.35,-150.52,295.29,309.31,451.46,0,156.17,-0.82
dw_cut_4_n1_4f_opt_disp_struct_15.xyz,Nucleus 14F :,5.637455,-6.58944,2.075646,347.49,455.3,297.84,289.32,461.28,480.68,473.32,-20.19,-164.15,-188.48,289.32,297.84,455.3,0,165.98,-0.9
dw_cut_4_n1_4f_opt_disp_struct_15.xyz,Nucleus 16F :,5.081314,-6.975752,3.736234,348.37,448.62,301.03,295.45,460.61,475.48,482.13,-28.31,-162.79,-182.02,295.45,301.03,448.62,0,153.17,-0.93
dw_cut_4_n1_4f_opt_disp_struct_16.xyz,Nucleus 1H :,0.985638,-0.02725,-1.331932,29.26,35.34,23.63,28.81,40.4,26.33,28.67,-6.13,0.73,-2.23,23.63,28.81,35.34,0,11.71,-0.12
dw_cut_4_n1_4f_opt_disp_struct_16.xyz,Nucleus 2H :,1.739031,0.65836,-1.735411,28.47,34.55,23.81,27.06,44.8,24.16,25.95,-11.25,2.63,-0.87,23.81,27.06,34.55,0,10.74,-0.39
dw_cut_4_n1_4f_opt_disp_struct_16.xyz,Nucleus 6H :,1.258612,-1.047127,-1.636604,24.04,15.68,25.63,30.82,10.7,30.75,49.24,-18.84,5.17,-4.89,15.68,25.63,30.82,0,15.14,0.32
dw_cut_4_n1_4f_opt_disp_struct_16.xyz,Nucleus 17H :,0.907904,0.092448,0.148459,24.4,20.87,25.6,26.72,44.52,26.98,30.33,-18.84,-6.08,-3.73,20.87,25.6,26.72,0,5.85,0.62
dw_cut_4_n1_4f_opt_disp_struct_16.xyz,Nucleus 18H :,1.692775,0.901329,0.948093,28.89,34.9,27.97,23.8,41.96,27.25,32.39,0.05,-9.68,-5.29,23.8,27.97,34.9,0,11.1,-0.25
dw_cut_4_n1_4f_opt_disp_struct_16.xyz,Nucleus 23H :,1.310217,0.729511,2.251245,29.77,32.56,29.13,27.62,12.98,23.29,37.61,15.49,5.33,-5.39,27.62,29.13,32.56,0,4.94,-0.39
dw_cut_4_n1_4f_opt_disp_struct_16.xyz,Nucleus 24H :,1.705441,1.191252,3.048015,30.3,34.35,26.33,30.23,39.69,11.72,25.26,-5.55,14.63,5.16,26.33,30.23,34.35,0,8.02,-0.03
dw_cut_4_n1_4f_opt_disp_struct_16.xyz,Nucleus 25H :,0.281738,-0.178837,2.320283,29.97,33.34,29.8,26.78,38.83,20.26,11.16,-5.65,9.38,15.93,26.78,29.8,33.34,0,6.56,-0.08
dw_cut_4_n1_4f_opt_disp_struct_16.xyz,Nucleus 0C :,0.002467,-0.597088,1.016675,170.67,186.49,164.96,160.56,256.8,239.75,236.25,-77.91,-75.11,-67.78,160.56,164.96,186.49,0,25.93,-0.66
dw_cut_4_n1_4f_opt_disp_struct_16.xyz,Nucleus 3C :,-1.031606,-1.538886,0.829566,61.55,147.57,54.54,-17.45,239.75,270.26,263.3,-92.19,-215.62,-280.83,-17.45,54.54,147.57,0,165.02,-0.13
dw_cut_4_n1_4f_opt_disp_struct_16.xyz,Nucleus 4C :,-1.340539,-1.970511,-0.402246,55.77,-27.08,126.33,68.05,253.81,263.47,272.87,-292.36,-131.58,-198.91,-27.08,68.05,126.33,0,153.41,0.24
dw_cut_4_n1_4f_opt_disp_struct_16.xyz,Nucleus 7C :,-1.738603,-2.02646,1.929494,55.8,138.21,1.48,27.71,261.07,273.31,268.56,-124.7,-271.63,-239.2,1.48,27.71,138.21,0,136.73,-0.62
dw_cut_4_n1_4f_opt_disp_struct_16.xyz,Nucleus 8C :,-2.719,-2.922964,1.742887,62.6,159.09,25.83,2.87,236.7,262.13,266.51,-77.64,-236.27,-263.64,2.87,25.83,159.09,0,156.22,-0.71
dw_cut_4_n1_4f_opt_disp_struct_16.xyz,Nucleus 9C :,-1.437287,-1.593497,3.211292,28.97,82.86,19.89,-15.84,236.94,268.2,266.6,-154.43,-247.23,-283.16,-15.84,19.89,82.86,0,98.7,-0.28
dw_cut_4_n1_4f_opt_disp_struct_16.xyz,Nucleus 11C :,-2.127351,-2.07314,4.25676,36.99,94.2,20.02,-3.26,239.68,264.36,270.09,-145.61,-244.7,-272.86,-3.26,20.02,94.2,0,97.46,-0.52
dw_cut_4_n1_4f_opt_disp_struct_16.xyz,Nucleus 13C :,-0.423718,-0.663351,3.424981,35.77,94.12,15.08,-1.89,236.95,264.56,270.93,-142.83,-252.7,-269.6,-1.89,15.08,94.12,0,96.01,-0.65
dw_cut_4_n1_4f_opt_disp_struct_16.xyz,Nucleus 15C :,-0.129074,-0.240237,4.66132,38.1,89.33,22.02,2.95,232.17,270.43,263.8,-143.06,-248.21,-260.83,2.95,22.02,89.33,0,86.38,-0.56
dw_cut_4_n1_4f_opt_disp_struct_16.xyz,Nucleus 19C :,2.4944,1.573464,0.676369,159.54,122.09,191.2,165.34,252.42,219.34,227.42,-97.66,-56.11,-66.78,122.09,165.34,191.2,0,69.11,0.25
dw_cut_4_n1_4f_opt_disp_struct_16.xyz,Nucleus 20C :,0.027228,0.201471,-1.812872,2.36,-87.07,67.19,26.97,202.16,255.04,267.56,-134.99,-342.1,-240.57,-87.07,26.97,67.19,0,154.26,0.48
dw_cut_4_n1_4f_opt_disp_struct_16.xyz,Nucleus 5N :,4.933985,-7.017904,2.72069,124.61,53.43,184.71,135.69,292.04,339.54,329.38,-107.41,-202.24,-277.48,53.43,135.69,184.71,0,131.28,0.25
dw_cut_4_n1_4f_opt_disp_struct_16.xyz,Nucleus 21O :,3.848307,-5.959154,2.6399,-18.4,231.18,-31.8,-254.58,396.36,412.33,428.33,-182.83,-440.5,-668.9,-254.58,-31.8,231.18,0,485.76,-0.08
dw_cut_4_n1_4f_opt_disp_struct_16.xyz,Nucleus 22O :,2.937867,-6.068654,3.510855,-40.14,207.01,-275.97,-51.47,402.05,447.52,431.48,-239.72,-697.51,-464.25,-275.97,-51.47,207.01,0,482.98,-0.07
dw_cut_4_n1_4f_opt_disp_struct_16.xyz,Nucleus 10F :,3.989862,-5.0964,1.729367,330.33,444.06,261.77,285.16,481.06,464.57,459.51,-20.44,-203.2,-190.51,261.77,285.16,444.06,0,182.29,-0.74
dw_cut_4_n1_4f_opt_disp_struct_16.xyz,Nucleus 12F :,4.518565,-7.974063,2.379291,351.78,451.32,295.04,308.99,480.45,470.08,459.08,-19.06,-184.46,-150.74,295.04,308.99,451.32,0,156.28,-0.82
dw_cut_4_n1_4f_opt_disp_struct_16.xyz,Nucleus 14F :,5.802806,-6.775374,2.099879,347.32,455.18,297.65,289.14,461.15,480.5,473.49,-20.4,-164.2,-188.57,289.14,297.65,455.18,0,166.04,-0.9
dw_cut_4_n1_4f_opt_disp_struct_16.xyz,Nucleus 16F :,5.246666,-7.161686,3.760466,348.15,448.5,300.77,295.17,460.52,475.69,481.93,-28.64,-162.99,-182.07,295.17,300.77,448.5,0,153.33,-0.93
dw_cut_4_n1_4f_opt_disp_struct_17.xyz,Nucleus 1H :,0.985638,-0.02725,-1.331932,29.25,35.33,23.61,28.8,40.38,26.29,28.64,-6.11,0.75,-2.22,23.61,28.8,35.33,0,11.72,-0.12
dw_cut_4_n1_4f_opt_disp_struct_17.xyz,Nucleus 2H :,1.739031,0.65836,-1.735411,28.48,34.57,23.81,27.07,44.76,24.14,25.92,-11.19,2.66,-0.85,23.81,27.07,34.57,0,10.76,-0.39
dw_cut_4_n1_4f_opt_disp_struct_17.xyz,Nucleus 6H :,1.258612,-1.047127,-1.636604,24.03,15.66,25.63,30.81,10.68,30.73,49.17,-18.77,5.16,-4.86,15.66,25.63,30.81,0,15.15,0.32
dw_cut_4_n1_4f_opt_disp_struct_17.xyz,Nucleus 17H :,0.907904,0.092448,0.148459,24.39,20.85,25.59,26.72,44.48,26.96,30.3,-18.8,-6.07,-3.7,20.85,25.59,26.72,0,5.87,0.61
dw_cut_4_n1_4f_opt_disp_struct_17.xyz,Nucleus 18H :,1.692775,0.901329,0.948093,28.89,34.89,27.97,23.8,41.93,27.21,32.33,0.07,-9.62,-5.26,23.8,27.97,34.89,0,11.09,-0.25
dw_cut_4_n1_4f_opt_disp_struct_17.xyz,Nucleus 23H :,1.310217,0.729511,2.251245,29.77,32.53,29.14,27.63,12.43,23.3,37.57,16.07,5.32,-5.4,27.63,29.14,32.53,0,4.9,-0.39
dw_cut_4_n1_4f_opt_disp_struct_17.xyz,Nucleus 24H :,1.705441,1.191252,3.048015,30.3,34.34,26.35,30.2,39.72,11.23,25.08,-5.62,15.13,5.33,26.35,30.2,34.34,0,7.99,-0.04
dw_cut_4_n1_4f_opt_disp_struct_17.xyz,Nucleus 25H :,0.281738,-0.178837,2.320283,29.97,33.31,29.8,26.79,38.77,20.19,10.7,-5.64,9.45,16.42,26.79,29.8,33.31,0,6.52,-0.08
dw_cut_4_n1_4f_opt_disp_struct_17.xyz,Nucleus 0C :,0.002467,-0.597088,1.016675,170.68,186.48,165.0,160.57,256.83,239.63,236.21,-77.82,-75.0,-67.81,160.57,165.0,186.48,0,25.91,-0.66
dw_cut_4_n1_4f_opt_disp_struct_17.xyz,Nucleus 3C :,-1.031606,-1.538886,0.829566,61.54,147.54,54.52,-17.43,239.73,270.17,263.32,-92.2,-215.57,-280.81,-17.43,54.52,147.54,0,164.97,-0.13
dw_cut_4_n1_4f_opt_disp_struct_17.xyz,Nucleus 4C :,-1.340539,-1.970511,-0.402246,55.67,-27.21,126.36,67.85,253.86,263.24,272.83,-292.41,-131.52,-198.99,-27.21,67.85,126.36,0,153.57,0.24
dw_cut_4_n1_4f_opt_disp_struct_17.xyz,Nucleus 7C :,-1.738603,-2.02646,1.929494,55.84,138.2,1.59,27.74,261.05,273.14,268.38,-124.59,-271.34,-239.11,1.59,27.74,138.2,0,136.61,-0.62
dw_cut_4_n1_4f_opt_disp_struct_17.xyz,Nucleus 8C :,-2.719,-2.922964,1.742887,62.63,159.05,25.92,2.92,236.65,262.05,266.41,-77.64,-236.1,-263.49,2.92,25.92,159.05,0,156.13,-0.71
dw_cut_4_n1_4f_opt_disp_struct_17.xyz,Nucleus 9C :,-1.437287,-1.593497,3.211292,29.01,82.85,19.94,-15.77,236.94,268.08,266.6,-154.4,-247.19,-282.99,-15.77,19.94,82.85,0,98.62,-0.28
dw_cut_4_n1_4f_opt_disp_struct_17.xyz,Nucleus 11C :,-2.127351,-2.07314,4.25676,37.02,94.19,20.07,-3.21,239.66,264.29,270.01,-145.59,-244.6,-272.72,-3.21,20.07,94.19,0,97.4,-0.52
dw_cut_4_n1_4f_opt_disp_struct_17.xyz,Nucleus 13C :,-0.423718,-0.663351,3.424981,35.81,94.11,15.15,-1.82,236.93,264.49,270.84,-142.82,-252.54,-269.46,-1.82,15.15,94.11,0,95.93,-0.65
dw_cut_4_n1_4f_opt_disp_struct_17.xyz,Nucleus 15C :,-0.129074,-0.240237,4.66132,38.13,89.31,22.08,2.99,232.23,270.34,263.7,-143.11,-248.08,-260.7,2.99,22.08,89.31,0,86.32,-0.56
dw_cut_4_n1_4f_opt_disp_struct_17.xyz,Nucleus 19C :,2.4944,1.573464,0.676369,159.53,122.08,191.15,165.36,252.37,218.57,226.94,-96.92,-55.92,-66.46,122.08,165.36,191.15,0,69.07,0.25
dw_cut_4_n1_4f_opt_disp_struct_17.xyz,Nucleus 20C :,0.027228,0.201471,-1.812872,2.35,-87.18,67.21,27.03,202.14,254.89,268.0,-134.95,-342.09,-240.94,-87.18,27.03,67.21,0,154.39,0.48
dw_cut_4_n1_4f_opt_disp_struct_17.xyz,Nucleus 5N :,5.099337,-7.203838,2.744922,124.52,53.29,184.72,135.56,292.03,339.45,329.26,-107.4,-202.28,-277.49,53.29,135.56,184.72,0,131.43,0.25
dw_cut_4_n1_4f_opt_disp_struct_17.xyz,Nucleus 21O :,4.013659,-6.145088,2.664133,-18.32,231.46,-31.8,-254.61,396.27,413.39,428.86,-183.91,-440.55,-669.02,-254.61,-31.8,231.46,0,486.07,-0.08
dw_cut_4_n1_4f_opt_disp_struct_17.xyz,Nucleus 22O :,3.103218,-6.254589,3.535087,-40.4,207.23,-276.57,-51.87,401.98,448.8,431.86,-240.78,-698.71,-464.36,-276.57,-51.87,207.23,0,483.8,-0.07
dw_cut_4_n1_4f_opt_disp_struct_17.xyz,Nucleus 10F :,4.155214,-5.282335,1.753599,330.16,443.99,261.53,284.96,480.89,464.47,459.42,-20.42,-203.31,-190.56,261.53,284.96,443.99,0,182.46,-0.74
dw_cut_4_n1_4f_opt_disp_struct_17.xyz,Nucleus 12F :,4.683917,-8.159998,2.403523,351.58,451.21,294.82,308.71,480.3,470.12,459.01,-19.23,-184.54,-150.92,294.82,308.71,451.21,0,156.39,-0.82
dw_cut_4_n1_4f_opt_disp_struct_17.xyz,Nucleus 14F :,5.968158,-6.961309,2.124111,347.18,455.07,297.48,288.98,461.02,480.34,473.65,-20.58,-164.23,-188.66,288.98,297.48,455.07,0,166.09,-0.9
dw_cut_4_n1_4f_opt_disp_struct_17.xyz,Nucleus 16F :,5.412017,-7.347621,3.784698,347.95,448.4,300.54,294.92,460.42,475.87,481.76,-28.94,-163.15,-182.11,294.92,300.54,448.4,0,153.48,-0.93
dw_cut_4_n1_4f_opt_disp_struct_18.xyz,Nucleus 1H :,0.985638,-0.02725,-1.331932,29.24,35.33,23.6,28.79,40.37,26.25,28.61,-6.09,0.77,-2.2,23.6,28.79,35.33,0,11.73,-0.12
dw_cut_4_n1_4f_opt_disp_struct_18.xyz,Nucleus 2H :,1.739031,0.65836,-1.735411,28.49,34.6,23.81,27.07,44.72,24.13,25.89,-11.13,2.69,-0.81,23.81,27.07,34.6,0,10.79,-0.39
dw_cut_4_n1_4f_opt_disp_struct_18.xyz,Nucleus 6H :,1.258612,-1.047127,-1.636604,24.02,15.64,25.62,30.8,10.66,30.7,49.1,-18.7,5.16,-4.84,15.64,25.62,30.8,0,15.16,0.32
dw_cut_4_n1_4f_opt_disp_struct_18.xyz,Nucleus 17H :,0.907904,0.092448,0.148459,24.38,20.83,25.58,26.72,44.44,26.93,30.26,-18.77,-6.07,-3.66,20.83,25.58,26.72,0,5.89,0.61
dw_cut_4_n1_4f_opt_disp_struct_18.xyz,Nucleus 18H :,1.692775,0.901329,0.948093,28.88,34.88,27.96,23.79,41.89,27.17,32.28,0.09,-9.57,-5.23,23.79,27.96,34.88,0,11.09,-0.25
dw_cut_4_n1_4f_opt_disp_struct_18.xyz,Nucleus 23H :,1.310217,0.729511,2.251245,29.76,29.14,27.64,32.5,11.86,23.3,37.54,16.67,5.32,-5.41,27.64,29.14,32.5,0,4.86,-0.38
dw_cut_4_n1_4f_opt_disp_struct_18.xyz,Nucleus 24H :,1.705441,1.191252,3.048015,30.29,34.32,26.36,30.18,39.76,10.72,24.89,-5.68,15.65,5.51,26.36,30.18,34.32,0,7.96,-0.04
dw_cut_4_n1_4f_opt_disp_struct_18.xyz,Nucleus 25H :,0.281738,-0.178837,2.320283,29.96,33.28,29.79,26.8,38.72,20.11,10.23,-5.63,9.52,16.91,26.8,29.79,33.28,0,6.48,-0.08
dw_cut_4_n1_4f_opt_disp_struct_18.xyz,Nucleus 0C :,0.002467,-0.597088,1.016675,170.69,186.47,165.03,160.57,256.85,239.51,236.17,-77.73,-74.9,-67.83,160.57,165.03,186.47,0,25.9,-0.66
dw_cut_4_n1_4f_opt_disp_struct_18.xyz,Nucleus 3C :,-1.031606,-1.538886,0.829566,61.53,147.51,54.5,-17.41,239.72,270.09,263.33,-92.22,-215.53,-280.8,-17.41,54.5,147.51,0,164.92,-0.13
dw_cut_4_n1_4f_opt_disp_struct_18.xyz,Nucleus 4C :,-1.340539,-1.970511,-0.402246,55.57,-27.33,126.37,67.68,253.92,263.01,272.78,-292.45,-131.47,-199.06,-27.33,67.68,126.37,0,153.7,0.24
dw_cut_4_n1_4f_opt_disp_struct_18.xyz,Nucleus 7C :,-1.738603,-2.02646,1.929494,55.88,138.18,1.68,27.77,261.04,273.0,268.19,-124.49,-271.08,-239.02,1.68,27.77,138.18,0,136.5,-0.62
dw_cut_4_n1_4f_opt_disp_struct_18.xyz,Nucleus 8C :,-2.719,-2.922964,1.742887,62.65,159.01,25.99,2.96,236.61,262.0,266.32,-77.63,-235.98,-263.35,2.96,25.99,159.01,0,156.05,-0.7
dw_cut_4_n1_4f_opt_disp_struct_18.xyz,Nucleus 9C :,-1.437287,-1.593497,3.211292,29.04,82.85,19.98,-15.71,236.94,267.97,266.61,-154.39,-247.16,-282.86,-15.71,19.98,82.85,0,98.56,-0.28
dw_cut_4_n1_4f_opt_disp_struct_18.xyz,Nucleus 11C :,-2.127351,-2.07314,4.25676,37.04,94.18,20.11,-3.16,239.64,264.22,269.96,-145.57,-244.52,-272.6,-3.16,20.11,94.18,0,97.34,-0.52
dw_cut_4_n1_4f_opt_disp_struct_18.xyz,Nucleus 13C :,-0.423718,-0.663351,3.424981,35.85,94.1,15.2,-1.76,236.91,264.43,270.76,-142.82,-252.4,-269.34,-1.76,15.2,94.1,0,95.86,-0.65
dw_cut_4_n1_4f_opt_disp_struct_18.xyz,Nucleus 15C :,-0.129074,-0.240237,4.66132,38.15,89.3,22.12,3.03,232.29,270.26,263.61,-143.15,-247.98,-260.57,3.03,22.12,89.3,0,86.27,-0.56
dw_cut_4_n1_4f_opt_disp_struct_18.xyz,Nucleus 19C :,2.4944,1.573464,0.676369,159.51,122.07,191.1,165.37,252.33,217.74,226.41,-96.09,-55.68,-66.17,122.07,165.37,191.1,0,69.03,0.25
dw_cut_4_n1_4f_opt_disp_struct_18.xyz,Nucleus 20C :,0.027228,0.201471,-1.812872,2.34,-87.29,67.22,27.08,202.09,254.77,268.44,-134.88,-342.08,-241.32,-87.29,27.08,67.22,0,154.51,0.48
dw_cut_4_n1_4f_opt_disp_struct_18.xyz,Nucleus 5N :,5.264689,-7.389773,2.769155,124.45,53.17,184.72,135.46,292.04,339.38,329.14,-107.4,-202.31,-277.48,53.17,135.46,184.72,0,131.55,0.25
dw_cut_4_n1_4f_opt_disp_struct_18.xyz,Nucleus 21O :,4.17901,-6.331023,2.688365,-18.24,231.66,-31.79,-254.6,396.19,414.5,429.41,-185.15,-440.57,-669.1,-254.6,-31.79,231.66,0,486.26,-0.08
dw_cut_4_n1_4f_opt_disp_struct_18.xyz,Nucleus 22O :,3.26857,-6.440523,3.559319,-40.6,207.4,-277.01,-52.2,401.91,450.14,432.22,-241.96,-699.68,-464.44,-277.01,-52.2,207.4,0,484.41,-0.07
dw_cut_4_n1_4f_opt_disp_struct_18.xyz,Nucleus 10F :,4.320566,-5.468269,1.777832,330.01,443.93,261.33,284.78,480.73,464.38,459.33,-20.4,-203.4,-190.6,261.33,284.78,443.93,0,182.6,-0.74
dw_cut_4_n1_4f_opt_disp_struct_18.xyz,Nucleus 12F :,4.849269,-8.345932,2.427755,351.4,451.1,294.63,308.48,480.17,470.16,458.93,-19.37,-184.62,-151.07,294.63,308.48,451.1,0,156.47,-0.82
dw_cut_4_n1_4f_opt_disp_struct_18.xyz,Nucleus 14F :,6.13351,-7.147243,2.148343,347.05,454.97,297.33,288.84,460.9,480.18,473.8,-20.75,-164.26,-188.73,288.84,297.33,454.97,0,166.13,-0.9
dw_cut_4_n1_4f_opt_disp_struct_18.xyz,Nucleus 16F :,5.577369,-7.533555,3.808931,347.78,448.3,300.34,294.71,460.34,476.04,481.59,-29.2,-163.28,-182.14,294.71,300.34,448.3,0,153.59,-0.93
dw_cut_4_n1_4f_opt_disp_struct_19.xyz,Nucleus 1H :,0.985638,-0.02725,-1.331932,29.23,35.32,23.58,28.78,40.36,26.22,28.57,-6.07,0.8,-2.18,23.58,28.78,35.32,0,11.74,-0.11
dw_cut_4_n1_4f_opt_disp_struct_19.xyz,Nucleus 2H :,1.739031,0.65836,-1.735411,28.5,34.62,23.81,27.08,44.69,24.11,25.86,-11.09,2.72,-0.78,23.81,27.08,34.62,0,10.81,-0.39
dw_cut_4_n1_4f_opt_disp_struct_19.xyz,Nucleus 6H :,1.258612,-1.047127,-1.636604,24.01,15.62,25.62,30.8,10.64,30.68,49.03,-18.64,5.15,-4.82,15.62,25.62,30.8,0,15.18,0.32
dw_cut_4_n1_4f_opt_disp_struct_19.xyz,Nucleus 17H :,0.907904,0.092448,0.148459,24.37,20.81,25.58,26.72,44.41,26.91,30.22,-18.74,-6.07,-3.62,20.81,25.58,26.72,0,5.91,0.61
dw_cut_4_n1_4f_opt_disp_struct_19.xyz,Nucleus 18H :,1.692775,0.901329,0.948093,28.87,34.88,27.95,23.78,41.87,27.13,32.23,0.12,-9.53,-5.2,23.78,27.95,34.88,0,11.1,-0.25
dw_cut_4_n1_4f_opt_disp_struct_19.xyz,Nucleus 23H :,1.310217,0.729511,2.251245,29.75,29.14,27.64,32.47,11.28,23.29,37.52,17.27,5.33,-5.43,27.64,29.14,32.47,0,4.83,-0.38
dw_cut_4_n1_4f_opt_disp_struct_19.xyz,Nucleus 24H :,1.705441,1.191252,3.048015,30.28,34.31,26.37,30.15,39.8,10.21,24.71,-5.75,16.18,5.68,26.37,30.15,34.31,0,7.94,-0.05
dw_cut_4_n1_4f_opt_disp_struct_19.xyz,Nucleus 25H :,0.281738,-0.178837,2.320283,29.95,33.26,29.79,26.8,38.67,20.03,9.75,-5.62,9.6,17.42,26.8,29.79,33.26,0,6.46,-0.07
dw_cut_4_n1_4f_opt_disp_struct_19.xyz,Nucleus 0C :,0.002467,-0.597088,1.016675,170.7,186.46,165.06,160.58,256.86,239.41,236.13,-77.65,-74.81,-67.85,160.58,165.06,186.46,0,25.88,-0.65
dw_cut_4_n1_4f_opt_disp_struct_19.xyz,Nucleus 3C :,-1.031606,-1.538886,0.829566,61.52,147.49,54.48,-17.4,239.71,270.02,263.35,-92.23,-215.49,-280.78,-17.4,54.48,147.49,0,164.89,-0.13
dw_cut_4_n1_4f_opt_disp_struct_19.xyz,Nucleus 4C :,-1.340539,-1.970511,-0.402246,55.49,-27.43,126.39,67.52,253.98,262.77,272.73,-292.47,-131.42,-199.11,-27.43,67.52,126.39,0,153.82,0.23
dw_cut_4_n1_4f_opt_disp_struct_19.xyz,Nucleus 7C :,-1.738603,-2.02646,1.929494,55.9,138.16,1.76,27.79,261.04,272.88,268.0,-124.4,-270.87,-238.94,1.76,27.79,138.16,0,136.4,-0.62
dw_cut_4_n1_4f_opt_disp_struct_19.xyz,Nucleus 8C :,-2.719,-2.922964,1.742887,62.68,158.98,26.06,3.0,236.57,261.97,266.23,-77.63,-235.88,-263.23,3.0,26.06,158.98,0,155.98,-0.7
dw_cut_4_n1_4f_opt_disp_struct_19.xyz,Nucleus 9C :,-1.437287,-1.593497,3.211292,29.06,82.84,20.01,-15.66,236.94,267.87,266.64,-154.37,-247.14,-282.74,-15.66,20.01,82.84,0,98.5,-0.28
dw_cut_4_n1_4f_opt_disp_struct_19.xyz,Nucleus 11C :,-2.127351,-2.07314,4.25676,37.07,94.17,20.15,-3.12,239.63,264.15,269.91,-145.55,-244.44,-272.5,-3.12,20.15,94.17,0,97.29,-0.52
dw_cut_4_n1_4f_opt_disp_struct_19.xyz,Nucleus 13C :,-0.423718,-0.663351,3.424981,35.88,94.09,15.25,-1.7,236.9,264.37,270.69,-142.81,-252.27,-269.24,-1.7,15.25,94.09,0,95.79,-0.65
dw_cut_4_n1_4f_opt_disp_struct_19.xyz,Nucleus 15C :,-0.129074,-0.240237,4.66132,38.17,89.3,22.16,3.06,232.33,270.2,263.52,-143.18,-247.89,-260.45,3.06,22.16,89.3,0,86.24,-0.56
dw_cut_4_n1_4f_opt_disp_struct_19.xyz,Nucleus 19C :,2.4944,1.573464,0.676369,159.5,122.06,191.06,165.37,252.29,216.88,225.89,-95.25,-55.43,-65.89,122.06,165.37,191.06,0,69.0,0.26
dw_cut_4_n1_4f_opt_disp_struct_19.xyz,Nucleus 20C :,0.027228,0.201471,-1.812872,2.32,-87.39,67.24,27.12,202.0,254.66,268.88,-134.79,-342.08,-241.7,-87.39,27.12,67.24,0,154.63,0.48
dw_cut_4_n1_4f_opt_disp_struct_19.xyz,Nucleus 5N :,5.43004,-7.575707,2.793387,124.39,53.07,184.73,135.37,292.05,339.3,329.03,-107.41,-202.33,-277.47,53.07,135.37,184.73,0,131.66,0.25
dw_cut_4_n1_4f_opt_disp_struct_19.xyz,Nucleus 21O :,4.344362,-6.516957,2.712597,-18.18,231.8,-31.77,-254.57,396.12,415.56,430.0,-186.45,-440.59,-669.17,-254.57,-31.77,231.8,0,486.37,-0.08
dw_cut_4_n1_4f_opt_disp_struct_19.xyz,Nucleus 22O :,3.433922,-6.626457,3.583552,-40.76,207.52,-277.32,-52.47,401.85,451.51,432.56,-243.21,-700.5,-464.49,-277.32,-52.47,207.52,0,484.84,-0.07
dw_cut_4_n1_4f_opt_disp_struct_19.xyz,Nucleus 10F :,4.485918,-5.654204,1.802064,329.88,443.88,261.15,284.62,480.58,464.3,459.25,-20.38,-203.47,-190.63,261.15,284.62,443.88,0,182.73,-0.74
dw_cut_4_n1_4f_opt_disp_struct_19.xyz,Nucleus 12F :,5.014621,-8.531867,2.451987,351.25,451.01,294.46,308.28,480.04,470.19,458.87,-19.49,-184.68,-151.19,294.46,308.28,451.01,0,156.55,-0.82
dw_cut_4_n1_4f_opt_disp_struct_19.xyz,Nucleus 14F :,6.298861,-7.333178,2.172576,346.94,454.89,297.2,288.72,460.79,480.04,473.93,-20.89,-164.27,-188.79,288.72,297.2,454.89,0,166.17,-0.9
dw_cut_4_n1_4f_opt_disp_struct_19.xyz,Nucleus 16F :,5.742721,-7.719489,3.833163,347.64,448.22,300.16,294.53,460.25,476.18,481.45,-29.43,-163.38,-182.16,294.53,300.16,448.22,0,153.69,-0.93
dw_cut_4_n1_4f_opt_disp_struct_2.xyz,Nucleus 1H :,0.985638,-0.02725,-1.331932,29.5,35.56,23.92,29.01,40.66,26.5,28.62,-6.22,1.41,-2.49,23.92,29.01,35.56,0,11.64,-0.13
dw_cut_4_n1_4f_opt_disp_struct_2.xyz,Nucleus 2H :,1.739031,0.65836,-1.735411,28.42,33.98,23.94,27.35,44.59,23.34,27.11,-11.88,2.72,-0.62,23.94,27.35,33.98,0,10.04,-0.32
dw_cut_4_n1_4f_opt_disp_struct_2.xyz,Nucleus 6H :,1.258612,-1.047127,-1.636604,24.68,16.31,26.06,31.67,11.67,32.09,49.52,-18.56,5.18,-5.85,16.31,26.06,31.67,0,15.36,0.27
dw_cut_4_n1_4f_opt_disp_struct_2.xyz,Nucleus 17H :,0.907904,0.092448,0.148459,24.86,21.49,26.25,26.84,45.12,27.77,30.89,-18.94,-6.32,-3.94,21.49,26.25,26.84,0,5.35,0.78
dw_cut_4_n1_4f_opt_disp_struct_2.xyz,Nucleus 18H :,1.692775,0.901329,0.948093,28.91,35.04,27.96,23.73,41.9,27.3,32.7,-10.23,-0.01,-4.93,23.73,27.96,35.04,0,11.31,-0.25
dw_cut_4_n1_4f_opt_disp_struct_2.xyz,Nucleus 23H :,1.310217,0.729511,2.251245,30.0,33.86,28.85,27.3,38.8,21.19,18.84,-5.23,7.6,8.81,27.3,28.85,33.86,0,6.56,-0.53
dw_cut_4_n1_4f_opt_disp_struct_2.xyz,Nucleus 24H :,1.705441,1.191252,3.048015,30.63,35.18,25.88,30.82,39.32,14.7,27.78,-4.32,11.23,3.16,25.88,30.82,35.18,0,9.3,0.06
dw_cut_4_n1_4f_opt_disp_struct_2.xyz,Nucleus 25H :,0.281738,-0.178837,2.320283,30.22,34.52,29.67,26.47,40.34,19.71,16.36,-5.91,9.48,10.69,26.47,29.67,34.52,0,8.05,-0.2
dw_cut_4_n1_4f_opt_disp_struct_2.xyz,Nucleus 0C :,0.002467,-0.597088,1.016675,169.87,186.61,163.22,159.79,255.37,239.63,236.75,-66.24,-77.87,-78.02,159.79,163.22,186.61,0,26.82,-0.74
dw_cut_4_n1_4f_opt_disp_struct_2.xyz,Nucleus 3C :,-1.031606,-1.538886,0.829566,60.58,148.67,53.01,-19.94,240.44,263.03,273.25,-92.16,-218.89,-283.93,-19.94,53.01,148.67,0,168.61,-0.13
dw_cut_4_n1_4f_opt_disp_struct_2.xyz,Nucleus 4C :,-1.340539,-1.970511,-0.402246,61.07,-19.45,125.34,77.33,254.74,264.5,273.77,-285.51,-133.4,-190.89,-19.45,77.33,125.34,0,144.79,0.34
dw_cut_4_n1_4f_opt_disp_struct_2.xyz,Nucleus 7C :,-1.738603,-2.02646,1.929494,55.16,138.86,-1.84,28.45,261.76,272.96,278.67,-131.1,-279.03,-237.8,-1.84,28.45,138.86,0,140.7,-0.57
dw_cut_4_n1_4f_opt_disp_struct_2.xyz,Nucleus 8C :,-2.719,-2.922964,1.742887,55.8,160.64,14.61,-7.85,237.45,262.88,264.43,-77.29,-248.29,-271.78,-7.85,14.61,160.64,0,168.49,-0.73
dw_cut_4_n1_4f_opt_disp_struct_2.xyz,Nucleus 9C :,-1.437287,-1.593497,3.211292,28.06,83.39,17.43,-16.63,237.0,266.58,269.61,-153.73,-249.16,-286.11,-16.63,17.43,83.39,0,100.02,-0.32
dw_cut_4_n1_4f_opt_disp_struct_2.xyz,Nucleus 11C :,-2.127351,-2.07314,4.25676,34.86,94.66,16.68,-6.77,240.12,264.86,276.06,-146.61,-247.18,-282.68,-6.77,16.68,94.66,0,101.43,-0.54
dw_cut_4_n1_4f_opt_disp_struct_2.xyz,Nucleus 13C :,-0.423718,-0.663351,3.424981,31.01,94.7,7.92,-9.59,234.91,277.03,265.09,-140.65,-263.5,-279.85,-9.59,7.92,94.7,0,104.29,-0.66
dw_cut_4_n1_4f_opt_disp_struct_2.xyz,Nucleus 15C :,-0.129074,-0.240237,4.66132,36.24,89.76,17.67,1.28,231.38,274.16,264.93,-142.95,-256.38,-262.43,1.28,17.67,89.76,0,88.48,-0.63
dw_cut_4_n1_4f_opt_disp_struct_2.xyz,Nucleus 19C :,2.4944,1.573464,0.676369,159.71,122.78,193.13,163.22,256.0,228.48,222.88,-100.27,-56.32,-71.64,122.78,163.22,193.13,0,70.35,0.15
dw_cut_4_n1_4f_opt_disp_struct_2.xyz,Nucleus 20C :,0.027228,0.201471,-1.812872,2.85,-81.49,72.49,17.56,202.48,258.08,266.04,-130.1,-344.6,-243.34,-81.49,17.56,72.49,0,153.98,0.29
dw_cut_4_n1_4f_opt_disp_struct_2.xyz,Nucleus 5N :,2.619062,-4.414822,2.381438,131.4,65.16,184.53,144.52,292.94,341.12,329.6,-108.79,-195.49,-265.18,65.16,144.52,184.53,0,119.37,0.33
dw_cut_4_n1_4f_opt_disp_struct_2.xyz,Nucleus 21O :,1.533383,-3.356072,2.300649,-35.5,218.67,-50.06,-275.11,402.87,414.88,418.61,-198.17,-455.93,-688.76,-275.11,-50.06,218.67,0,493.78,-0.09
dw_cut_4_n1_4f_opt_disp_struct_2.xyz,Nucleus 22O :,0.622943,-3.465572,3.171603,-59.16,-312.24,-52.56,187.32,399.28,421.56,431.13,-722.35,-472.96,-234.15,-312.24,-52.56,187.32,0,499.56,0.04
dw_cut_4_n1_4f_opt_disp_struct_2.xyz,Nucleus 10F :,1.674939,-2.493318,1.390115,342.92,447.85,283.28,297.63,460.03,468.09,485.41,-20.1,-174.01,-190.67,283.28,297.63,447.85,0,164.57,-0.83
dw_cut_4_n1_4f_opt_disp_struct_2.xyz,Nucleus 12F :,2.203642,-5.370981,2.040039,363.56,457.0,306.06,327.62,483.29,468.14,459.33,-8.94,-176.56,-134.59,306.06,327.62,457.0,0,150.94,-0.71
dw_cut_4_n1_4f_opt_disp_struct_2.xyz,Nucleus 14F :,3.487883,-4.172292,1.760627,350.9,459.66,300.03,293.0,484.54,465.77,470.0,-13.23,-168.24,-186.14,293.0,300.03,459.66,0,166.66,-0.92
dw_cut_4_n1_4f_opt_disp_struct_2.xyz,Nucleus 16F :,2.931742,-4.558604,3.421214,359.21,453.37,315.77,308.5,463.07,474.27,483.45,-22.38,-148.2,-172.57,308.5,315.77,453.37,0,144.87,-0.9
dw_cut_4_n1_4f_opt_disp_struct_3.xyz,Nucleus 1H :,0.985638,-0.02725,-1.331932,29.48,35.56,23.89,28.99,40.77,26.74,28.8,-6.46,1.06,-2.47,23.89,28.99,35.56,0,11.67,-0.13
dw_cut_4_n1_4f_opt_disp_struct_3.xyz,Nucleus 2H :,1.739031,0.65836,-1.735411,28.41,34.02,23.89,27.33,44.86,23.96,26.98,-12.08,2.28,-0.75,23.89,27.33,34.02,0,10.13,-0.32
dw_cut_4_n1_4f_opt_disp_struct_3.xyz,Nucleus 6H :,1.258612,-1.047127,-1.636604,24.56,16.21,25.97,31.49,11.46,31.86,49.86,-19.08,5.33,-5.75,16.21,25.97,31.49,0,15.28,0.28
dw_cut_4_n1_4f_opt_disp_struct_3.xyz,Nucleus 17H :,0.907904,0.092448,0.148459,24.79,21.41,26.15,26.8,45.18,27.76,31.01,-19.1,-6.31,-4.19,21.41,26.15,26.8,0,5.39,0.76
dw_cut_4_n1_4f_opt_disp_struct_3.xyz,Nucleus 18H :,1.692775,0.901329,0.948093,28.95,35.07,27.99,23.78,42.16,27.63,33.01,-0.28,-10.46,-5.21,23.78,27.99,35.07,0,11.29,-0.26
dw_cut_4_n1_4f_opt_disp_struct_3.xyz,Nucleus 23H :,1.310217,0.729511,2.251245,29.96,33.7,28.88,27.31,38.58,21.03,18.34,-5.17,7.59,9.52,27.31,28.88,33.7,0,6.39,-0.51
dw_cut_4_n1_4f_opt_disp_struct_3.xyz,Nucleus 24H :,1.705441,1.191252,3.048015,30.57,35.06,25.92,30.74,39.14,14.41,27.39,-4.27,11.55,3.5,25.92,30.74,35.06,0,9.14,0.06
dw_cut_4_n1_4f_opt_disp_struct_3.xyz,Nucleus 25H :,0.281738,-0.178837,2.320283,30.2,34.38,29.69,26.52,40.08,19.56,15.71,-5.79,9.8,11.22,26.52,29.69,34.38,0,7.86,-0.19
dw_cut_4_n1_4f_opt_disp_struct_3.xyz,Nucleus 0C :,0.002467,-0.597088,1.016675,170.01,186.68,163.45,159.89,255.75,240.47,236.93,-66.3,-78.77,-78.06,159.89,163.45,186.68,0,26.79,-0.73
dw_cut_4_n1_4f_opt_disp_struct_3.xyz,Nucleus 3C :,-1.031606,-1.538886,0.829566,60.7,148.51,53.22,-19.64,240.73,263.37,274.3,-92.53,-219.81,-283.98,-19.64,53.22,148.51,0,168.15,-0.13
dw_cut_4_n1_4f_opt_disp_struct_3.xyz,Nucleus 4C :,-1.340539,-1.970511,-0.402246,60.22,-20.84,125.52,75.97,255.53,263.79,274.13,-286.89,-133.19,-192.72,-20.84,75.97,125.52,0,146.36,0.32
dw_cut_4_n1_4f_opt_disp_struct_3.xyz,Nucleus 7C :,-1.738603,-2.02646,1.929494,54.72,138.8,-2.16,27.52,261.55,274.09,279.31,-131.17,-280.21,-239.42,-2.16,27.52,138.8,0,140.96,-0.58
dw_cut_4_n1_4f_opt_disp_struct_3.xyz,Nucleus 8C :,-2.719,-2.922964,1.742887,57.9,160.42,17.79,-4.5,237.39,266.54,264.73,-77.39,-247.65,-269.9,-4.5,17.79,160.42,0,164.92,-0.73
dw_cut_4_n1_4f_opt_disp_struct_3.xyz,Nucleus 9C :,-1.437287,-1.593497,3.211292,27.62,83.11,17.43,-17.67,237.5,268.31,270.83,-154.64,-250.79,-288.34,-17.67,17.43,83.11,0,100.78,-0.3
dw_cut_4_n1_4f_opt_disp_struct_3.xyz,Nucleus 11C :,-2.127351,-2.07314,4.25676,35.19,94.56,17.17,-6.15,239.41,266.07,275.57,-145.92,-247.96,-281.61,-6.15,17.17,94.56,0,100.71,-0.54
dw_cut_4_n1_4f_opt_disp_struct_3.xyz,Nucleus 13C :,-0.423718,-0.663351,3.424981,32.25,94.65,9.67,-7.57,234.48,266.18,275.24,-140.41,-261.31,-277.42,-7.57,9.67,94.65,0,102.22,-0.66
dw_cut_4_n1_4f_opt_disp_struct_3.xyz,Nucleus 15C :,-0.129074,-0.240237,4.66132,36.47,89.63,18.53,1.25,230.76,273.51,265.98,-142.51,-254.69,-263.63,1.25,18.53,89.63,0,88.38,-0.61
dw_cut_4_n1_4f_opt_disp_struct_3.xyz,Nucleus 19C :,2.4944,1.573464,0.676369,159.86,122.94,192.85,163.79,255.37,227.32,221.55,-98.75,-55.38,-70.52,122.94,163.79,192.85,0,69.91,0.17
dw_cut_4_n1_4f_opt_disp_struct_3.xyz,Nucleus 20C :,0.027228,0.201471,-1.812872,2.44,-82.23,70.02,19.53,202.92,258.05,264.95,-132.95,-344.12,-241.52,-82.23,19.53,70.02,0,152.25,0.34
dw_cut_4_n1_4f_opt_disp_struct_3.xyz,Nucleus 5N :,2.784413,-4.600756,2.405671,129.89,62.44,184.56,142.67,292.36,341.48,329.97,-108.39,-197.57,-268.18,62.44,142.67,184.56,0,122.12,0.31
dw_cut_4_n1_4f_opt_disp_struct_3.xyz,Nucleus 21O :,1.698735,-3.542006,2.324881,-25.52,222.74,-40.1,-259.21,401.74,411.75,417.39,-190.81,-445.36,-671.27,-259.21,-40.1,222.74,0,481.95,-0.09
dw_cut_4_n1_4f_opt_disp_struct_3.xyz,Nucleus 22O :,0.788295,-3.651506,3.195835,-44.87,198.22,-285.52,-47.32,398.92,420.08,428.41,-221.89,-692.21,-467.92,-285.52,-47.32,198.22,0,483.74,-0.02
dw_cut_4_n1_4f_opt_disp_struct_3.xyz,Nucleus 10F :,1.840291,-2.679253,1.414348,339.71,447.15,277.52,294.46,460.45,468.09,484.96,-20.79,-179.73,-193.85,277.52,294.46,447.15,0,169.63,-0.8
dw_cut_4_n1_4f_opt_disp_struct_3.xyz,Nucleus 12F :,2.368994,-5.556916,2.064271,361.22,456.03,304.07,323.55,483.06,468.78,459.53,-11.08,-178.25,-138.4,304.07,323.55,456.03,0,151.96,-0.74
dw_cut_4_n1_4f_opt_disp_struct_3.xyz,Nucleus 14F :,3.653234,-4.358227,1.784859,350.67,458.93,300.21,292.87,484.0,465.04,470.75,-15.24,-166.34,-186.18,292.87,300.21,458.93,0,166.06,-0.91
dw_cut_4_n1_4f_opt_disp_struct_3.xyz,Nucleus 16F :,3.097094,-4.744538,3.445446,356.89,452.51,312.23,305.93,462.61,474.57,483.78,-23.94,-151.59,-174.76,305.93,312.23,452.51,0,146.58,-0.91
dw_cut_4_n1_4f_opt_disp_struct_4.xyz,Nucleus 1H :,0.985638,-0.02725,-1.331932,29.47,35.55,23.87,28.98,40.82,26.86,28.88,-6.58,0.84,-2.43,23.87,28.98,35.55,0,11.68,-0.13
dw_cut_4_n1_4f_opt_disp_struct_4.xyz,Nucleus 2H :,1.739031,0.65836,-1.735411,28.41,34.06,23.87,27.29,45.01,24.27,26.86,-12.15,2.11,-0.88,23.87,27.29,34.06,0,10.19,-0.33
dw_cut_4_n1_4f_opt_disp_struct_4.xyz,Nucleus 6H :,1.258612,-1.047127,-1.636604,24.46,16.14,25.9,31.34,11.26,31.68,50.01,-19.36,5.46,-5.66,16.14,25.9,31.34,0,15.2,0.28
dw_cut_4_n1_4f_opt_disp_struct_4.xyz,Nucleus 17H :,0.907904,0.092448,0.148459,24.73,21.34,26.06,26.78,45.2,27.7,31.0,-19.2,-6.26,-4.27,21.34,26.06,26.78,0,5.44,0.73
dw_cut_4_n1_4f_opt_disp_struct_4.xyz,Nucleus 18H :,1.692775,0.901329,0.948093,28.97,35.08,28.01,23.81,42.31,27.79,33.15,-0.4,-10.56,-5.41,23.81,28.01,35.08,0,11.27,-0.26
dw_cut_4_n1_4f_opt_disp_struct_4.xyz,Nucleus 23H :,1.310217,0.729511,2.251245,29.94,33.55,28.92,27.34,38.36,21.08,17.87,-5.09,7.44,10.15,27.34,28.92,33.55,0,6.21,-0.49
dw_cut_4_n1_4f_opt_disp_struct_4.xyz,Nucleus 24H :,1.705441,1.191252,3.048015,30.53,34.95,25.96,30.68,39.02,14.11,27.05,-4.26,11.89,3.78,25.96,30.68,34.95,0,8.99,0.05
dw_cut_4_n1_4f_opt_disp_struct_4.xyz,Nucleus 25H :,0.281738,-0.178837,2.320283,30.16,34.23,29.71,26.55,39.84,19.52,15.23,-5.68,9.91,11.68,26.55,29.71,34.23,0,7.68,-0.18
dw_cut_4_n1_4f_opt_disp_struct_4.xyz,Nucleus 0C :,0.002467,-0.597088,1.016675,170.13,186.7,163.68,160.01,256.0,240.96,236.95,-66.46,-79.14,-77.92,160.01,163.68,186.7,0,26.69,-0.72
dw_cut_4_n1_4f_opt_disp_struct_4.xyz,Nucleus 3C :,-1.031606,-1.538886,0.829566,60.9,148.38,53.57,-19.24,240.98,263.61,274.79,-92.82,-220.11,-283.74,-19.24,53.57,148.38,0,167.62,-0.13
dw_cut_4_n1_4f_opt_disp_struct_4.xyz,Nucleus 4C :,-1.340539,-1.970511,-0.402246,59.52,-21.89,125.67,74.79,256.0,263.26,274.25,-287.91,-132.99,-194.03,-21.89,74.79,125.67,0,147.56,0.31
dw_cut_4_n1_4f_opt_disp_struct_4.xyz,Nucleus 7C :,-1.738603,-2.02646,1.929494,54.66,138.75,-1.91,27.15,261.28,274.28,279.28,-130.57,-280.11,-240.18,-1.91,27.15,138.75,0,140.66,-0.59
dw_cut_4_n1_4f_opt_disp_struct_4.xyz,Nucleus 8C :,-2.719,-2.922964,1.742887,59.36,160.19,20.06,-2.17,237.19,267.69,265.62,-77.42,-246.6,-268.41,-2.17,20.06,160.19,0,162.36,-0.73
dw_cut_4_n1_4f_opt_disp_struct_4.xyz,Nucleus 9C :,-1.437287,-1.593497,3.211292,27.61,83.01,17.7,-17.87,237.9,268.98,271.08,-155.09,-251.2,-288.85,-17.87,17.7,83.01,0,100.88,-0.29
dw_cut_4_n1_4f_opt_disp_struct_4.xyz,Nucleus 11C :,-2.127351,-2.07314,4.25676,35.54,94.53,17.65,-5.57,239.27,266.55,274.91,-145.63,-248.14,-280.34,-5.57,17.65,94.53,0,100.1,-0.54
dw_cut_4_n1_4f_opt_disp_struct_4.xyz,Nucleus 13C :,-0.423718,-0.663351,3.424981,33.19,94.62,11.03,-6.08,234.49,266.7,274.36,-140.53,-259.53,-275.91,-6.08,11.03,94.62,0,100.7,-0.66
dw_cut_4_n1_4f_opt_disp_struct_4.xyz,Nucleus 15C :,-0.129074,-0.240237,4.66132,36.75,89.6,19.23,1.41,230.43,273.12,266.16,-142.11,-253.43,-263.93,1.41,19.23,89.6,0,88.19,-0.6
dw_cut_4_n1_4f_opt_disp_struct_4.xyz,Nucleus 19C :,2.4944,1.573464,0.676369,159.9,123.0,192.58,164.12,254.82,226.32,220.4,-97.55,-54.63,-69.66,123.0,164.12,192.58,0,69.58,0.18
dw_cut_4_n1_4f_opt_disp_struct_4.xyz,Nucleus 20C :,0.027228,0.201471,-1.812872,2.3,-83.05,68.76,21.2,203.52,258.36,264.25,-134.79,-343.81,-240.62,-83.05,21.2,68.76,0,151.81,0.37
dw_cut_4_n1_4f_opt_disp_struct_4.xyz,Nucleus 5N :,2.949765,-4.786691,2.429903,128.79,60.44,184.6,141.33,291.89,341.68,330.1,-108.03,-199.01,-270.26,60.44,141.33,184.6,0,124.16,0.3
dw_cut_4_n1_4f_opt_disp_struct_4.xyz,Nucleus 21O :,1.864087,-3.727941,2.349113,-21.0,223.79,-33.92,-252.86,400.69,410.29,417.79,-188.18,-439.34,-664.23,-252.86,-33.92,223.79,0,476.65,-0.08
dw_cut_4_n1_4f_opt_disp_struct_4.xyz,Nucleus 22O :,0.953646,-3.837441,3.220067,-37.87,202.67,-272.59,-43.7,399.57,421.07,427.21,-218.65,-679.21,-463.62,-272.59,-43.7,202.67,0,475.26,-0.04
dw_cut_4_n1_4f_opt_disp_struct_4.xyz,Nucleus 10F :,2.005642,-2.865187,1.43858,337.54,446.56,273.73,292.33,460.58,467.8,484.44,-21.09,-182.92,-196.19,273.73,292.33,446.56,0,172.83,-0.78
dw_cut_4_n1_4f_opt_disp_struct_4.xyz,Nucleus 12F :,2.534345,-5.74285,2.088503,359.44,455.3,302.41,320.62,482.77,469.33,459.65,-12.82,-179.56,-141.03,302.41,320.62,455.3,0,152.89,-0.76
dw_cut_4_n1_4f_opt_disp_struct_4.xyz,Nucleus 14F :,3.818586,-4.544161,1.809091,350.46,458.44,300.34,292.59,483.2,464.08,471.81,-16.58,-164.89,-186.24,292.59,300.34,458.44,0,165.85,-0.91
dw_cut_4_n1_4f_opt_disp_struct_4.xyz,Nucleus 16F :,3.262445,-4.930473,3.469679,355.17,451.85,309.83,303.82,462.17,474.62,483.94,-24.67,-153.89,-176.67,303.82,309.83,451.85,0,148.03,-0.92
dw_cut_4_n1_4f_opt_disp_struct_5.xyz,Nucleus 1H :,0.985638,-0.02725,-1.331932,29.45,35.53,23.85,28.96,40.82,26.9,28.89,-6.6,0.72,-2.39,23.85,28.96,35.53,0,11.68,-0.13
dw_cut_4_n1_4f_opt_disp_struct_5.xyz,Nucleus 2H :,1.739031,0.65836,-1.735411,28.4,34.1,23.85,27.25,45.06,24.4,26.76,-12.12,2.06,-0.98,23.85,27.25,34.1,0,10.25,-0.34
dw_cut_4_n1_4f_opt_disp_struct_5.xyz,Nucleus 6H :,1.258612,-1.047127,-1.636604,24.38,16.08,25.85,31.22,11.11,31.52,50.05,-19.5,5.53,-5.56,16.08,25.85,31.22,0,15.14,0.29
dw_cut_4_n1_4f_opt_disp_struct_5.xyz,Nucleus 17H :,0.907904,0.092448,0.148459,24.68,21.29,25.98,26.76,45.18,27.61,30.92,-19.25,-6.19,-4.25,21.29,25.98,26.76,0,5.47,0.71
dw_cut_4_n1_4f_opt_disp_struct_5.xyz,Nucleus 18H :,1.692775,0.901329,0.948093,28.97,35.07,28.02,23.82,42.38,27.85,33.17,-0.44,-10.54,-5.51,23.82,28.02,35.07,0,11.25,-0.25
dw_cut_4_n1_4f_opt_disp_struct_5.xyz,Nucleus 23H :,1.310217,0.729511,2.251245,29.91,33.41,28.96,27.37,38.16,21.23,17.38,-5.02,10.75,7.24,27.37,28.96,33.41,0,6.04,-0.47
dw_cut_4_n1_4f_opt_disp_struct_5.xyz,Nucleus 24H :,1.705441,1.191252,3.048015,30.5,34.85,26.01,30.63,38.96,13.83,26.75,-4.3,12.22,4.04,26.01,30.63,34.85,0,8.84,0.04
dw_cut_4_n1_4f_opt_disp_struct_5.xyz,Nucleus 25H :,0.281738,-0.178837,2.320283,30.14,34.11,29.73,26.58,39.62,19.54,14.78,-5.59,9.93,12.13,26.58,29.73,34.11,0,7.53,-0.16
dw_cut_4_n1_4f_opt_disp_struct_5.xyz,Nucleus 0C :,0.002467,-0.597088,1.016675,170.23,186.69,163.89,160.12,256.16,241.2,236.92,-79.3,-77.62,-66.66,160.12,163.89,186.69,0,26.57,-0.72
dw_cut_4_n1_4f_opt_disp_struct_5.xyz,Nucleus 3C :,-1.031606,-1.538886,0.829566,61.1,148.26,53.9,-18.86,241.01,274.71,263.69,-92.9,-219.94,-283.27,-18.86,53.9,148.26,0,167.12,-0.13
dw_cut_4_n1_4f_opt_disp_struct_5.xyz,Nucleus 4C :,-1.340539,-1.970511,-0.402246,58.91,-22.78,125.78,73.74,256.17,262.97,274.19,-288.74,-132.81,-195.03,-22.78,73.74,125.78,0,148.56,0.3
dw_cut_4_n1_4f_opt_disp_struct_5.xyz,Nucleus 7C :,-1.738603,-2.02646,1.929494,54.76,138.68,-1.47,27.06,261.46,273.3,278.91,-129.72,-279.47,-240.22,-1.47,27.06,138.68,0,140.15,-0.59
dw_cut_4_n1_4f_opt_disp_struct_5.xyz,Nucleus 8C :,-2.719,-2.922964,1.742887,60.34,160.01,21.63,-0.61,236.88,268.16,265.98,-77.28,-245.43,-267.29,-0.61,21.63,160.01,0,160.62,-0.72
dw_cut_4_n1_4f_opt_disp_struct_5.xyz,Nucleus 9C :,-1.437287,-1.593497,3.211292,27.77,82.98,18.04,-17.72,238.13,269.06,270.87,-155.25,-250.97,-288.53,-17.72,18.04,82.98,0,100.7,-0.29
dw_cut_4_n1_4f_opt_disp_struct_5.xyz,Nucleus 11C :,-2.127351,-2.07314,4.25676,35.84,94.49,18.1,-5.07,239.39,266.57,274.21,-145.6,-247.94,-279.13,-5.07,18.1,94.49,0,99.56,-0.53
dw_cut_4_n1_4f_opt_disp_struct_5.xyz,Nucleus 13C :,-0.423718,-0.663351,3.424981,33.86,94.54,12.04,-5.01,234.87,266.78,273.95,-140.97,-258.16,-274.88,-5.01,12.04,94.54,0,99.55,-0.66
dw_cut_4_n1_4f_opt_disp_struct_5.xyz,Nucleus 15C :,-0.129074,-0.240237,4.66132,37.0,89.56,19.81,1.64,230.38,272.86,265.87,-141.92,-252.5,-263.69,1.64,19.81,89.56,0,87.92,-0.59
dw_cut_4_n1_4f_opt_disp_struct_5.xyz,Nucleus 19C :,2.4944,1.573464,0.676369,159.89,122.99,192.34,164.33,254.34,225.46,219.35,-96.52,-54.02,-68.96,122.99,164.33,192.34,0,69.35,0.19
dw_cut_4_n1_4f_opt_disp_struct_5.xyz,Nucleus 20C :,0.027228,0.201471,-1.812872,2.31,-83.77,68.16,22.54,203.77,258.51,264.1,-135.64,-343.57,-240.25,-83.77,22.54,68.16,0,151.93,0.4
dw_cut_4_n1_4f_opt_disp_struct_5.xyz,Nucleus 5N :,3.115117,-4.972625,2.454135,127.94,58.93,184.62,140.26,291.71,341.7,330.17,-107.88,-200.04,-271.86,58.93,140.26,184.62,0,125.69,0.29
dw_cut_4_n1_4f_opt_disp_struct_5.xyz,Nucleus 21O :,2.029439,-3.913875,2.373345,-19.19,223.91,-30.86,-250.61,399.83,410.16,418.88,-187.95,-436.83,-661.65,-250.61,-30.86,223.91,0,474.52,-0.07
dw_cut_4_n1_4f_opt_disp_struct_5.xyz,Nucleus 22O :,1.118998,-4.023375,3.2443,-35.08,204.06,-266.98,-42.33,400.39,423.37,427.08,-219.89,-674.92,-461.28,-266.98,-42.33,204.06,0,471.04,-0.05
dw_cut_4_n1_4f_opt_disp_struct_5.xyz,Nucleus 10F :,2.170994,-3.051121,1.462812,336.05,446.12,271.09,290.94,483.92,467.43,460.57,-21.11,-197.82,-184.84,271.09,290.94,446.12,0,175.03,-0.77
dw_cut_4_n1_4f_opt_disp_struct_5.xyz,Nucleus 12F :,2.699697,-5.928784,2.112736,358.06,454.66,301.12,318.41,482.49,469.7,459.69,-14.2,-180.52,-142.98,301.12,318.41,454.66,0,153.54,-0.77
dw_cut_4_n1_4f_opt_disp_struct_5.xyz,Nucleus 14F :,3.983938,-4.730096,1.833324,350.21,457.96,300.36,292.3,482.49,463.35,472.61,-17.54,-163.97,-186.31,292.3,300.36,457.96,0,165.66,-0.9
dw_cut_4_n1_4f_opt_disp_struct_5.xyz,Nucleus 16F :,3.427797,-5.116407,3.493911,353.88,451.3,308.09,302.24,461.83,474.55,483.97,-25.04,-155.6,-178.08,302.24,308.09,451.3,0,149.06,-0.92
dw_cut_4_n1_4f_opt_disp_struct_6.xyz,Nucleus 1H :,0.985638,-0.02725,-1.331932,29.43,35.5,23.84,28.94,40.79,26.89,28.87,-6.58,0.65,-2.35,23.84,28.94,35.5,0,11.66,-0.13
dw_cut_4_n1_4f_opt_disp_struct_6.xyz,Nucleus 2H :,1.739031,0.65836,-1.735411,28.4,34.15,23.84,27.2,45.07,24.45,26.67,-12.04,2.09,-1.05,23.84,27.2,34.15,0,10.31,-0.35
dw_cut_4_n1_4f_opt_disp_struct_6.xyz,Nucleus 6H :,1.258612,-1.047127,-1.636604,24.32,16.03,25.82,31.12,11.01,31.38,50.05,-19.56,5.54,-5.45,16.03,25.82,31.12,0,15.09,0.3
dw_cut_4_n1_4f_opt_disp_struct_6.xyz,Nucleus 17H :,0.907904,0.092448,0.148459,24.63,21.24,25.9,26.75,45.13,27.51,30.83,-19.26,-6.13,-4.19,21.24,25.9,26.75,0,5.51,0.69
dw_cut_4_n1_4f_opt_disp_struct_6.xyz,Nucleus 18H :,1.692775,0.901329,0.948093,28.97,35.05,28.02,23.83,42.39,27.85,33.12,-0.45,-10.46,-5.54,23.83,28.02,35.05,0,11.22,-0.25
dw_cut_4_n1_4f_opt_disp_struct_6.xyz,Nucleus 23H :,1.310217,0.729511,2.251245,29.89,33.28,28.98,27.41,38.02,21.42,16.87,-5.0,11.33,7.04,27.41,28.98,33.28,0,5.87,-0.47
dw_cut_4_n1_4f_opt_disp_struct_6.xyz,Nucleus 24H :,1.705441,1.191252,3.048015,30.47,34.77,26.05,30.58,38.96,13.6,26.5,-4.39,12.48,4.25,26.05,30.58,34.77,0,8.72,0.04
dw_cut_4_n1_4f_opt_disp_struct_6.xyz,Nucleus 25H :,0.281738,-0.178837,2.320283,30.12,33.99,29.75,26.61,39.44,19.6,14.33,-5.53,9.9,12.61,26.61,29.75,33.99,0,7.38,-0.15
dw_cut_4_n1_4f_opt_disp_struct_6.xyz,Nucleus 0C :,0.002467,-0.597088,1.016675,170.32,186.68,164.08,160.21,256.26,241.28,236.87,-79.32,-77.25,-66.88,160.21,164.08,186.68,0,26.47,-0.71
dw_cut_4_n1_4f_opt_disp_struct_6.xyz,Nucleus 3C :,-1.031606,-1.538886,0.829566,61.27,148.18,54.16,-18.53,240.86,274.24,263.64,-92.78,-219.47,-282.68,-18.53,54.16,148.18,0,166.71,-0.13
dw_cut_4_n1_4f_opt_disp_struct_6.xyz,Nucleus 4C :,-1.340539,-1.970511,-0.402246,58.37,-23.56,125.86,72.8,256.07,262.96,274.04,-289.47,-132.68,-195.82,-23.56,72.8,125.86,0,149.42,0.29
dw_cut_4_n1_4f_opt_disp_struct_6.xyz,Nucleus 7C :,-1.738603,-2.02646,1.929494,54.89,138.61,-1.02,27.08,261.87,271.8,278.43,-128.81,-278.68,-239.94,-1.02,27.08,138.61,0,139.63,-0.6
dw_cut_4_n1_4f_opt_disp_struct_6.xyz,Nucleus 8C :,-2.719,-2.922964,1.742887,61.02,159.9,22.73,0.42,236.64,268.24,265.96,-77.14,-244.18,-266.47,0.42,22.73,159.9,0,159.48,-0.72
dw_cut_4_n1_4f_opt_disp_struct_6.xyz,Nucleus 9C :,-1.437287,-1.593497,3.211292,27.96,82.97,18.37,-17.47,238.18,268.85,270.53,-155.26,-250.48,-287.95,-17.47,18.37,82.97,0,100.44,-0.29
dw_cut_4_n1_4f_opt_disp_struct_6.xyz,Nucleus 11C :,-2.127351,-2.07314,4.25676,36.08,94.44,18.48,-4.69,239.61,266.36,273.57,-145.69,-247.56,-278.05,-4.69,18.48,94.44,0,99.13,-0.53
dw_cut_4_n1_4f_opt_disp_struct_6.xyz,Nucleus 13C :,-0.423718,-0.663351,3.424981,34.33,94.45,12.77,-4.24,235.35,266.64,273.73,-141.49,-257.13,-274.13,-4.24,12.77,94.45,0,98.69,-0.66
dw_cut_4_n1_4f_opt_disp_struct_6.xyz,Nucleus 15C :,-0.129074,-0.240237,4.66132,37.21,89.52,20.26,1.85,230.47,272.65,265.44,-141.88,-251.78,-263.26,1.85,20.26,89.52,0,87.67,-0.58
dw_cut_4_n1_4f_opt_disp_struct_6.xyz,Nucleus 19C :,2.4944,1.573464,0.676369,159.83,122.9,192.14,164.46,253.93,224.91,218.53,-95.79,-53.64,-68.44,122.9,164.46,192.14,0,69.24,0.2
dw_cut_4_n1_4f_opt_disp_struct_6.xyz,Nucleus 20C :,0.027228,0.201471,-1.812872,2.41,-84.35,67.97,23.6,203.84,258.35,264.36,-135.9,-343.35,-240.1,-84.35,23.6,67.97,0,152.32,0.42
dw_cut_4_n1_4f_opt_disp_struct_6.xyz,Nucleus 5N :,3.280468,-5.158559,2.478367,127.22,57.71,184.61,139.35,291.77,341.56,330.21,-107.89,-200.78,-273.2,57.71,139.35,184.61,0,126.9,0.29
dw_cut_4_n1_4f_opt_disp_struct_6.xyz,Nucleus 21O :,2.19479,-4.099809,2.397578,-18.6,224.01,-29.69,-250.11,399.18,410.76,420.15,-188.57,-436.27,-661.03,-250.11,-29.69,224.01,0,474.12,-0.07
dw_cut_4_n1_4f_opt_disp_struct_6.xyz,Nucleus 22O :,1.28435,-4.20931,3.268532,-34.38,204.13,-264.87,-42.41,401.01,428.29,425.34,-222.96,-674.39,-460.45,-264.87,-42.41,204.13,0,469.0,-0.05
dw_cut_4_n1_4f_opt_disp_struct_6.xyz,Nucleus 10F :,2.336346,-3.237056,1.487044,334.96,445.77,269.12,289.99,483.47,467.05,460.52,-21.01,-199.0,-186.15,269.12,289.99,445.77,0,176.65,-0.76
dw_cut_4_n1_4f_opt_disp_struct_6.xyz,Nucleus 12F :,2.865049,-6.114719,2.136968,356.95,454.05,300.14,316.66,482.26,469.9,459.69,-15.26,-181.22,-144.52,300.14,316.66,454.05,0,153.91,-0.79
dw_cut_4_n1_4f_opt_disp_struct_6.xyz,Nucleus 14F :,4.149289,-4.91603,1.857556,349.91,457.5,300.24,291.99,462.87,481.99,473.03,-18.18,-163.53,-186.45,291.99,300.24,457.5,0,165.51,-0.9
dw_cut_4_n1_4f_opt_disp_struct_6.xyz,Nucleus 16F :,3.593149,-5.302342,3.518143,352.87,450.81,306.76,301.03,461.61,474.41,483.93,-25.31,-156.98,-179.06,301.03,306.76,450.81,0,149.78,-0.92
dw_cut_4_n1_4f_opt_disp_struct_7.xyz,Nucleus 1H :,0.985638,-0.02725,-1.331932,29.4,35.47,23.82,28.92,40.75,26.86,28.84,-6.53,0.61,-2.32,23.82,28.92,35.47,0,11.65,-0.12
dw_cut_4_n1_4f_opt_disp_struct_7.xyz,Nucleus 2H :,1.739031,0.65836,-1.735411,28.4,34.2,23.83,27.16,45.06,24.45,26.59,-11.95,2.13,-1.09,23.83,27.16,34.2,0,10.37,-0.36
dw_cut_4_n1_4f_opt_disp_struct_7.xyz,Nucleus 6H :,1.258612,-1.047127,-1.636604,24.27,15.99,25.78,31.05,10.95,31.25,50.01,-19.56,5.5,-5.34,15.99,25.78,31.05,0,15.06,0.3
dw_cut_4_n1_4f_opt_disp_struct_7.xyz,Nucleus 17H :,0.907904,0.092448,0.148459,24.59,21.19,25.84,26.74,45.08,27.42,30.75,-19.24,-6.11,-4.13,21.19,25.84,26.74,0,5.55,0.68
dw_cut_4_n1_4f_opt_disp_struct_7.xyz,Nucleus 18H :,1.692775,0.901329,0.948093,28.97,35.04,28.02,23.84,42.36,27.81,33.04,-0.41,-10.37,-5.53,23.84,28.02,35.04,0,11.2,-0.25
dw_cut_4_n1_4f_opt_disp_struct_7.xyz,Nucleus 23H :,1.310217,0.729511,2.251245,29.87,33.17,29.01,27.44,37.92,21.65,16.38,11.87,6.82,-5.02,27.44,29.01,33.17,0,5.73,-0.45
dw_cut_4_n1_4f_opt_disp_struct_7.xyz,Nucleus 24H :,1.705441,1.191252,3.048015,30.44,34.7,26.09,30.53,39.0,13.44,26.31,-4.5,12.67,4.4,26.09,30.53,34.7,0,8.61,0.03
dw_cut_4_n1_4f_opt_disp_struct_7.xyz,Nucleus 25H :,0.281738,-0.178837,2.320283,30.1,33.89,29.76,26.64,39.31,19.7,13.9,-5.51,9.82,13.06,26.64,29.76,33.89,0,7.25,-0.14
dw_cut_4_n1_4f_opt_disp_struct_7.xyz,Nucleus 0C :,0.002467,-0.597088,1.016675,170.39,186.66,164.23,160.28,256.33,241.26,236.81,-79.26,-76.9,-67.07,160.28,164.23,186.66,0,26.38,-0.7
dw_cut_4_n1_4f_opt_disp_struct_7.xyz,Nucleus 3C :,-1.031606,-1.538886,0.829566,61.38,148.08,54.34,-18.28,240.62,273.58,263.53,-92.61,-218.82,-282.16,-18.28,54.34,148.08,0,166.36,-0.13
dw_cut_4_n1_4f_opt_disp_struct_7.xyz,Nucleus 4C :,-1.340539,-1.970511,-0.402246,57.9,-24.21,125.94,71.98,255.75,263.16,273.84,-290.05,-132.52,-196.46,-24.21,71.98,125.94,0,150.15,0.28
dw_cut_4_n1_4f_opt_disp_struct_7.xyz,Nucleus 7C :,-1.738603,-2.02646,1.929494,55.03,138.55,-0.6,27.15,277.88,270.37,262.28,-127.96,-277.82,-239.63,-0.6,27.15,138.55,0,139.15,-0.6
dw_cut_4_n1_4f_opt_disp_struct_7.xyz,Nucleus 8C :,-2.719,-2.922964,1.742887,61.45,159.76,23.49,1.1,236.5,268.09,265.76,-77.09,-242.97,-265.94,1.1,23.49,159.76,0,158.66,-0.72
dw_cut_4_n1_4f_opt_disp_struct_7.xyz,Nucleus 9C :,-1.437287,-1.593497,3.211292,28.14,82.95,18.66,-17.2,238.1,268.51,270.18,-155.2,-249.92,-287.26,-17.2,18.66,82.95,0,100.15,-0.28
dw_cut_4_n1_4f_opt_disp_struct_7.xyz,Nucleus 11C :,-2.127351,-2.07314,4.25676,36.27,94.4,18.79,-4.38,239.78,266.06,272.99,-145.76,-247.14,-277.11,-4.38,18.79,94.4,0,98.78,-0.53
dw_cut_4_n1_4f_opt_disp_struct_7.xyz,Nucleus 13C :,-0.423718,-0.663351,3.424981,34.68,94.39,13.32,-3.68,235.88,266.35,273.52,-141.96,-256.29,-273.46,-3.68,13.32,94.39,0,98.07,-0.65
dw_cut_4_n1_4f_opt_disp_struct_7.xyz,Nucleus 15C :,-0.129074,-0.240237,4.66132,37.39,89.49,20.63,2.05,230.61,272.45,265.03,-141.93,-251.18,-262.82,2.05,20.63,89.49,0,87.44,-0.58
dw_cut_4_n1_4f_opt_disp_struct_7.xyz,Nucleus 19C :,2.4944,1.573464,0.676369,159.79,122.83,191.97,164.57,253.6,224.84,218.11,-95.45,-53.61,-68.12,122.83,164.57,191.97,0,69.14,0.21
dw_cut_4_n1_4f_opt_disp_struct_7.xyz,Nucleus 20C :,0.027228,0.201471,-1.812872,2.47,-84.86,67.85,24.42,203.78,258.0,264.75,-135.95,-343.18,-239.99,-84.86,24.42,67.85,0,152.71,0.43
dw_cut_4_n1_4f_opt_disp_struct_7.xyz,Nucleus 5N :,3.44582,-5.344494,2.5026,126.69,56.81,184.63,138.64,291.91,341.3,330.23,-107.9,-201.21,-274.26,56.81,138.64,184.63,0,127.82,0.28
dw_cut_4_n1_4f_opt_disp_struct_7.xyz,Nucleus 21O :,2.360142,-4.285744,2.42181,-18.54,224.25,-29.48,-250.4,398.68,411.64,421.45,-189.38,-436.62,-661.41,-250.4,-29.48,224.25,0,474.65,-0.07
dw_cut_4_n1_4f_opt_disp_struct_7.xyz,Nucleus 22O :,1.449701,-4.395244,3.292764,-34.64,203.92,-264.54,-43.29,401.41,430.95,426.16,-226.38,-675.52,-460.54,-264.54,-43.29,203.92,0,468.46,-0.06
dw_cut_4_n1_4f_opt_disp_struct_7.xyz,Nucleus 10F :,2.501697,-3.42299,1.511277,334.07,445.46,267.63,289.11,483.08,466.7,460.45,-20.9,-199.93,-187.2,267.63,289.11,445.46,0,177.83,-0.76
dw_cut_4_n1_4f_opt_disp_struct_7.xyz,Nucleus 12F :,3.0304,-6.300653,2.1612,356.02,453.59,299.24,315.23,482.07,469.93,459.7,-15.96,-181.9,-145.77,299.24,315.23,453.59,0,154.35,-0.79
dw_cut_4_n1_4f_opt_disp_struct_7.xyz,Nucleus 14F :,4.314641,-5.101964,1.881788,349.58,457.13,300.03,291.58,462.59,481.7,473.13,-18.54,-163.39,-186.75,291.58,300.03,457.13,0,165.55,-0.9
dw_cut_4_n1_4f_opt_disp_struct_7.xyz,Nucleus 16F :,3.7585,-5.488276,3.542376,352.01,450.42,305.63,299.98,461.45,474.28,483.85,-25.52,-158.14,-179.89,299.98,305.63,450.42,0,150.44,-0.92
dw_cut_4_n1_4f_opt_disp_struct_8.xyz,Nucleus 1H :,0.985638,-0.02725,-1.331932,29.38,35.45,23.79,28.91,40.7,26.81,28.82,-6.47,0.6,-2.3,23.79,28.91,35.45,0,11.66,-0.12
dw_cut_4_n1_4f_opt_disp_struct_8.xyz,Nucleus 2H :,1.739031,0.65836,-1.735411,28.4,34.25,23.83,27.13,45.04,24.44,26.49,-11.86,2.19,-1.1,23.83,27.13,34.25,0,10.42,-0.37
dw_cut_4_n1_4f_opt_disp_struct_8.xyz,Nucleus 6H :,1.258612,-1.047127,-1.636604,24.23,15.94,25.75,30.99,10.91,31.13,49.95,-19.52,5.43,-5.23,15.94,25.75,30.99,0,15.05,0.3
dw_cut_4_n1_4f_opt_disp_struct_8.xyz,Nucleus 17H :,0.907904,0.092448,0.148459,24.56,21.14,25.79,26.74,45.01,27.34,30.68,-19.19,-6.1,-4.07,21.14,25.79,26.74,0,5.6,0.66
dw_cut_4_n1_4f_opt_disp_struct_8.xyz,Nucleus 18H :,1.692775,0.901329,0.948093,28.96,35.02,28.02,23.84,42.32,27.74,32.95,-0.35,-10.27,-5.51,23.84,28.02,35.02,0,11.18,-0.25
dw_cut_4_n1_4f_opt_disp_struct_8.xyz,Nucleus 23H :,1.310217,0.729511,2.251245,29.86,33.07,29.03,27.47,37.86,21.91,15.96,12.32,6.58,-5.07,27.47,29.03,33.07,0,5.6,-0.44
dw_cut_4_n1_4f_opt_disp_struct_8.xyz,Nucleus 24H :,1.705441,1.191252,3.048015,30.42,34.63,26.13,30.49,39.08,13.36,26.19,-4.64,12.79,4.47,26.13,30.49,34.63,0,8.5,0.02
dw_cut_4_n1_4f_opt_disp_struct_8.xyz,Nucleus 25H :,0.281738,-0.178837,2.320283,30.07,33.79,29.77,26.66,39.23,19.85,13.54,-5.53,9.71,13.43,26.66,29.77,33.79,0,7.13,-0.13
dw_cut_4_n1_4f_opt_disp_struct_8.xyz,Nucleus 0C :,0.002467,-0.597088,1.016675,170.45,186.63,164.37,160.35,256.4,241.14,236.74,-79.13,-76.59,-67.23,160.35,164.37,186.63,0,26.28,-0.69
dw_cut_4_n1_4f_opt_disp_struct_8.xyz,Nucleus 3C :,-1.031606,-1.538886,0.829566,61.45,147.99,54.46,-18.09,240.38,272.86,263.39,-92.44,-218.11,-281.72,-18.09,54.46,147.99,0,166.08,-0.13
dw_cut_4_n1_4f_opt_disp_struct_8.xyz,Nucleus 4C :,-1.340539,-1.970511,-0.402246,57.5,-24.76,126.01,71.26,255.32,263.46,273.64,-290.55,-132.37,-196.99,-24.76,71.26,126.01,0,150.77,0.27
dw_cut_4_n1_4f_opt_disp_struct_8.xyz,Nucleus 7C :,-1.738603,-2.02646,1.929494,55.17,138.49,-0.22,27.23,277.23,269.43,262.42,-127.22,-276.94,-239.43,-0.22,27.23,138.49,0,138.71,-0.6
dw_cut_4_n1_4f_opt_disp_struct_8.xyz,Nucleus 8C :,-2.719,-2.922964,1.742887,61.76,159.64,24.05,1.59,236.49,265.37,267.76,-77.15,-241.69,-265.51,1.59,24.05,159.64,0,158.05,-0.72
dw_cut_4_n1_4f_opt_disp_struct_8.xyz,Nucleus 9C :,-1.437287,-1.593497,3.211292,28.29,82.94,18.9,-16.96,237.95,269.86,268.12,-155.12,-249.35,-286.58,-16.96,18.9,82.94,0,99.9,-0.28
dw_cut_4_n1_4f_opt_disp_struct_8.xyz,Nucleus 11C :,-2.127351,-2.07314,4.25676,36.42,94.37,19.04,-4.14,239.91,265.73,272.45,-145.83,-246.7,-276.28,-4.14,19.04,94.37,0,98.51,-0.53
dw_cut_4_n1_4f_opt_disp_struct_8.xyz,Nucleus 13C :,-0.423718,-0.663351,3.424981,34.93,94.34,13.73,-3.27,236.32,266.02,273.25,-142.33,-255.61,-272.84,-3.27,13.73,94.34,0,97.61,-0.65
dw_cut_4_n1_4f_opt_disp_struct_8.xyz,Nucleus 15C :,-0.129074,-0.240237,4.66132,37.54,89.46,20.93,2.23,230.79,272.22,264.7,-142.03,-250.66,-262.41,2.23,20.93,89.46,0,87.23,-0.57
dw_cut_4_n1_4f_opt_disp_struct_8.xyz,Nucleus 19C :,2.4944,1.573464,0.676369,159.75,122.76,191.82,164.67,253.32,225.3,218.21,-95.64,-53.97,-67.96,122.76,164.67,191.82,0,69.06,0.21
dw_cut_4_n1_4f_opt_disp_struct_8.xyz,Nucleus 20C :,0.027228,0.201471,-1.812872,2.51,-85.3,67.77,25.06,203.51,257.58,265.09,-135.77,-343.03,-239.85,-85.3,25.06,67.77,0,153.07,0.44
dw_cut_4_n1_4f_opt_disp_struct_8.xyz,Nucleus 5N :,3.611172,-5.530428,2.526832,126.26,56.09,184.64,138.05,292.05,340.97,330.23,-107.88,-201.46,-275.13,56.09,138.05,184.64,0,128.55,0.28
dw_cut_4_n1_4f_opt_disp_struct_8.xyz,Nucleus 21O :,2.525494,-4.471678,2.446042,-18.65,224.77,-29.74,-250.98,398.27,412.31,422.66,-189.59,-437.32,-662.28,-250.98,-29.74,224.77,0,475.75,-0.07
dw_cut_4_n1_4f_opt_disp_struct_8.xyz,Nucleus 22O :,1.615053,-4.581179,3.316996,-35.28,203.74,-265.12,-44.46,401.68,434.09,426.71,-229.82,-677.45,-461.06,-265.12,-44.46,203.74,0,468.86,-0.06
dw_cut_4_n1_4f_opt_disp_struct_8.xyz,Nucleus 10F :,2.667049,-3.608925,1.535509,333.33,445.2,266.43,288.37,482.77,466.38,460.36,-20.8,-200.66,-188.05,266.43,288.37,445.2,0,178.77,-0.75
dw_cut_4_n1_4f_opt_disp_struct_8.xyz,Nucleus 12F :,3.195752,-6.486588,2.185432,355.24,453.19,298.47,314.05,481.9,469.89,459.69,-16.5,-182.47,-146.79,298.47,314.05,453.19,0,154.72,-0.8
dw_cut_4_n1_4f_opt_disp_struct_8.xyz,Nucleus 14F :,4.479993,-5.287899,1.906021,349.25,456.8,299.76,291.19,462.41,481.58,473.04,-18.75,-163.43,-187.09,291.19,299.76,456.8,0,165.61,-0.9
dw_cut_4_n1_4f_opt_disp_struct_8.xyz,Nucleus 16F :,3.923852,-5.674211,3.566608,351.29,450.08,304.69,299.1,461.34,474.2,483.72,-25.76,-159.12,-180.52,299.1,304.69,450.08,0,150.98,-0.93
dw_cut_4_n1_4f_opt_disp_struct_9.xyz,Nucleus 1H :,0.985638,-0.02725,-1.331932,29.36,35.43,23.77,28.89,40.65,26.74,28.79,-6.41,0.61,-2.29,23.77,28.89,35.43,0,11.66,-0.12
dw_cut_4_n1_4f_opt_disp_struct_9.xyz,Nucleus 2H :,1.739031,0.65836,-1.735411,28.4,34.29,23.82,27.1,45.02,24.4,26.4,-11.77,2.25,-1.09,23.82,27.1,34.29,0,10.47,-0.37
dw_cut_4_n1_4f_opt_disp_struct_9.xyz,Nucleus 6H :,1.258612,-1.047127,-1.636604,24.19,15.9,25.72,30.95,10.88,31.03,49.88,-19.45,5.35,-5.14,15.9,25.72,30.95,0,15.05,0.3
dw_cut_4_n1_4f_opt_disp_struct_9.xyz,Nucleus 17H :,0.907904,0.092448,0.148459,24.53,21.1,25.75,26.74,44.93,27.28,30.62,-19.14,-6.1,-4.01,21.1,25.75,26.74,0,5.64,0.65
dw_cut_4_n1_4f_opt_disp_struct_9.xyz,Nucleus 18H :,1.692775,0.901329,0.948093,28.95,35.0,28.02,23.84,42.26,27.66,32.87,-0.28,-10.18,-5.48,23.84,28.02,35.0,0,11.16,-0.25
dw_cut_4_n1_4f_opt_disp_struct_9.xyz,Nucleus 23H :,1.310217,0.729511,2.251245,29.84,32.97,29.05,27.5,15.64,22.2,37.82,12.67,6.33,-5.13,27.5,29.05,32.97,0,5.47,-0.43
dw_cut_4_n1_4f_opt_disp_struct_9.xyz,Nucleus 24H :,1.705441,1.191252,3.048015,30.4,34.58,26.16,30.45,39.19,13.36,26.12,-4.79,12.82,4.5,26.16,30.45,34.58,0,8.42,0.02
dw_cut_4_n1_4f_opt_disp_struct_9.xyz,Nucleus 25H :,0.281738,-0.178837,2.320283,30.06,33.71,29.78,26.68,39.17,20.01,13.27,-5.56,9.57,13.7,26.68,29.78,33.71,0,7.03,-0.12
dw_cut_4_n1_4f_opt_disp_struct_9.xyz,Nucleus 0C :,0.002467,-0.597088,1.016675,170.49,186.6,164.48,160.4,256.46,240.98,236.67,-78.94,-76.32,-67.35,160.4,164.48,186.6,0,26.2,-0.69
dw_cut_4_n1_4f_opt_disp_struct_9.xyz,Nucleus 3C :,-1.031606,-1.538886,0.829566,61.51,147.92,54.54,-17.93,240.19,272.18,263.29,-92.32,-217.42,-281.41,-17.93,54.54,147.92,0,165.85,-0.13
dw_cut_4_n1_4f_opt_disp_struct_9.xyz,Nucleus 4C :,-1.340539,-1.970511,-0.402246,57.16,-25.23,126.07,70.63,254.86,263.75,273.46,-290.97,-132.22,-197.42,-25.23,70.63,126.07,0,151.3,0.27
dw_cut_4_n1_4f_opt_disp_struct_9.xyz,Nucleus 7C :,-1.738603,-2.02646,1.929494,55.29,138.44,0.11,27.31,276.5,268.99,262.34,-126.63,-276.03,-239.33,0.11,27.31,138.44,0,138.33,-0.61
dw_cut_4_n1_4f_opt_disp_struct_9.xyz,Nucleus 8C :,-2.719,-2.922964,1.742887,61.97,159.53,24.46,1.92,236.52,264.85,267.43,-77.22,-240.49,-265.18,1.92,24.46,159.53,0,157.61,-0.71
dw_cut_4_n1_4f_opt_disp_struct_9.xyz,Nucleus 9C :,-1.437287,-1.593497,3.211292,28.43,82.93,19.1,-16.74,237.75,269.55,267.75,-155.01,-248.83,-285.92,-16.74,19.1,82.93,0,99.67,-0.28
dw_cut_4_n1_4f_opt_disp_struct_9.xyz,Nucleus 11C :,-2.127351,-2.07314,4.25676,36.55,94.34,19.26,-3.95,239.95,265.42,271.95,-145.84,-246.28,-275.55,-3.95,19.26,94.34,0,98.29,-0.53
dw_cut_4_n1_4f_opt_disp_struct_9.xyz,Nucleus 13C :,-0.423718,-0.663351,3.424981,35.13,94.29,14.06,-2.95,236.65,265.67,272.89,-142.58,-255.01,-272.21,-2.95,14.06,94.29,0,97.24,-0.65
dw_cut_4_n1_4f_opt_disp_struct_9.xyz,Nucleus 15C :,-0.129074,-0.240237,4.66132,37.66,89.44,21.17,2.38,231.01,271.96,264.46,-142.19,-250.18,-262.07,2.38,21.17,89.44,0,87.06,-0.57
dw_cut_4_n1_4f_opt_disp_struct_9.xyz,Nucleus 19C :,2.4944,1.573464,0.676369,159.72,122.68,191.7,164.79,253.1,226.09,218.78,-96.32,-54.56,-67.92,122.68,164.79,191.7,0,69.02,0.22
dw_cut_4_n1_4f_opt_disp_struct_9.xyz,Nucleus 20C :,0.027228,0.201471,-1.812872,2.53,-85.65,67.68,25.57,203.11,257.14,265.34,-135.45,-342.86,-239.68,-85.65,25.57,67.68,0,153.33,0.45
dw_cut_4_n1_4f_opt_disp_struct_9.xyz,Nucleus 5N :,3.776524,-5.716363,2.551064,125.9,55.51,184.65,137.55,292.15,340.64,330.21,-107.83,-201.61,-275.84,55.51,137.55,184.65,0,129.14,0.27
dw_cut_4_n1_4f_opt_disp_struct_9.xyz,Nucleus 21O :,2.690845,-4.657613,2.470274,-18.8,225.53,-30.19,-251.73,397.91,412.24,423.68,-188.6,-438.1,-663.51,-251.73,-30.19,225.53,0,477.26,-0.07
dw_cut_4_n1_4f_opt_disp_struct_9.xyz,Nucleus 22O :,1.780405,-4.767113,3.341229,-36.03,203.74,-266.17,-45.65,401.88,437.0,427.3,-232.74,-679.88,-461.65,-266.17,-45.65,203.74,0,469.91,-0.06
dw_cut_4_n1_4f_opt_disp_struct_9.xyz,Nucleus 10F :,2.832401,-3.794859,1.559741,332.71,444.97,265.44,287.73,482.51,466.06,460.25,-20.71,-201.24,-188.73,265.44,287.73,444.97,0,179.53,-0.75
dw_cut_4_n1_4f_opt_disp_struct_9.xyz,Nucleus 12F :,3.361104,-6.672522,2.209665,354.56,452.84,297.8,313.04,481.72,469.85,459.66,-16.95,-182.94,-147.65,297.8,313.04,452.84,0,155.04,-0.8
dw_cut_4_n1_4f_opt_disp_struct_9.xyz,Nucleus 14F :,4.645344,-5.473833,1.930253,348.93,456.5,299.47,290.83,462.26,481.51,472.9,-18.92,-163.54,-187.41,290.83,299.47,456.5,0,165.67,-0.9
dw_cut_4_n1_4f_opt_disp_struct_9.xyz,Nucleus 16F :,4.089204,-5.860145,3.59084,350.67,449.78,303.89,298.35,461.25,474.21,483.55,-26.04,-159.96,-180.98,298.35,303.89,449.78,0,151.43,-0.93
dw_cut_4_n1_ch3_opt.xyz,Nucleus 1H :,1.01835,0.036946,-1.340447,29.4,35.09,24.14,28.96,39.3,25.78,28.28,2.48,-4.43,-3.23,24.14,28.96,35.09,0,10.95,-0.12
dw_cut_4_n1_ch3_opt.xyz,Nucleus 2H :,1.74618,0.738439,-1.764412,28.44,34.6,24.12,26.6,43.84,21.11,28.36,-11.04,4.12,-1.08,24.12,26.6,34.6,0,10.48,-0.53
dw_cut_4_n1_ch3_opt.xyz,Nucleus 6H :,1.331999,-0.9798,-1.61961,25.7,17.56,26.49,33.04,16.79,32.53,47.02,-14.39,-6.2,1.32,17.56,26.49,33.04,0,15.48,0.15
dw_cut_4_n1_ch3_opt.xyz,Nucleus 10H :,0.925748,0.186522,0.133637,25.4,19.55,30.78,25.88,29.95,39.4,50.04,0.72,-16.19,-27.7,19.55,25.88,30.78,0,11.23,0.13
dw_cut_4_n1_ch3_opt.xyz,Nucleus 14H :,1.723543,0.984233,0.930802,23.28,26.36,22.03,21.45,11.66,41.75,44.37,9.88,-16.0,-21.83,21.45,22.03,26.36,0,4.91,-0.76
dw_cut_4_n1_ch3_opt.xyz,Nucleus 16H :,1.34634,0.799535,2.233544,25.77,20.76,28.9,27.66,13.96,35.9,48.07,7.86,-7.04,-21.43,20.76,27.66,28.9,0,8.14,0.7
dw_cut_4_n1_ch3_opt.xyz,Nucleus 17H :,1.7155,1.304238,3.017512,25.22,22.03,26.44,27.19,44.71,28.54,30.29,-18.24,-6.57,-3.08,22.03,26.44,27.19,0,5.16,0.71
dw_cut_4_n1_ch3_opt.xyz,Nucleus 18H :,0.299236,-0.08643,2.30707,28.67,35.04,27.56,23.41,42.01,25.41,31.7,-10.44,1.25,-3.92,23.41,27.56,35.04,0,11.63,-0.29
dw_cut_4_n1_ch3_opt.xyz,Nucleus 19H :,0.010759,-0.489276,1.004272,30.01,24.41,30.26,35.37,42.45,27.04,24.57,-7.84,0.48,3.34,24.41,30.26,35.37,0,10.96,0.07
dw_cut_4_n1_ch3_opt.xyz,Nucleus 20H :,-1.016968,-1.436204,0.805711,29.03,35.5,23.93,27.67,13.98,39.32,29.32,10.09,-4.3,-1.3,23.93,27.67,35.5,0,11.57,-0.35
dw_cut_4_n1_ch3_opt.xyz,Nucleus 21H :,-1.230804,-1.803306,-0.195718,28.81,34.28,27.57,24.59,15.46,29.67,39.2,10.1,-2.93,-5.05,24.59,27.57,34.28,0,9.69,-0.38
dw_cut_4_n1_ch3_opt.xyz,Nucleus 26H :,-1.706074,-1.965294,1.909417,30.15,26.43,29.45,34.57,39.98,23.65,21.22,7.69,3.56,-5.64,26.43,29.45,34.57,0,8.14,-0.26
dw_cut_4_n1_ch3_opt.xyz,Nucleus 27H :,-2.746939,-3.030357,1.725261,30.58,24.96,35.54,31.24,16.82,38.81,30.2,8.16,-3.36,1.11,24.96,31.24,35.54,0,10.58,0.19
dw_cut_4_n1_ch3_opt.xyz,Nucleus 28H :,-1.381996,-1.534529,3.199434,30.31,35.02,29.44,26.46,40.2,21.91,21.29,-5.45,8.06,4.91,26.46,29.44,35.02,0,8.56,-0.3
dw_cut_4_n1_ch3_opt.xyz,Nucleus 0C :,-1.89858,-1.969716,4.050159,171.31,160.0,165.98,187.96,233.91,241.18,252.45,-73.12,-76.37,-64.11,160.0,165.98,187.96,0,27.96,-0.57
dw_cut_4_n1_ch3_opt.xyz,Nucleus 3C :,-0.381346,-0.584137,3.422605,68.34,149.93,62.41,-7.31,240.39,259.25,273.17,-90.99,-206.12,-270.67,-7.31,62.41,149.93,0,157.24,-0.11
dw_cut_4_n1_ch3_opt.xyz,Nucleus 4C :,-0.093377,-0.310143,4.433786,68.95,-8.71,125.45,90.1,251.34,271.37,264.84,-273.5,-131.33,-175.88,-8.71,90.1,125.45,0,134.16,0.47
dw_cut_4_n1_ch3_opt.xyz,Nucleus 7C :,2.54249,1.638152,0.663504,52.01,141.89,-22.73,36.86,276.56,258.69,266.92,-126.78,-288.25,-231.12,-22.73,36.86,141.89,0,164.62,-0.28
dw_cut_4_n1_ch3_opt.xyz,Nucleus 8C :,0.05306,0.219642,-1.830981,42.95,167.46,-8.59,-30.02,217.48,246.04,242.32,-51.23,-254.03,-271.73,-30.02,-8.59,167.46,0,197.48,-0.78
dw_cut_4_n1_ch3_opt.xyz,Nucleus 9C :,-2.998952,-3.159816,0.667176,72.13,160.06,82.7,-26.37,247.9,265.09,270.44,-87.87,-183.91,-295.26,-26.37,82.7,160.06,0,186.43,0.17
dw_cut_4_n1_ch3_opt.xyz,Nucleus 11C :,-3.673003,-2.79407,2.265307,60.26,172.38,-41.08,49.48,237.83,259.86,278.33,-65.78,-308.04,-221.42,-41.08,49.48,172.38,0,213.46,-0.15
dw_cut_4_n1_ch3_opt.xyz,Nucleus 12C :,-2.38546,-3.996963,2.106193,160.54,189.58,134.75,157.29,250.16,237.2,230.2,-98.62,-60.08,-77.24,134.75,157.29,189.58,0,54.83,-0.18
dw_cut_4_n1_ch3_opt.xyz,Nucleus 13C :,2.117254,-3.868176,2.309642,49.54,-61.55,160.03,50.14,282.11,231.34,254.59,-75.5,-231.58,-312.34,-61.55,50.14,160.03,0,221.58,0.01
dw_cut_4_n1_ch3_opt.xyz,Nucleus 15C :,1.033984,-2.807166,2.226211,84.19,168.07,81.17,3.32,245.8,271.1,266.5,-78.47,-188.94,-263.43,3.32,81.17,168.07,0,164.75,-0.05
dw_cut_4_n1_ch3_opt.xyz,Nucleus 22C :,0.118965,-2.917258,3.092278,157.02,120.26,194.03,156.78,256.56,232.53,231.68,-111.82,-58.02,-79.86,120.26,156.78,194.03,0,73.77,-0.01
dw_cut_4_n1_ch3_opt.xyz,Nucleus 23C :,1.181742,-1.942268,1.318703,10.29,-92.57,104.46,18.98,211.34,261.5,269.91,-107.18,-357.37,-247.32,-92.57,18.98,104.46,0,197.03,0.13
dw_cut_4_n1_ch3_opt.xyz,Nucleus 5N :,1.672388,-4.862792,2.181965,133.41,83.3,167.05,149.87,296.2,334.81,328.81,-243.99,-131.34,-184.26,83.3,149.87,167.05,0,83.75,0.59
dw_cut_4_n1_ch3_opt.xyz,Nucleus 24O :,2.900102,-3.725315,1.557095,-158.14,-549.55,-67.7,142.83,394.55,449.15,420.87,-994.86,-466.14,-277.99,-549.55,-67.7,142.83,0,692.38,0.39
dw_cut_4_n1_ch3_opt.xyz,Nucleus 25O :,2.571219,-3.855221,3.308044,-185.75,-612.0,-56.75,111.49,449.91,405.05,425.05,-1055.69,-467.37,-314.2,-612.0,-56.75,111.49,0,723.49,0.53
dw_cut_4_n1_ch3_opt_disp_struct_0.xyz,Nucleus 1H :,1.01835,0.036946,-1.340447,29.4,35.2,23.96,29.03,39.52,26.31,28.8,2.02,-5.14,-3.32,23.96,29.03,35.2,0,11.24,-0.1
dw_cut_4_n1_ch3_opt_disp_struct_0.xyz,Nucleus 2H :,1.74618,0.738439,-1.764412,28.54,34.6,24.25,26.78,44.79,21.8,28.16,-11.86,3.67,-0.93,24.25,26.78,34.6,0,10.35,-0.51
dw_cut_4_n1_ch3_opt_disp_struct_0.xyz,Nucleus 6H :,1.331999,-0.9798,-1.61961,25.27,17.32,26.01,32.49,16.9,32.51,47.68,-15.56,-6.55,0.85,17.32,26.01,32.49,0,15.17,0.15
dw_cut_4_n1_ch3_opt_disp_struct_0.xyz,Nucleus 10H :,0.925748,0.186522,0.133637,24.71,30.29,24.3,19.55,30.79,39.67,50.73,-0.53,-17.53,-28.99,19.55,24.3,30.29,0,10.74,-0.11
dw_cut_4_n1_ch3_opt_disp_struct_0.xyz,Nucleus 14H :,1.723543,0.984233,0.930802,23.6,27.27,22.48,21.04,9.75,40.47,44.76,11.52,-13.37,-22.34,21.04,22.48,27.27,0,6.23,-0.54
dw_cut_4_n1_ch3_opt_disp_struct_0.xyz,Nucleus 16H :,1.34634,0.799535,2.233544,25.12,20.51,28.49,26.37,12.73,35.87,48.17,8.39,-7.47,-22.32,20.51,26.37,28.49,0,7.98,0.47
dw_cut_4_n1_ch3_opt_disp_struct_0.xyz,Nucleus 17H :,1.7155,1.304238,3.017512,25.02,21.74,26.16,27.17,44.83,28.92,30.82,-18.64,-7.3,-3.56,21.74,26.16,27.17,0,5.43,0.63
dw_cut_4_n1_ch3_opt_disp_struct_0.xyz,Nucleus 18H :,0.299236,-0.08643,2.30707,28.86,35.21,27.63,23.75,42.46,25.87,32.57,-10.95,0.98,-4.33,23.75,27.63,35.21,0,11.46,-0.32
dw_cut_4_n1_ch3_opt_disp_struct_0.xyz,Nucleus 19H :,0.010759,-0.489276,1.004272,29.79,24.28,30.08,35.01,42.49,27.39,24.18,-8.13,0.7,2.75,24.28,30.08,35.01,0,10.73,0.08
dw_cut_4_n1_ch3_opt_disp_struct_0.xyz,Nucleus 20H :,-1.016968,-1.436204,0.805711,29.09,35.44,24.06,27.78,13.67,39.63,28.88,10.62,-4.52,-0.99,24.06,27.78,35.44,0,11.38,-0.35
dw_cut_4_n1_ch3_opt_disp_struct_0.xyz,Nucleus 21H :,-1.230804,-1.803306,-0.195718,28.62,33.96,27.32,24.59,14.36,28.79,39.29,10.97,-2.17,-5.37,24.59,27.32,33.96,0,9.37,-0.42
dw_cut_4_n1_ch3_opt_disp_struct_0.xyz,Nucleus 26H :,-1.706074,-1.965294,1.909417,30.25,34.53,29.42,26.79,39.93,22.54,20.54,8.15,5.22,-5.64,26.79,29.42,34.53,0,7.74,-0.32
dw_cut_4_n1_ch3_opt_disp_struct_0.xyz,Nucleus 27H :,-2.746939,-3.030357,1.725261,30.74,25.49,35.55,31.18,16.45,38.77,29.77,9.06,-3.33,1.51,25.49,31.18,35.55,0,10.06,0.13
dw_cut_4_n1_ch3_opt_disp_struct_0.xyz,Nucleus 28H :,-1.381996,-1.534529,3.199434,30.36,34.78,29.45,26.85,40.15,21.1,20.28,-5.62,8.73,6.45,26.85,29.45,34.78,0,7.93,-0.34
dw_cut_4_n1_ch3_opt_disp_struct_0.xyz,Nucleus 0C :,-1.89858,-1.969716,4.050159,171.25,159.73,166.04,187.98,234.81,241.94,253.37,-75.0,-76.9,-64.47,159.73,166.04,187.98,0,28.25,-0.55
dw_cut_4_n1_ch3_opt_disp_struct_0.xyz,Nucleus 3C :,-0.381346,-0.584137,3.422605,64.03,149.61,55.14,-12.65,241.7,259.42,274.05,-92.42,-214.34,-276.32,-12.65,55.14,149.61,0,162.26,-0.16
dw_cut_4_n1_ch3_opt_disp_struct_0.xyz,Nucleus 4C :,-0.093377,-0.310143,4.433786,65.64,-14.79,125.65,86.05,252.76,272.44,265.94,-280.54,-132.86,-180.84,-14.79,86.05,125.65,0,140.44,0.44
dw_cut_4_n1_ch3_opt_disp_struct_0.xyz,Nucleus 7C :,2.54249,1.638152,0.663504,45.4,142.57,-32.67,26.29,258.45,279.96,270.24,-130.11,-301.68,-240.67,-32.67,26.29,142.57,0,175.24,-0.33
dw_cut_4_n1_ch3_opt_disp_struct_0.xyz,Nucleus 8C :,0.05306,0.219642,-1.830981,39.46,168.78,-13.83,-36.57,220.76,252.57,248.52,-52.36,-266.33,-284.79,-36.57,-13.83,168.78,0,205.35,-0.78
dw_cut_4_n1_ch3_opt_disp_struct_0.xyz,Nucleus 9C :,-2.998952,-3.159816,0.667176,61.29,157.34,64.94,-38.4,248.12,266.32,272.56,-92.37,-202.67,-308.08,-38.4,64.94,157.34,0,195.74,0.06
dw_cut_4_n1_ch3_opt_disp_struct_0.xyz,Nucleus 11C :,-3.673003,-2.79407,2.265307,53.23,172.4,-51.06,38.34,234.09,261.28,278.68,-62.35,-318.23,-233.79,-51.06,38.34,172.4,0,223.46,-0.2
dw_cut_4_n1_ch3_opt_disp_struct_0.xyz,Nucleus 12C :,-2.38546,-3.996963,2.106193,160.24,189.16,134.93,156.63,250.92,228.01,236.56,-96.23,-61.0,-77.54,134.93,156.63,189.16,0,54.23,-0.2
dw_cut_4_n1_ch3_opt_disp_struct_0.xyz,Nucleus 13C :,2.285585,-4.051975,2.329203,45.41,161.63,42.13,-67.52,280.53,234.14,253.12,-72.74,-238.2,-320.61,-67.52,42.13,161.63,0,229.15,-0.04
dw_cut_4_n1_ch3_opt_disp_struct_0.xyz,Nucleus 15C :,1.202315,-2.990965,2.245771,74.43,167.61,66.93,-11.24,246.85,274.27,266.75,-80.68,-206.18,-277.71,-11.24,66.93,167.61,0,178.85,-0.13
dw_cut_4_n1_ch3_opt_disp_struct_0.xyz,Nucleus 22C :,0.287295,-3.101057,3.111838,158.73,121.63,194.13,160.42,256.4,231.1,230.09,-108.54,-56.52,-76.36,121.63,160.42,194.13,0,72.5,0.07
dw_cut_4_n1_ch3_opt_disp_struct_0.xyz,Nucleus 23C :,1.350073,-2.126067,1.338263,8.28,-83.56,87.89,20.51,206.66,259.85,268.02,-118.94,-346.96,-243.78,-83.56,20.51,87.89,0,171.45,0.21
dw_cut_4_n1_ch3_opt_disp_struct_0.xyz,Nucleus 5N :,1.840719,-5.046591,2.201525,129.38,75.18,167.04,145.93,297.37,335.81,330.26,-131.96,-189.58,-253.75,75.18,145.93,167.04,0,91.86,0.54
dw_cut_4_n1_ch3_opt_disp_struct_0.xyz,Nucleus 24O :,3.068433,-3.909115,1.576655,-102.56,-416.91,-63.06,172.28,396.72,437.08,431.09,-849.87,-464.27,-258.44,-416.91,-63.06,172.28,0,589.19,0.2
dw_cut_4_n1_ch3_opt_disp_struct_0.xyz,Nucleus 25O :,2.73955,-4.03902,3.327605,-134.68,-487.3,-65.33,148.6,404.6,426.26,443.53,-919.62,-478.81,-279.99,-487.3,-65.33,148.6,0,635.9,0.33
dw_cut_4_n1_ch3_opt_disp_struct_1.xyz,Nucleus 1H :,1.01835,0.036946,-1.340447,29.4,35.28,23.88,29.05,39.73,26.91,29.15,1.41,-5.76,-3.22,23.88,29.05,35.28,0,11.4,-0.09
dw_cut_4_n1_ch3_opt_disp_struct_1.xyz,Nucleus 2H :,1.74618,0.738439,-1.764412,28.6,34.63,24.26,26.91,45.48,22.7,28.04,-12.42,2.92,-0.93,24.26,26.91,34.63,0,10.37,-0.49
dw_cut_4_n1_ch3_opt_disp_struct_1.xyz,Nucleus 6H :,1.331999,-0.9798,-1.61961,25.02,17.14,25.76,32.17,48.35,17.01,32.29,-16.57,-6.51,0.5,17.14,25.76,32.17,0,15.03,0.15
dw_cut_4_n1_ch3_opt_disp_struct_1.xyz,Nucleus 10H :,0.925748,0.186522,0.133637,24.35,30.03,19.53,23.48,31.83,39.77,51.68,-1.83,-18.12,-30.29,19.53,23.48,30.03,0,10.5,-0.25
dw_cut_4_n1_ch3_opt_disp_struct_1.xyz,Nucleus 14H :,1.723543,0.984233,0.930802,23.82,27.79,22.86,20.81,8.51,38.46,45.53,12.55,-10.74,-22.84,20.81,22.86,27.79,0,6.98,-0.41
dw_cut_4_n1_ch3_opt_disp_struct_1.xyz,Nucleus 16H :,1.34634,0.799535,2.233544,24.73,20.3,28.23,25.65,11.9,35.23,48.43,8.79,-7.07,-23.08,20.3,25.65,28.23,0,7.93,0.35
dw_cut_4_n1_ch3_opt_disp_struct_1.xyz,Nucleus 17H :,1.7155,1.304238,3.017512,24.9,21.57,26.0,27.12,44.95,29.16,31.27,-18.93,-7.63,-4.13,21.57,26.0,27.12,0,5.55,0.59
dw_cut_4_n1_ch3_opt_disp_struct_1.xyz,Nucleus 18H :,0.299236,-0.08643,2.30707,28.99,35.34,27.69,23.94,42.9,26.38,33.28,-11.4,0.6,-4.8,23.94,27.69,35.34,0,11.4,-0.34
dw_cut_4_n1_ch3_opt_disp_struct_1.xyz,Nucleus 19H :,0.010759,-0.489276,1.004272,29.65,24.2,29.95,34.79,42.37,23.89,27.78,-8.24,0.92,2.22,24.2,29.95,34.79,0,10.59,0.08
dw_cut_4_n1_ch3_opt_disp_struct_1.xyz,Nucleus 20H :,-1.016968,-1.436204,0.805711,29.11,35.37,24.08,27.87,13.46,39.95,28.31,10.93,-4.88,-0.44,24.08,27.87,35.37,0,11.29,-0.33
dw_cut_4_n1_ch3_opt_disp_struct_1.xyz,Nucleus 21H :,-1.230804,-1.803306,-0.195718,28.47,33.77,27.11,24.54,13.68,27.79,39.61,11.48,-1.26,-5.87,24.54,27.11,33.77,0,9.23,-0.44
dw_cut_4_n1_ch3_opt_disp_struct_1.xyz,Nucleus 26H :,-1.706074,-1.965294,1.909417,30.24,34.39,29.41,26.91,39.77,21.34,19.87,-5.61,8.54,6.8,26.91,29.41,34.39,0,7.48,-0.33
dw_cut_4_n1_ch3_opt_disp_struct_1.xyz,Nucleus 27H :,-2.746939,-3.030357,1.725261,30.75,25.72,35.47,31.06,15.98,38.7,29.13,9.75,-3.37,2.06,25.72,31.06,35.47,0,9.75,0.1
dw_cut_4_n1_ch3_opt_disp_struct_1.xyz,Nucleus 28H :,-1.381996,-1.534529,3.199434,30.33,34.55,26.99,29.44,39.98,20.46,19.05,-5.66,7.77,9.37,26.99,29.44,34.55,0,7.56,-0.35
dw_cut_4_n1_ch3_opt_disp_struct_1.xyz,Nucleus 0C :,-1.89858,-1.969716,4.050159,171.32,159.68,166.23,188.05,235.61,242.68,254.2,-64.58,-77.57,-76.38,159.68,166.23,188.05,0,28.37,-0.54
dw_cut_4_n1_ch3_opt_disp_struct_1.xyz,Nucleus 3C :,-0.381346,-0.584137,3.422605,62.74,149.62,52.56,-13.96,242.68,259.97,275.47,-93.27,-218.52,-278.12,-13.96,52.56,149.62,0,163.58,-0.19
dw_cut_4_n1_ch3_opt_disp_struct_1.xyz,Nucleus 4C :,-0.093377,-0.310143,4.433786,63.8,-18.05,125.94,83.52,254.27,273.15,265.88,-284.14,-133.45,-184.31,-18.05,83.52,125.94,0,143.99,0.41
dw_cut_4_n1_ch3_opt_disp_struct_1.xyz,Nucleus 7C :,2.54249,1.638152,0.663504,42.63,142.94,-37.25,22.2,259.55,282.44,272.37,-132.54,-308.85,-245.09,-37.25,22.2,142.94,0,180.19,-0.34
dw_cut_4_n1_ch3_opt_disp_struct_1.xyz,Nucleus 8C :,0.05306,0.219642,-1.830981,40.68,169.04,-11.93,-35.07,222.57,258.1,252.35,-53.68,-269.99,-287.32,-35.07,-11.93,169.04,0,204.11,-0.77
dw_cut_4_n1_ch3_opt_disp_struct_1.xyz,Nucleus 9C :,-2.998952,-3.159816,0.667176,56.49,157.26,56.26,-44.05,248.26,268.41,275.21,-94.2,-212.62,-315.61,-44.05,56.26,157.26,0,201.31,-0.0
dw_cut_4_n1_ch3_opt_disp_struct_1.xyz,Nucleus 11C :,-3.673003,-2.79407,2.265307,49.71,172.6,-56.28,32.82,230.39,263.01,278.38,-58.74,-323.88,-240.03,-56.28,32.82,172.6,0,228.88,-0.22
dw_cut_4_n1_ch3_opt_disp_struct_1.xyz,Nucleus 12C :,-2.38546,-3.996963,2.106193,160.17,188.98,135.19,156.35,251.66,226.46,235.79,-94.58,-61.18,-77.63,135.19,156.35,188.98,0,53.79,-0.21
dw_cut_4_n1_ch3_opt_disp_struct_1.xyz,Nucleus 13C :,2.453916,-4.235774,2.348763,45.26,162.5,40.26,-66.99,231.46,255.95,279.04,-69.49,-238.65,-322.54,-66.99,40.26,162.5,0,229.49,-0.07
dw_cut_4_n1_ch3_opt_disp_struct_1.xyz,Nucleus 15C :,1.370646,-3.174765,2.265332,69.71,167.85,60.28,-19.01,245.95,276.14,267.78,-80.68,-213.45,-286.62,-19.01,60.28,167.85,0,186.86,-0.15
dw_cut_4_n1_ch3_opt_disp_struct_1.xyz,Nucleus 22C :,0.455626,-3.284856,3.131399,159.45,122.18,193.94,162.24,256.04,229.07,227.64,-105.48,-54.98,-73.93,122.18,162.24,193.94,0,71.76,0.12
dw_cut_4_n1_ch3_opt_disp_struct_1.xyz,Nucleus 23C :,1.518404,-2.309866,1.357824,5.88,-81.79,77.68,21.76,204.12,258.7,266.74,-126.54,-344.31,-241.07,-81.79,21.76,77.68,0,159.47,0.3
dw_cut_4_n1_ch3_opt_disp_struct_1.xyz,Nucleus 5N :,2.00905,-5.230391,2.221086,127.03,70.66,167.35,143.07,298.2,336.47,331.08,-132.02,-193.15,-259.49,70.66,143.07,167.35,0,96.69,0.5
dw_cut_4_n1_ch3_opt_disp_struct_1.xyz,Nucleus 24O :,3.236763,-4.092914,1.596215,-63.48,198.66,-58.03,-331.08,398.86,426.91,432.07,-753.37,-462.33,-232.59,-331.08,-58.03,198.66,0,529.74,0.03
dw_cut_4_n1_ch3_opt_disp_struct_1.xyz,Nucleus 25O :,2.907881,-4.222819,3.347165,-94.53,-394.12,-68.01,178.54,402.03,423.14,436.46,-814.37,-484.79,-246.07,-394.12,-68.01,178.54,0,572.66,0.14
dw_cut_4_n1_ch3_opt_disp_struct_10.xyz,Nucleus 1H :,1.01835,0.036946,-1.340447,29.26,35.15,23.67,28.97,39.78,27.82,29.45,-6.12,-0.23,-2.91,23.67,28.97,35.15,0,11.48,-0.08
dw_cut_4_n1_ch3_opt_disp_struct_10.xyz,Nucleus 2H :,1.74618,0.738439,-1.764412,28.65,35.01,24.26,26.67,46.26,24.27,28.04,-12.4,2.01,-2.24,24.26,26.67,35.01,0,10.75,-0.55
dw_cut_4_n1_ch3_opt_disp_struct_10.xyz,Nucleus 6H :,1.331999,-0.9798,-1.61961,24.4,16.59,25.32,31.3,49.68,16.01,31.19,-18.64,0.71,-5.74,16.59,25.32,31.3,0,14.71,0.19
dw_cut_4_n1_ch3_opt_disp_struct_10.xyz,Nucleus 10H :,0.925748,0.186522,0.133637,23.81,29.87,19.24,22.31,32.4,39.06,51.87,-2.8,-18.71,-30.38,19.24,22.31,29.87,0,10.63,-0.42
dw_cut_4_n1_ch3_opt_disp_struct_10.xyz,Nucleus 14H :,1.723543,0.984233,0.930802,24.02,28.66,20.13,23.28,8.86,32.3,46.61,-23.39,11.35,-3.66,20.13,23.28,28.66,0,8.53,-0.26
dw_cut_4_n1_ch3_opt_disp_struct_10.xyz,Nucleus 16H :,1.34634,0.799535,2.233544,24.11,19.67,28.0,24.67,11.19,31.89,48.05,-23.43,8.58,-3.92,19.67,24.67,28.0,0,8.33,0.2
dw_cut_4_n1_ch3_opt_disp_struct_10.xyz,Nucleus 17H :,1.7155,1.304238,3.017512,24.48,21.06,25.37,27.02,45.01,28.6,31.67,-19.5,-7.6,-4.72,21.06,25.37,27.02,0,5.96,0.45
dw_cut_4_n1_ch3_opt_disp_struct_10.xyz,Nucleus 18H :,0.299236,-0.08643,2.30707,29.11,35.38,27.77,24.18,43.84,26.97,33.8,0.27,-11.35,-6.2,24.18,27.77,35.38,0,11.2,-0.36
dw_cut_4_n1_ch3_opt_disp_struct_10.xyz,Nucleus 19H :,0.010759,-0.489276,1.004272,29.28,23.95,29.6,34.3,41.7,22.79,27.81,-8.09,2.29,1.33,23.95,29.6,34.3,0,10.35,0.09
dw_cut_4_n1_ch3_opt_disp_struct_10.xyz,Nucleus 20H :,-1.016968,-1.436204,0.805711,28.99,34.91,24.04,28.03,40.26,13.37,25.97,11.03,-5.67,2.01,24.04,28.03,34.91,0,10.87,-0.26
dw_cut_4_n1_ch3_opt_disp_struct_10.xyz,Nucleus 21H :,-1.230804,-1.803306,-0.195718,28.25,24.44,26.34,33.96,12.97,25.27,40.49,11.61,1.09,-6.68,24.44,26.34,33.96,0,9.52,-0.6
dw_cut_4_n1_ch3_opt_disp_struct_10.xyz,Nucleus 26H :,-1.706074,-1.965294,1.909417,29.96,27.17,29.45,33.27,15.22,21.4,38.41,12.63,7.6,-5.37,27.17,29.45,33.27,0,6.1,-0.25
dw_cut_4_n1_ch3_opt_disp_struct_10.xyz,Nucleus 27H :,-2.746939,-3.030357,1.725261,30.43,34.62,26.17,30.49,38.93,13.61,26.49,-4.49,12.57,4.16,26.17,30.49,34.62,0,8.45,0.02
dw_cut_4_n1_ch3_opt_disp_struct_10.xyz,Nucleus 28H :,-1.381996,-1.534529,3.199434,29.99,33.29,29.54,27.15,38.67,20.61,14.28,-5.53,8.46,13.5,27.15,29.54,33.29,0,6.14,-0.22
dw_cut_4_n1_ch3_opt_disp_struct_10.xyz,Nucleus 0C :,-1.89858,-1.969716,4.050159,172.1,160.56,167.77,187.98,236.21,243.6,256.38,-66.11,-78.23,-75.52,160.56,167.77,187.98,0,27.42,-0.47
dw_cut_4_n1_ch3_opt_disp_struct_10.xyz,Nucleus 3C :,-0.381346,-0.584137,3.422605,63.29,149.08,52.53,-11.73,242.31,262.06,275.16,-93.62,-221.26,-274.77,-11.73,52.53,149.08,0,160.81,-0.2
dw_cut_4_n1_ch3_opt_disp_struct_10.xyz,Nucleus 4C :,-0.093377,-0.310143,4.433786,58.54,-25.99,126.99,74.61,255.3,265.44,273.53,-292.1,-132.68,-193.88,-25.99,74.61,126.99,0,152.98,0.32
dw_cut_4_n1_ch3_opt_disp_struct_10.xyz,Nucleus 7C :,2.54249,1.638152,0.663504,42.33,143.12,-36.77,20.64,264.14,276.44,272.36,-128.71,-308.91,-248.34,-36.77,20.64,143.12,0,179.89,-0.36
dw_cut_4_n1_ch3_opt_disp_struct_10.xyz,Nucleus 8C :,0.05306,0.219642,-1.830981,48.04,168.23,-0.39,-23.71,224.8,264.28,258.74,-56.67,-264.3,-282.71,-23.71,-0.39,168.23,0,191.94,-0.76
dw_cut_4_n1_ch3_opt_disp_struct_10.xyz,Nucleus 9C :,-2.998952,-3.159816,0.667176,54.63,158.45,49.71,-44.27,250.83,273.13,268.52,-93.98,-220.96,-313.65,-44.27,49.71,158.45,0,202.72,-0.07
dw_cut_4_n1_ch3_opt_disp_struct_10.xyz,Nucleus 11C :,-3.673003,-2.79407,2.265307,45.68,172.94,-60.4,24.49,231.5,264.26,273.04,-58.58,-325.71,-247.49,-60.4,24.49,172.94,0,233.34,-0.27
dw_cut_4_n1_ch3_opt_disp_struct_10.xyz,Nucleus 12C :,-2.38546,-3.996963,2.106193,160.64,188.52,136.69,156.71,253.44,223.04,231.58,-60.2,-88.84,-77.11,136.69,156.71,188.52,0,51.83,-0.23
dw_cut_4_n1_ch3_opt_disp_struct_10.xyz,Nucleus 13C :,3.968893,-5.889966,2.524807,50.83,163.39,46.53,-57.44,227.41,260.61,274.11,-64.85,-227.42,-317.38,-57.44,46.53,163.39,0,220.83,-0.06
dw_cut_4_n1_ch3_opt_disp_struct_10.xyz,Nucleus 15C :,2.885623,-4.828957,2.441376,65.74,169.19,54.05,-26.02,246.94,273.2,265.73,-78.34,-216.85,-293.47,-26.02,54.05,169.19,0,195.21,-0.18
dw_cut_4_n1_ch3_opt_disp_struct_10.xyz,Nucleus 22C :,1.970603,-4.939049,3.307443,159.76,123.06,192.14,164.07,252.89,220.9,224.89,-97.89,-52.95,-68.55,123.06,164.07,192.14,0,69.08,0.19
dw_cut_4_n1_ch3_opt_disp_struct_10.xyz,Nucleus 23C :,3.033381,-3.964059,1.533868,2.94,-86.14,67.33,27.64,204.99,256.56,266.14,-137.68,-342.73,-238.46,-86.14,27.64,67.33,0,153.47,0.48
dw_cut_4_n1_ch3_opt_disp_struct_10.xyz,Nucleus 5N :,3.524027,-6.884583,2.39713,121.41,61.23,168.82,134.18,297.77,337.26,331.87,-129.76,-202.57,-270.35,61.23,134.18,168.82,0,107.59,0.36
dw_cut_4_n1_ch3_opt_disp_struct_10.xyz,Nucleus 24O :,4.75174,-5.747106,1.77226,-12.7,233.87,-26.0,-245.96,398.5,418.0,421.82,-184.51,-434.02,-657.89,-245.96,-26.0,233.87,0,479.83,-0.08
dw_cut_4_n1_ch3_opt_disp_struct_10.xyz,Nucleus 25O :,4.422858,-5.877012,3.523209,-45.66,201.52,-282.79,-55.72,402.13,437.72,429.31,-236.09,-699.64,-470.42,-282.79,-55.72,201.52,0,484.31,-0.06
dw_cut_4_n1_ch3_opt_disp_struct_11.xyz,Nucleus 1H :,1.01835,0.036946,-1.340447,29.25,35.14,23.65,28.96,39.74,27.75,29.44,-6.06,-0.21,-2.9,23.65,28.96,35.14,0,11.49,-0.08
dw_cut_4_n1_ch3_opt_disp_struct_11.xyz,Nucleus 2H :,1.74618,0.738439,-1.764412,28.66,35.06,24.26,26.65,46.21,24.23,27.98,-12.3,2.07,-2.22,24.26,26.65,35.06,0,10.8,-0.56
dw_cut_4_n1_ch3_opt_disp_struct_11.xyz,Nucleus 6H :,1.331999,-0.9798,-1.61961,24.38,16.55,25.3,31.28,49.61,15.94,31.14,-18.58,0.74,-5.71,16.55,25.3,31.28,0,14.73,0.19
dw_cut_4_n1_ch3_opt_disp_struct_11.xyz,Nucleus 10H :,0.925748,0.186522,0.133637,23.8,29.88,19.2,22.31,32.33,39.01,51.65,-2.73,-18.73,-30.13,19.2,22.31,29.88,0,10.68,-0.42
dw_cut_4_n1_ch3_opt_disp_struct_11.xyz,Nucleus 14H :,1.723543,0.984233,0.930802,24.02,28.68,20.09,23.28,9.06,32.18,46.55,-23.32,11.11,-3.52,20.09,23.28,28.68,0,8.59,-0.26
dw_cut_4_n1_ch3_opt_disp_struct_11.xyz,Nucleus 16H :,1.34634,0.799535,2.233544,24.11,19.63,28.01,24.68,11.26,31.86,47.92,-23.29,8.47,-3.89,19.63,24.68,28.01,0,8.38,0.2
dw_cut_4_n1_ch3_opt_disp_struct_11.xyz,Nucleus 17H :,1.7155,1.304238,3.017512,24.47,21.03,25.35,27.02,44.94,28.55,31.64,-19.46,-7.59,-4.69,21.03,25.35,27.02,0,5.99,0.44
dw_cut_4_n1_ch3_opt_disp_struct_11.xyz,Nucleus 18H :,0.299236,-0.08643,2.30707,29.1,35.36,27.76,24.17,43.81,26.91,33.72,0.31,-11.27,-6.17,24.17,27.76,35.36,0,11.19,-0.36
dw_cut_4_n1_ch3_opt_disp_struct_11.xyz,Nucleus 19H :,0.010759,-0.489276,1.004272,29.27,23.92,29.59,34.29,41.66,22.69,27.75,-8.04,2.36,1.38,23.92,29.59,34.29,0,10.37,0.09
dw_cut_4_n1_ch3_opt_disp_struct_11.xyz,Nucleus 20H :,-1.016968,-1.436204,0.805711,28.98,34.88,24.04,28.03,40.2,13.38,25.89,11.01,-5.62,2.1,24.04,28.03,34.88,0,10.84,-0.26
dw_cut_4_n1_ch3_opt_disp_struct_11.xyz,Nucleus 21H :,-1.230804,-1.803306,-0.195718,28.26,24.43,26.33,34.01,12.96,25.21,40.46,11.59,1.16,-6.6,24.43,26.33,34.01,0,9.58,-0.6
dw_cut_4_n1_ch3_opt_disp_struct_11.xyz,Nucleus 26H :,-1.706074,-1.965294,1.909417,29.95,27.19,29.45,33.2,14.93,21.56,38.37,12.93,7.47,-5.41,27.19,29.45,33.2,0,6.01,-0.25
dw_cut_4_n1_ch3_opt_disp_struct_11.xyz,Nucleus 27H :,-2.746939,-3.030357,1.725261,30.4,34.58,26.19,30.44,39.05,13.45,26.38,-4.64,12.74,4.23,26.19,30.44,34.58,0,8.39,0.01
dw_cut_4_n1_ch3_opt_disp_struct_11.xyz,Nucleus 28H :,-1.381996,-1.534529,3.199434,29.97,33.22,29.54,27.16,38.61,20.75,14.04,-5.56,8.33,13.74,27.16,29.54,33.22,0,6.06,-0.21
dw_cut_4_n1_ch3_opt_disp_struct_11.xyz,Nucleus 0C :,-1.89858,-1.969716,4.050159,172.14,160.59,167.86,187.96,236.11,243.42,256.45,-66.19,-78.05,-75.33,160.59,167.86,187.96,0,27.37,-0.47
dw_cut_4_n1_ch3_opt_disp_struct_11.xyz,Nucleus 3C :,-0.381346,-0.584137,3.422605,63.32,149.05,52.5,-11.6,242.17,262.03,274.8,-93.5,-221.0,-274.56,-11.6,52.5,149.05,0,160.65,-0.2
dw_cut_4_n1_ch3_opt_disp_struct_11.xyz,Nucleus 4C :,-0.093377,-0.310143,4.433786,58.27,-26.36,127.02,74.14,255.09,265.43,273.49,-292.4,-132.6,-194.21,-26.36,74.14,127.02,0,153.38,0.31
dw_cut_4_n1_ch3_opt_disp_struct_11.xyz,Nucleus 7C :,2.54249,1.638152,0.663504,42.42,143.1,-36.55,20.71,264.08,276.07,271.86,-128.18,-308.31,-248.26,-36.55,20.71,143.1,0,179.65,-0.36
dw_cut_4_n1_ch3_opt_disp_struct_11.xyz,Nucleus 8C :,0.05306,0.219642,-1.830981,48.17,168.2,-0.21,-23.48,224.92,263.94,258.7,-56.81,-263.68,-282.57,-23.48,-0.21,168.2,0,191.68,-0.76
dw_cut_4_n1_ch3_opt_disp_struct_11.xyz,Nucleus 9C :,-2.998952,-3.159816,0.667176,54.7,158.48,49.68,-44.07,250.47,272.97,268.11,-93.61,-220.87,-312.98,-44.07,49.68,158.48,0,202.55,-0.07
dw_cut_4_n1_ch3_opt_disp_struct_11.xyz,Nucleus 11C :,-3.673003,-2.79407,2.265307,45.59,172.95,-60.36,24.19,231.68,263.98,272.92,-58.74,-325.36,-247.71,-60.36,24.19,172.95,0,233.31,-0.28
dw_cut_4_n1_ch3_opt_disp_struct_11.xyz,Nucleus 12C :,-2.38546,-3.996963,2.106193,160.66,188.5,136.76,156.71,253.46,222.99,231.33,-60.24,-88.51,-77.05,136.76,156.71,188.5,0,51.74,-0.23
dw_cut_4_n1_ch3_opt_disp_struct_11.xyz,Nucleus 13C :,4.137224,-6.073766,2.544368,50.97,163.4,46.69,-57.17,227.75,260.23,273.85,-64.96,-226.99,-316.96,-57.17,46.69,163.4,0,220.57,-0.06
dw_cut_4_n1_ch3_opt_disp_struct_11.xyz,Nucleus 15C :,3.053954,-5.012756,2.460936,65.72,169.23,53.93,-25.99,246.8,273.13,265.31,-78.05,-216.86,-293.16,-25.99,53.93,169.23,0,195.22,-0.18
dw_cut_4_n1_ch3_opt_disp_struct_11.xyz,Nucleus 22C :,2.138934,-5.122848,3.327003,159.74,123.03,192.06,164.12,252.76,221.49,225.54,-98.52,-53.61,-68.46,123.03,164.12,192.06,0,69.03,0.19
dw_cut_4_n1_ch3_opt_disp_struct_11.xyz,Nucleus 23C :,3.201712,-4.147858,1.553428,2.9,-86.36,67.31,27.76,204.52,256.19,266.31,-137.22,-342.56,-238.53,-86.36,27.76,67.31,0,153.67,0.49
dw_cut_4_n1_ch3_opt_disp_struct_11.xyz,Nucleus 5N :,3.692358,-7.068382,2.41669,121.18,60.89,168.87,133.77,297.74,337.1,331.84,-129.65,-202.88,-270.62,60.89,133.77,168.87,0,107.98,0.35
dw_cut_4_n1_ch3_opt_disp_struct_11.xyz,Nucleus 24O :,4.920071,-5.930905,1.79182,-12.94,234.32,-26.41,-246.72,398.34,417.3,422.62,-183.29,-434.63,-659.15,-246.72,-26.41,234.32,0,481.04,-0.08
dw_cut_4_n1_ch3_opt_disp_struct_11.xyz,Nucleus 25O :,4.591189,-6.060811,3.542769,-45.94,201.53,-283.13,-56.23,402.21,439.5,430.09,-237.86,-701.31,-470.46,-283.13,-56.23,201.53,0,484.66,-0.06
dw_cut_4_n1_ch3_opt_disp_struct_12.xyz,Nucleus 1H :,1.01835,0.036946,-1.340447,29.23,35.12,23.63,28.95,39.7,27.68,29.42,-6.01,-0.2,-2.9,23.63,28.95,35.12,0,11.49,-0.07
dw_cut_4_n1_ch3_opt_disp_struct_12.xyz,Nucleus 2H :,1.74618,0.738439,-1.764412,28.67,35.1,24.27,26.63,46.17,24.19,27.93,-12.21,2.12,-2.19,24.27,26.63,35.1,0,10.83,-0.57
dw_cut_4_n1_ch3_opt_disp_struct_12.xyz,Nucleus 6H :,1.331999,-0.9798,-1.61961,24.35,16.52,25.29,31.25,49.53,15.88,31.1,-18.52,0.76,-5.69,16.52,25.29,31.25,0,14.73,0.19
dw_cut_4_n1_ch3_opt_disp_struct_12.xyz,Nucleus 10H :,0.925748,0.186522,0.133637,23.79,29.89,19.16,22.31,32.31,38.95,51.44,-2.7,-18.75,-29.89,19.16,22.31,29.89,0,10.73,-0.41
dw_cut_4_n1_ch3_opt_disp_struct_12.xyz,Nucleus 14H :,1.723543,0.984233,0.930802,24.01,28.69,20.06,23.29,9.22,32.08,46.5,-23.27,10.91,-3.4,20.06,23.29,28.69,0,8.63,-0.25
dw_cut_4_n1_ch3_opt_disp_struct_12.xyz,Nucleus 16H :,1.34634,0.799535,2.233544,24.09,19.59,28.01,24.68,11.32,31.83,47.81,-23.18,8.36,-3.86,19.59,24.68,28.01,0,8.42,0.21
dw_cut_4_n1_ch3_opt_disp_struct_12.xyz,Nucleus 17H :,1.7155,1.304238,3.017512,24.44,20.99,25.32,27.02,44.87,28.51,31.61,-19.41,-7.59,-4.67,20.99,25.32,27.02,0,6.03,0.44
dw_cut_4_n1_ch3_opt_disp_struct_12.xyz,Nucleus 18H :,0.299236,-0.08643,2.30707,29.09,35.35,27.75,24.17,43.77,26.87,33.64,0.34,-11.2,-6.15,24.17,27.75,35.35,0,11.18,-0.36
dw_cut_4_n1_ch3_opt_disp_struct_12.xyz,Nucleus 19H :,0.010759,-0.489276,1.004272,29.25,23.9,29.57,34.28,41.62,22.59,27.69,-8.0,2.42,1.42,23.9,29.57,34.28,0,10.38,0.09
dw_cut_4_n1_ch3_opt_disp_struct_12.xyz,Nucleus 20H :,-1.016968,-1.436204,0.805711,28.97,34.85,24.03,28.02,40.13,13.38,25.82,10.99,-5.58,2.16,24.03,28.02,34.85,0,10.82,-0.26
dw_cut_4_n1_ch3_opt_disp_struct_12.xyz,Nucleus 21H :,-1.230804,-1.803306,-0.195718,28.27,24.42,26.33,34.06,12.95,25.14,40.43,11.58,1.23,-6.52,24.42,26.33,34.06,0,9.64,-0.6
dw_cut_4_n1_ch3_opt_disp_struct_12.xyz,Nucleus 26H :,-1.706074,-1.965294,1.909417,29.93,27.2,29.46,33.14,14.61,21.67,38.33,13.26,7.36,-5.44,27.2,29.46,33.14,0,5.94,-0.24
dw_cut_4_n1_ch3_opt_disp_struct_12.xyz,Nucleus 27H :,-2.746939,-3.030357,1.725261,30.39,34.54,26.22,30.41,39.16,13.23,26.26,-4.79,12.99,4.31,26.22,30.41,34.54,0,8.32,0.01
dw_cut_4_n1_ch3_opt_disp_struct_12.xyz,Nucleus 28H :,-1.381996,-1.534529,3.199434,29.96,33.15,29.55,27.17,38.56,20.86,13.78,-5.58,8.23,14.01,27.17,29.55,33.15,0,5.98,-0.21
dw_cut_4_n1_ch3_opt_disp_struct_12.xyz,Nucleus 0C :,-1.89858,-1.969716,4.050159,172.17,160.62,167.94,187.94,236.02,243.26,256.51,-66.26,-77.88,-75.15,160.62,167.94,187.94,0,27.32,-0.46
dw_cut_4_n1_ch3_opt_disp_struct_12.xyz,Nucleus 3C :,-0.381346,-0.584137,3.422605,63.32,149.01,52.47,-11.52,242.09,262.0,274.54,-93.43,-220.81,-274.44,-11.52,52.47,149.01,0,160.53,-0.2
dw_cut_4_n1_ch3_opt_disp_struct_12.xyz,Nucleus 4C :,-0.093377,-0.310143,4.433786,58.05,-26.66,127.07,73.73,254.98,265.35,273.46,-292.63,-132.52,-194.5,-26.66,73.73,127.07,0,153.73,0.31
dw_cut_4_n1_ch3_opt_disp_struct_12.xyz,Nucleus 7C :,2.54249,1.638152,0.663504,42.5,143.09,-36.35,20.76,264.05,275.78,271.39,-127.76,-307.77,-248.19,-36.35,20.76,143.09,0,179.44,-0.36
dw_cut_4_n1_ch3_opt_disp_struct_12.xyz,Nucleus 8C :,0.05306,0.219642,-1.830981,48.25,168.15,-0.1,-23.3,225.04,263.69,258.64,-56.96,-263.23,-282.43,-23.3,-0.1,168.15,0,191.45,-0.76
dw_cut_4_n1_ch3_opt_disp_struct_12.xyz,Nucleus 9C :,-2.998952,-3.159816,0.667176,54.74,158.51,49.64,-43.92,250.24,272.74,267.85,-93.31,-220.85,-312.44,-43.92,49.64,158.51,0,202.43,-0.08
dw_cut_4_n1_ch3_opt_disp_struct_12.xyz,Nucleus 11C :,-3.673003,-2.79407,2.265307,45.51,172.96,-60.34,23.92,231.83,263.74,272.86,-58.88,-325.06,-247.96,-60.34,23.92,172.96,0,233.3,-0.28
dw_cut_4_n1_ch3_opt_disp_struct_12.xyz,Nucleus 12C :,-2.38546,-3.996963,2.106193,160.67,188.48,136.83,156.71,253.48,222.94,231.1,-60.29,-88.21,-77.02,136.83,156.71,188.48,0,51.65,-0.23
dw_cut_4_n1_ch3_opt_disp_struct_12.xyz,Nucleus 13C :,4.305555,-6.257565,2.563928,51.09,163.41,46.82,-56.96,227.99,259.96,273.64,-65.03,-226.66,-316.63,-56.96,46.82,163.41,0,220.37,-0.06
dw_cut_4_n1_ch3_opt_disp_struct_12.xyz,Nucleus 15C :,3.222285,-5.196555,2.480497,65.71,169.27,53.82,-25.97,246.68,273.06,264.95,-77.78,-216.9,-292.9,-25.97,53.82,169.27,0,195.24,-0.18
dw_cut_4_n1_ch3_opt_disp_struct_12.xyz,Nucleus 22C :,2.307265,-5.306647,3.346564,159.72,123.0,191.99,164.17,252.65,221.93,226.0,-98.98,-54.11,-68.33,123.0,164.17,191.99,0,68.99,0.19
dw_cut_4_n1_ch3_opt_disp_struct_12.xyz,Nucleus 23C :,3.370042,-4.331657,1.572989,2.85,-86.56,67.26,27.84,204.13,255.87,266.51,-136.88,-342.42,-238.66,-86.56,27.84,67.26,0,153.82,0.49
dw_cut_4_n1_ch3_opt_disp_struct_12.xyz,Nucleus 5N :,3.860689,-7.252181,2.43625,121.01,60.63,168.94,133.45,297.74,336.97,331.75,-129.55,-203.13,-270.77,60.63,133.45,168.94,0,108.31,0.34
dw_cut_4_n1_ch3_opt_disp_struct_12.xyz,Nucleus 24O :,5.088402,-6.114705,1.81138,-13.23,234.7,-26.88,-247.51,398.2,416.74,423.37,-182.34,-435.25,-660.41,-247.51,-26.88,234.7,0,482.21,-0.08
dw_cut_4_n1_ch3_opt_disp_struct_12.xyz,Nucleus 25O :,4.759519,-6.24461,3.56233,-46.23,201.68,-283.67,-56.7,402.24,441.03,430.85,-239.23,-703.1,-470.48,-283.67,-56.7,201.68,0,485.35,-0.06
dw_cut_4_n1_ch3_opt_disp_struct_13.xyz,Nucleus 1H :,1.01835,0.036946,-1.340447,29.22,35.11,23.61,28.93,39.67,27.62,29.41,-5.97,-0.19,-2.89,23.61,28.93,35.11,0,11.5,-0.08
dw_cut_4_n1_ch3_opt_disp_struct_13.xyz,Nucleus 2H :,1.74618,0.738439,-1.764412,28.68,35.13,24.27,26.63,46.12,24.16,27.87,-12.12,2.17,-2.16,24.27,26.63,35.13,0,10.86,-0.57
dw_cut_4_n1_ch3_opt_disp_struct_13.xyz,Nucleus 6H :,1.331999,-0.9798,-1.61961,24.34,16.49,25.28,31.24,49.45,15.83,31.07,-18.45,0.77,-5.66,16.49,25.28,31.24,0,14.75,0.19
dw_cut_4_n1_ch3_opt_disp_struct_13.xyz,Nucleus 10H :,0.925748,0.186522,0.133637,23.78,29.89,19.13,22.31,32.31,38.9,51.24,-2.68,-18.76,-29.68,19.13,22.31,29.89,0,10.76,-0.41
dw_cut_4_n1_ch3_opt_disp_struct_13.xyz,Nucleus 14H :,1.723543,0.984233,0.930802,24.01,28.71,20.03,23.29,9.34,31.98,46.46,-23.22,10.75,-3.3,20.03,23.29,28.71,0,8.68,-0.25
dw_cut_4_n1_ch3_opt_disp_struct_13.xyz,Nucleus 16H :,1.34634,0.799535,2.233544,24.09,19.56,28.02,24.68,11.38,31.81,47.7,-23.07,8.26,-3.83,19.56,24.68,28.02,0,8.46,0.21
dw_cut_4_n1_ch3_opt_disp_struct_13.xyz,Nucleus 17H :,1.7155,1.304238,3.017512,24.43,20.96,25.3,27.02,44.81,28.48,31.59,-19.36,-7.58,-4.65,20.96,25.3,27.02,0,6.06,0.43
dw_cut_4_n1_ch3_opt_disp_struct_13.xyz,Nucleus 18H :,0.299236,-0.08643,2.30707,29.08,35.34,27.75,24.16,43.74,26.83,33.57,0.37,-11.13,-6.12,24.16,27.75,35.34,0,11.18,-0.36
dw_cut_4_n1_ch3_opt_disp_struct_13.xyz,Nucleus 19H :,0.010759,-0.489276,1.004272,29.24,23.88,29.56,34.27,41.58,22.5,27.64,-7.95,2.47,1.46,23.88,29.56,34.27,0,10.39,0.09
dw_cut_4_n1_ch3_opt_disp_struct_13.xyz,Nucleus 20H :,-1.016968,-1.436204,0.805711,28.95,34.83,24.02,28.01,40.07,13.38,25.76,10.97,-5.55,2.22,24.02,28.01,34.83,0,10.81,-0.26
dw_cut_4_n1_ch3_opt_disp_struct_13.xyz,Nucleus 21H :,-1.230804,-1.803306,-0.195718,28.28,24.41,26.34,34.1,12.93,25.06,40.41,11.58,1.31,-6.45,24.41,26.34,34.1,0,9.69,-0.6
dw_cut_4_n1_ch3_opt_disp_struct_13.xyz,Nucleus 26H :,-1.706074,-1.965294,1.909417,29.92,27.21,29.46,33.08,14.26,21.75,38.29,13.62,7.29,-5.46,27.21,29.46,33.08,0,5.87,-0.24
dw_cut_4_n1_ch3_opt_disp_struct_13.xyz,Nucleus 27H :,-2.746939,-3.030357,1.725261,30.37,34.51,26.24,30.37,39.25,12.93,26.12,-4.92,13.32,4.42,26.24,30.37,34.51,0,8.27,0.0
dw_cut_4_n1_ch3_opt_disp_struct_13.xyz,Nucleus 28H :,-1.381996,-1.534529,3.199434,29.94,33.09,29.55,27.18,38.51,20.94,13.49,-5.59,8.16,14.32,27.18,29.55,33.09,0,5.91,-0.2
dw_cut_4_n1_ch3_opt_disp_struct_13.xyz,Nucleus 0C :,-1.89858,-1.969716,4.050159,172.19,160.64,168.01,187.93,235.94,243.12,256.56,-66.32,-77.73,-75.0,160.64,168.01,187.93,0,27.29,-0.46
dw_cut_4_n1_ch3_opt_disp_struct_13.xyz,Nucleus 3C :,-0.381346,-0.584137,3.422605,63.32,148.97,52.44,-11.46,242.03,261.99,274.36,-93.37,-220.69,-274.36,-11.46,52.44,148.97,0,160.43,-0.2
dw_cut_4_n1_ch3_opt_disp_struct_13.xyz,Nucleus 4C :,-0.093377,-0.310143,4.433786,57.86,-26.92,127.11,73.38,254.92,265.22,273.44,-292.81,-132.45,-194.73,-26.92,73.38,127.11,0,154.03,0.3
dw_cut_4_n1_ch3_opt_disp_struct_13.xyz,Nucleus 7C :,2.54249,1.638152,0.663504,42.57,143.09,-36.19,20.8,264.05,275.48,271.0,-127.41,-307.31,-248.1,-36.19,20.8,143.09,0,179.28,-0.36
dw_cut_4_n1_ch3_opt_disp_struct_13.xyz,Nucleus 8C :,0.05306,0.219642,-1.830981,48.31,168.09,-0.02,-23.15,225.12,263.51,258.58,-57.08,-262.91,-282.29,-23.15,-0.02,168.09,0,191.24,-0.76
dw_cut_4_n1_ch3_opt_disp_struct_13.xyz,Nucleus 9C :,-2.998952,-3.159816,0.667176,54.79,158.53,49.61,-43.78,250.08,272.53,267.65,-93.07,-220.85,-311.97,-43.78,49.61,158.53,0,202.31,-0.08
dw_cut_4_n1_ch3_opt_disp_struct_13.xyz,Nucleus 11C :,-3.673003,-2.79407,2.265307,45.44,172.96,-60.32,23.69,231.97,263.53,272.83,-59.0,-324.81,-248.19,-60.32,23.69,172.96,0,233.28,-0.28
dw_cut_4_n1_ch3_opt_disp_struct_13.xyz,Nucleus 12C :,-2.38546,-3.996963,2.106193,160.68,188.47,136.88,156.7,253.5,222.92,230.89,-60.32,-87.96,-76.98,136.88,156.7,188.47,0,51.59,-0.23
dw_cut_4_n1_ch3_opt_disp_struct_13.xyz,Nucleus 13C :,4.473885,-6.441364,2.583489,51.19,163.43,46.92,-56.78,228.15,259.76,273.47,-65.08,-226.39,-316.35,-56.78,46.92,163.43,0,220.21,-0.06
dw_cut_4_n1_ch3_opt_disp_struct_13.xyz,Nucleus 15C :,3.390615,-5.380355,2.500057,65.7,169.31,53.73,-25.94,246.56,273.01,264.64,-77.53,-216.93,-292.66,-25.94,53.73,169.31,0,195.25,-0.18
dw_cut_4_n1_ch3_opt_disp_struct_13.xyz,Nucleus 22C :,2.475595,-5.490446,3.366124,159.7,122.97,191.93,164.21,252.57,222.14,226.24,-99.22,-54.46,-68.15,122.97,164.21,191.93,0,68.96,0.2
dw_cut_4_n1_ch3_opt_disp_struct_13.xyz,Nucleus 23C :,3.538373,-4.515456,1.592549,2.79,-86.73,67.22,27.89,203.86,255.58,266.75,-136.65,-342.31,-238.86,-86.73,27.89,67.22,0,153.95,0.49
dw_cut_4_n1_ch3_opt_disp_struct_13.xyz,Nucleus 5N :,4.029019,-7.435981,2.455811,120.87,60.42,169.0,133.18,297.77,336.88,331.63,-129.47,-203.34,-270.86,60.42,133.18,169.0,0,108.58,0.34
dw_cut_4_n1_ch3_opt_disp_struct_13.xyz,Nucleus 24O :,5.256733,-6.298504,1.830941,-13.52,235.02,-27.31,-248.27,398.06,416.43,424.02,-181.7,-435.79,-661.57,-248.27,-27.31,235.02,0,483.29,-0.09
dw_cut_4_n1_ch3_opt_disp_struct_13.xyz,Nucleus 25O :,4.92785,-6.428409,3.58189,-46.45,201.91,-284.2,-57.06,402.24,442.34,431.56,-240.31,-704.75,-470.44,-284.2,-57.06,201.91,0,486.11,-0.07
dw_cut_4_n1_ch3_opt_disp_struct_14.xyz,Nucleus 1H :,1.01835,0.036946,-1.340447,29.2,35.1,23.59,28.92,39.65,27.56,29.39,-5.94,-0.17,-2.89,23.59,28.92,35.1,0,11.51,-0.07
dw_cut_4_n1_ch3_opt_disp_struct_14.xyz,Nucleus 2H :,1.74618,0.738439,-1.764412,28.69,35.17,24.28,26.62,46.08,24.13,27.82,-12.04,2.21,-2.13,24.28,26.62,35.17,0,10.89,-0.57
dw_cut_4_n1_ch3_opt_disp_struct_14.xyz,Nucleus 6H :,1.331999,-0.9798,-1.61961,24.32,16.46,25.27,31.23,49.38,15.79,31.03,-18.38,0.78,-5.64,16.46,25.27,31.23,0,14.77,0.19
dw_cut_4_n1_ch3_opt_disp_struct_14.xyz,Nucleus 10H :,0.925748,0.186522,0.133637,23.77,29.9,19.1,22.31,32.34,38.85,51.07,-2.68,-18.78,-29.48,19.1,22.31,29.9,0,10.8,-0.41
dw_cut_4_n1_ch3_opt_disp_struct_14.xyz,Nucleus 14H :,1.723543,0.984233,0.930802,24.01,28.72,20.0,23.3,9.44,31.91,46.43,-23.18,10.63,-3.21,20.0,23.3,28.72,0,8.72,-0.24
dw_cut_4_n1_ch3_opt_disp_struct_14.xyz,Nucleus 16H :,1.34634,0.799535,2.233544,24.08,19.52,28.03,24.68,11.42,31.8,47.61,-22.97,8.18,-3.81,19.52,24.68,28.03,0,8.51,0.21
dw_cut_4_n1_ch3_opt_disp_struct_14.xyz,Nucleus 17H :,1.7155,1.304238,3.017512,24.41,20.93,25.29,27.02,44.76,28.45,31.56,-19.32,-7.58,-4.63,20.93,25.29,27.02,0,6.09,0.43
dw_cut_4_n1_ch3_opt_disp_struct_14.xyz,Nucleus 18H :,0.299236,-0.08643,2.30707,29.08,35.33,27.74,24.16,43.71,26.79,33.5,0.39,-11.07,-6.09,24.16,27.74,35.33,0,11.17,-0.36
dw_cut_4_n1_ch3_opt_disp_struct_14.xyz,Nucleus 19H :,0.010759,-0.489276,1.004272,29.22,23.86,29.55,34.26,41.54,22.43,27.6,-7.91,2.5,1.5,23.86,29.55,34.26,0,10.4,0.1
dw_cut_4_n1_ch3_opt_disp_struct_14.xyz,Nucleus 20H :,-1.016968,-1.436204,0.805711,28.94,34.81,24.01,28.0,40.02,13.37,25.72,10.97,-5.51,2.26,24.01,28.0,34.81,0,10.8,-0.26
dw_cut_4_n1_ch3_opt_disp_struct_14.xyz,Nucleus 21H :,-1.230804,-1.803306,-0.195718,28.3,24.4,26.35,34.14,12.92,24.99,40.39,11.58,1.39,-6.38,24.4,26.35,34.14,0,9.74,-0.6
dw_cut_4_n1_ch3_opt_disp_struct_14.xyz,Nucleus 26H :,-1.706074,-1.965294,1.909417,29.91,27.22,29.47,33.03,13.86,21.79,38.24,14.05,7.26,-5.47,27.22,29.47,33.03,0,5.81,-0.23
dw_cut_4_n1_ch3_opt_disp_struct_14.xyz,Nucleus 27H :,-2.746939,-3.030357,1.725261,30.36,34.48,26.26,30.34,39.33,12.54,25.95,-5.03,13.72,4.56,26.26,30.34,34.48,0,8.22,-0.01
dw_cut_4_n1_ch3_opt_disp_struct_14.xyz,Nucleus 28H :,-1.381996,-1.534529,3.199434,29.93,33.04,29.55,27.19,38.45,20.98,13.13,-5.59,8.12,14.69,27.19,29.55,33.04,0,5.85,-0.19
dw_cut_4_n1_ch3_opt_disp_struct_14.xyz,Nucleus 0C :,-1.89858,-1.969716,4.050159,172.21,160.65,168.07,187.91,235.86,242.99,256.61,-66.37,-77.6,-74.86,160.65,168.07,187.91,0,27.26,-0.46
dw_cut_4_n1_ch3_opt_disp_struct_14.xyz,Nucleus 3C :,-0.381346,-0.584137,3.422605,63.32,148.94,52.41,-11.4,241.99,261.99,274.21,-93.33,-220.61,-274.3,-11.4,52.41,148.94,0,160.34,-0.2
dw_cut_4_n1_ch3_opt_disp_struct_14.xyz,Nucleus 4C :,-0.093377,-0.310143,4.433786,57.7,-27.14,127.15,73.08,254.94,265.02,273.41,-292.95,-132.4,-194.93,-27.14,73.08,127.15,0,154.29,0.3
dw_cut_4_n1_ch3_opt_disp_struct_14.xyz,Nucleus 7C :,2.54249,1.638152,0.663504,42.63,143.09,-36.04,20.83,264.07,275.19,270.68,-127.14,-306.93,-248.0,-36.04,20.83,143.09,0,179.13,-0.37
dw_cut_4_n1_ch3_opt_disp_struct_14.xyz,Nucleus 8C :,0.05306,0.219642,-1.830981,48.36,168.05,0.05,-23.02,225.17,263.39,258.52,-57.16,-262.7,-282.14,-23.02,0.05,168.05,0,191.07,-0.76
dw_cut_4_n1_ch3_opt_disp_struct_14.xyz,Nucleus 9C :,-2.998952,-3.159816,0.667176,54.82,158.55,49.58,-43.67,249.99,272.3,267.53,-92.89,-220.87,-311.6,-43.67,49.58,158.55,0,202.22,-0.08
dw_cut_4_n1_ch3_opt_disp_struct_14.xyz,Nucleus 11C :,-3.673003,-2.79407,2.265307,45.39,172.97,-60.31,23.5,232.09,263.35,272.84,-59.12,-324.59,-248.4,-60.31,23.5,172.97,0,233.28,-0.28
dw_cut_4_n1_ch3_opt_disp_struct_14.xyz,Nucleus 12C :,-2.38546,-3.996963,2.106193,160.69,188.45,136.93,156.7,253.52,222.9,230.71,-60.37,-87.74,-76.95,136.93,156.7,188.45,0,51.52,-0.23
dw_cut_4_n1_ch3_opt_disp_struct_14.xyz,Nucleus 13C :,4.642216,-6.625163,2.603049,51.26,163.44,46.99,-56.64,228.28,259.6,273.36,-65.14,-226.19,-316.11,-56.64,46.99,163.44,0,220.08,-0.06
dw_cut_4_n1_ch3_opt_disp_struct_14.xyz,Nucleus 15C :,3.558946,-5.564154,2.519618,65.69,169.34,53.64,-25.92,246.43,272.96,264.38,-77.3,-216.96,-292.45,-25.92,53.64,169.34,0,195.26,-0.19
dw_cut_4_n1_ch3_opt_disp_struct_14.xyz,Nucleus 22C :,2.643926,-5.674245,3.385685,159.68,122.94,191.87,164.24,252.51,222.05,226.21,-99.16,-54.65,-67.92,122.94,164.24,191.87,0,68.93,0.2
dw_cut_4_n1_ch3_opt_disp_struct_14.xyz,Nucleus 23C :,3.706704,-4.699255,1.61211,2.74,-86.88,67.19,27.9,203.66,255.34,267.04,-136.48,-342.22,-239.14,-86.88,27.9,67.19,0,154.07,0.49
dw_cut_4_n1_ch3_opt_disp_struct_14.xyz,Nucleus 5N :,4.19735,-7.61978,2.475371,120.75,60.23,169.05,132.96,297.82,336.8,331.48,-129.43,-203.53,-270.92,60.23,132.96,169.05,0,108.82,0.34
dw_cut_4_n1_ch3_opt_disp_struct_14.xyz,Nucleus 24O :,5.425064,-6.482303,1.850501,-13.76,235.34,-27.68,-248.94,397.92,416.61,424.55,-181.58,-436.25,-662.54,-248.94,-27.68,235.34,0,484.28,-0.09
dw_cut_4_n1_ch3_opt_disp_struct_14.xyz,Nucleus 25O :,5.096181,-6.612209,3.601451,-46.61,202.19,-284.67,-57.35,402.19,443.57,432.18,-241.24,-706.16,-470.35,-284.67,-57.35,202.19,0,486.86,-0.07
dw_cut_4_n1_ch3_opt_disp_struct_15.xyz,Nucleus 1H :,1.01835,0.036946,-1.340447,29.19,35.09,23.57,28.92,39.63,27.51,29.37,-5.91,-0.15,-2.88,23.57,28.92,35.09,0,11.52,-0.07
dw_cut_4_n1_ch3_opt_disp_struct_15.xyz,Nucleus 2H :,1.74618,0.738439,-1.764412,28.7,35.2,24.28,26.62,46.04,24.12,27.78,-11.97,2.24,-2.09,24.28,26.62,35.2,0,10.92,-0.57
dw_cut_4_n1_ch3_opt_disp_struct_15.xyz,Nucleus 6H :,1.331999,-0.9798,-1.61961,24.31,16.44,25.26,31.22,49.31,15.76,31.0,-18.31,0.78,-5.61,16.44,25.26,31.22,0,14.78,0.19
dw_cut_4_n1_ch3_opt_disp_struct_15.xyz,Nucleus 10H :,0.925748,0.186522,0.133637,23.77,29.91,19.08,22.31,32.37,38.8,50.91,-2.69,-18.79,-29.31,19.08,22.31,29.91,0,10.83,-0.4
dw_cut_4_n1_ch3_opt_disp_struct_15.xyz,Nucleus 14H :,1.723543,0.984233,0.930802,24.0,28.73,19.98,23.3,9.52,31.85,46.4,-23.14,10.52,-3.14,19.98,23.3,28.73,0,8.75,-0.24
dw_cut_4_n1_ch3_opt_disp_struct_15.xyz,Nucleus 16H :,1.34634,0.799535,2.233544,24.07,19.49,28.04,24.69,11.46,31.79,47.52,-22.88,8.11,-3.79,19.49,24.69,28.04,0,8.55,0.22
dw_cut_4_n1_ch3_opt_disp_struct_15.xyz,Nucleus 17H :,1.7155,1.304238,3.017512,24.4,20.9,25.28,27.01,44.71,28.42,31.53,-19.28,-7.58,-4.6,20.9,25.28,27.01,0,6.11,0.43
dw_cut_4_n1_ch3_opt_disp_struct_15.xyz,Nucleus 18H :,0.299236,-0.08643,2.30707,29.07,35.32,27.74,24.15,43.68,26.76,33.44,0.4,-11.02,-6.06,24.15,27.74,35.32,0,11.17,-0.36
dw_cut_4_n1_ch3_opt_disp_struct_15.xyz,Nucleus 19H :,0.010759,-0.489276,1.004272,29.21,23.84,29.54,34.25,41.51,22.36,27.57,-7.87,2.53,1.54,23.84,29.54,34.25,0,10.41,0.1
dw_cut_4_n1_ch3_opt_disp_struct_15.xyz,Nucleus 20H :,-1.016968,-1.436204,0.805711,28.93,34.79,24.0,27.99,39.97,13.35,25.68,10.96,-5.48,2.29,24.0,27.99,34.79,0,10.79,-0.26
dw_cut_4_n1_ch3_opt_disp_struct_15.xyz,Nucleus 21H :,-1.230804,-1.803306,-0.195718,28.31,34.18,24.39,26.36,12.9,24.92,40.37,11.58,1.47,-6.33,24.39,26.36,34.18,0,9.79,-0.6
dw_cut_4_n1_ch3_opt_disp_struct_15.xyz,Nucleus 26H :,-1.706074,-1.965294,1.909417,29.9,27.23,29.47,32.99,13.4,21.78,38.19,14.54,7.25,-5.47,27.23,29.47,32.99,0,5.76,-0.22
dw_cut_4_n1_ch3_opt_disp_struct_15.xyz,Nucleus 27H :,-2.746939,-3.030357,1.725261,30.35,34.46,26.28,30.31,39.4,12.07,25.77,-5.13,14.21,4.72,26.28,30.31,34.46,0,8.18,-0.01
dw_cut_4_n1_ch3_opt_disp_struct_15.xyz,Nucleus 28H :,-1.381996,-1.534529,3.199434,29.91,33.0,29.55,27.19,38.38,20.99,12.71,-5.58,8.11,15.14,27.19,29.55,33.0,0,5.81,-0.19
dw_cut_4_n1_ch3_opt_disp_struct_15.xyz,Nucleus 0C :,-1.89858,-1.969716,4.050159,172.23,160.66,168.12,187.9,235.8,242.87,256.65,-66.41,-77.48,-74.74,160.66,168.12,187.9,0,27.24,-0.45
dw_cut_4_n1_ch3_opt_disp_struct_15.xyz,Nucleus 3C :,-0.381346,-0.584137,3.422605,63.31,148.92,52.37,-11.36,241.95,262.01,274.08,-93.3,-220.56,-274.25,-11.36,52.37,148.92,0,160.28,-0.2
dw_cut_4_n1_ch3_opt_disp_struct_15.xyz,Nucleus 4C :,-0.093377,-0.310143,4.433786,57.55,-27.33,127.18,72.81,254.99,264.78,273.38,-293.05,-132.34,-195.1,-27.33,72.81,127.18,0,154.51,0.3
dw_cut_4_n1_ch3_opt_disp_struct_15.xyz,Nucleus 7C :,2.54249,1.638152,0.663504,42.68,143.09,-35.92,20.87,264.13,274.89,270.42,-126.91,-306.62,-247.88,-35.92,20.87,143.09,0,179.01,-0.37
dw_cut_4_n1_ch3_opt_disp_struct_15.xyz,Nucleus 8C :,0.05306,0.219642,-1.830981,48.4,168.02,0.1,-22.92,225.2,263.31,258.46,-57.22,-262.56,-281.99,-22.92,0.1,168.02,0,190.94,-0.76
dw_cut_4_n1_ch3_opt_disp_struct_15.xyz,Nucleus 9C :,-2.998952,-3.159816,0.667176,54.85,158.56,49.56,-43.57,249.96,272.06,267.48,-92.76,-220.89,-311.29,-43.57,49.56,158.56,0,202.13,-0.08
dw_cut_4_n1_ch3_opt_disp_struct_15.xyz,Nucleus 11C :,-3.673003,-2.79407,2.265307,45.34,172.97,-60.29,23.33,232.19,263.19,272.86,-59.22,-324.41,-248.6,-60.29,23.33,172.97,0,233.26,-0.28
dw_cut_4_n1_ch3_opt_disp_struct_15.xyz,Nucleus 12C :,-2.38546,-3.996963,2.106193,160.7,188.43,136.97,156.69,253.54,222.89,230.55,-60.41,-87.54,-76.93,136.97,156.69,188.43,0,51.46,-0.23
dw_cut_4_n1_ch3_opt_disp_struct_15.xyz,Nucleus 13C :,4.810547,-6.808962,2.62261,51.33,163.45,47.06,-56.51,228.39,259.47,273.27,-65.19,-226.04,-315.9,-56.51,47.06,163.45,0,219.96,-0.06
dw_cut_4_n1_ch3_opt_disp_struct_15.xyz,Nucleus 15C :,3.727277,-5.747953,2.539178,65.68,169.37,53.58,-25.9,246.3,272.92,264.16,-77.09,-216.99,-292.25,-25.9,53.58,169.37,0,195.27,-0.19
dw_cut_4_n1_ch3_opt_disp_struct_15.xyz,Nucleus 22C :,2.812257,-5.858045,3.405245,159.66,122.91,191.82,164.26,252.46,221.61,225.94,-98.74,-54.65,-67.63,122.91,164.26,191.82,0,68.91,0.2
dw_cut_4_n1_ch3_opt_disp_struct_15.xyz,Nucleus 23C :,3.875035,-4.883055,1.63167,2.69,-87.02,67.18,27.9,203.5,255.15,267.39,-136.33,-342.17,-239.48,-87.02,27.9,67.18,0,154.2,0.49
dw_cut_4_n1_ch3_opt_disp_struct_15.xyz,Nucleus 5N :,4.365681,-7.803579,2.494932,120.65,60.08,169.09,132.77,297.89,336.74,331.33,-129.41,-203.68,-270.94,60.08,132.77,169.09,0,109.01,0.33
dw_cut_4_n1_ch3_opt_disp_struct_15.xyz,Nucleus 24O :,5.593394,-6.666102,1.870062,-13.93,235.71,-28.0,-249.5,397.8,417.48,424.95,-182.12,-436.64,-663.27,-249.5,-28.0,235.71,0,485.21,-0.09
dw_cut_4_n1_ch3_opt_disp_struct_15.xyz,Nucleus 25O :,5.264512,-6.796008,3.621011,-46.69,202.55,-285.04,-57.57,402.13,444.82,432.67,-242.14,-707.29,-470.25,-285.04,-57.57,202.55,0,487.59,-0.07
dw_cut_4_n1_ch3_opt_disp_struct_16.xyz,Nucleus 1H :,1.01835,0.036946,-1.340447,29.18,35.08,23.55,28.91,39.61,27.47,29.35,-5.89,-0.14,-2.87,23.55,28.91,35.08,0,11.53,-0.07
dw_cut_4_n1_ch3_opt_disp_struct_16.xyz,Nucleus 2H :,1.74618,0.738439,-1.764412,28.71,35.22,24.29,26.63,46.0,24.1,27.74,-11.92,2.27,-2.06,24.29,26.63,35.22,0,10.93,-0.57
dw_cut_4_n1_ch3_opt_disp_struct_16.xyz,Nucleus 6H :,1.331999,-0.9798,-1.61961,24.3,16.42,25.26,31.21,49.24,15.73,30.97,-18.25,0.78,-5.59,16.42,25.26,31.21,0,14.79,0.19
dw_cut_4_n1_ch3_opt_disp_struct_16.xyz,Nucleus 10H :,0.925748,0.186522,0.133637,23.76,29.91,19.05,22.32,32.4,38.76,50.77,-2.7,-18.8,-29.15,19.05,22.32,29.91,0,10.86,-0.4
dw_cut_4_n1_ch3_opt_disp_struct_16.xyz,Nucleus 14H :,1.723543,0.984233,0.930802,24.0,28.74,19.95,23.31,9.58,31.79,46.38,-23.11,10.44,-3.07,19.95,23.31,28.74,0,8.79,-0.24
dw_cut_4_n1_ch3_opt_disp_struct_16.xyz,Nucleus 16H :,1.34634,0.799535,2.233544,24.07,19.47,28.04,24.69,11.5,31.78,47.44,-22.79,8.05,-3.78,19.47,24.69,28.04,0,8.57,0.22
dw_cut_4_n1_ch3_opt_disp_struct_16.xyz,Nucleus 17H :,1.7155,1.304238,3.017512,24.39,20.88,25.27,27.01,44.66,28.4,31.5,-19.25,-7.58,-4.58,20.88,25.27,27.01,0,6.13,0.43
dw_cut_4_n1_ch3_opt_disp_struct_16.xyz,Nucleus 18H :,0.299236,-0.08643,2.30707,29.06,35.31,27.73,24.14,43.64,26.73,33.38,0.42,-10.96,-6.03,24.14,27.73,35.31,0,11.17,-0.36
dw_cut_4_n1_ch3_opt_disp_struct_16.xyz,Nucleus 19H :,0.010759,-0.489276,1.004272,29.2,23.82,29.53,34.25,41.48,22.3,27.54,-7.83,2.55,1.57,23.82,29.53,34.25,0,10.43,0.09
dw_cut_4_n1_ch3_opt_disp_struct_16.xyz,Nucleus 20H :,-1.016968,-1.436204,0.805711,28.91,34.77,23.98,27.99,39.93,13.34,25.64,-5.45,10.96,2.32,23.98,27.99,34.77,0,10.79,-0.26
dw_cut_4_n1_ch3_opt_disp_struct_16.xyz,Nucleus 21H :,-1.230804,-1.803306,-0.195718,28.32,34.21,24.38,26.37,12.89,24.85,40.36,11.59,1.55,-6.27,24.38,26.37,34.21,0,9.83,-0.6
dw_cut_4_n1_ch3_opt_disp_struct_16.xyz,Nucleus 26H :,-1.706074,-1.965294,1.909417,29.89,27.24,29.47,32.95,12.9,21.76,38.13,15.06,7.27,-5.47,27.24,29.47,32.95,0,5.71,-0.22
dw_cut_4_n1_ch3_opt_disp_struct_16.xyz,Nucleus 27H :,-2.746939,-3.030357,1.725261,30.33,34.43,26.3,30.27,39.46,11.57,25.57,-5.22,14.73,4.9,26.3,30.27,34.43,0,8.13,-0.02
dw_cut_4_n1_ch3_opt_disp_struct_16.xyz,Nucleus 28H :,-1.381996,-1.534529,3.199434,29.9,32.96,29.55,27.2,38.32,20.97,12.25,-5.57,8.11,15.63,27.2,29.55,32.96,0,5.76,-0.18
dw_cut_4_n1_ch3_opt_disp_struct_16.xyz,Nucleus 0C :,-1.89858,-1.969716,4.050159,172.24,160.66,168.17,187.88,235.73,242.77,256.68,-66.45,-77.38,-74.63,160.66,168.17,187.88,0,27.22,-0.45
dw_cut_4_n1_ch3_opt_disp_struct_16.xyz,Nucleus 3C :,-0.381346,-0.584137,3.422605,63.3,148.89,52.34,-11.32,241.91,262.02,273.97,-93.27,-220.51,-274.21,-11.32,52.34,148.89,0,160.21,-0.21
dw_cut_4_n1_ch3_opt_disp_struct_16.xyz,Nucleus 4C :,-0.093377,-0.310143,4.433786,57.43,-27.49,127.21,72.57,255.06,264.54,273.35,-293.14,-132.29,-195.24,-27.49,72.57,127.21,0,154.7,0.29
dw_cut_4_n1_ch3_opt_disp_struct_16.xyz,Nucleus 7C :,2.54249,1.638152,0.663504,42.72,143.08,-35.81,20.89,264.2,274.59,270.21,-126.72,-306.35,-247.76,-35.81,20.89,143.08,0,178.89,-0.37
dw_cut_4_n1_ch3_opt_disp_struct_16.xyz,Nucleus 8C :,0.05306,0.219642,-1.830981,48.43,167.99,0.14,-22.83,225.22,263.25,258.4,-57.26,-262.46,-281.84,-22.83,0.14,167.99,0,190.82,-0.76
dw_cut_4_n1_ch3_opt_disp_struct_16.xyz,Nucleus 9C :,-2.998952,-3.159816,0.667176,54.88,158.57,49.55,-43.48,249.93,271.87,267.42,-92.64,-220.92,-311.03,-43.48,49.55,158.57,0,202.05,-0.08
dw_cut_4_n1_ch3_opt_disp_struct_16.xyz,Nucleus 11C :,-3.673003,-2.79407,2.265307,45.29,172.97,-60.28,23.19,232.28,263.06,272.88,-59.31,-324.25,-248.77,-60.28,23.19,172.97,0,233.25,-0.28
dw_cut_4_n1_ch3_opt_disp_struct_16.xyz,Nucleus 12C :,-2.38546,-3.996963,2.106193,160.7,188.42,137.01,156.68,253.55,222.89,230.41,-60.46,-87.38,-76.91,137.01,156.68,188.42,0,51.41,-0.23
dw_cut_4_n1_ch3_opt_disp_struct_16.xyz,Nucleus 13C :,4.978878,-6.992761,2.64217,51.39,163.46,47.11,-56.41,228.48,259.37,273.19,-65.25,-225.91,-315.72,-56.41,47.11,163.46,0,219.87,-0.06
dw_cut_4_n1_ch3_opt_disp_struct_16.xyz,Nucleus 15C :,3.895608,-5.931752,2.558739,65.68,169.39,53.52,-25.88,246.17,272.87,263.97,-76.9,-217.02,-292.07,-25.88,53.52,169.39,0,195.27,-0.19
dw_cut_4_n1_ch3_opt_disp_struct_16.xyz,Nucleus 22C :,2.980588,-6.041844,3.424806,159.64,122.9,191.76,164.26,252.42,221.01,225.54,-98.15,-54.56,-67.32,122.9,164.26,191.76,0,68.86,0.2
dw_cut_4_n1_ch3_opt_disp_struct_16.xyz,Nucleus 23C :,4.043365,-5.066854,1.65123,2.64,-87.15,67.18,27.89,203.37,254.98,267.77,-136.2,-342.14,-239.86,-87.15,27.89,67.18,0,154.33,0.49
dw_cut_4_n1_ch3_opt_disp_struct_16.xyz,Nucleus 5N :,4.534012,-7.987378,2.514492,120.55,59.94,169.12,132.6,297.96,336.69,331.19,-129.42,-203.8,-270.95,59.94,132.6,169.12,0,109.18,0.33
dw_cut_4_n1_ch3_opt_disp_struct_16.xyz,Nucleus 24O :,5.761725,-6.849901,1.889622,-14.06,235.98,-28.23,-249.92,397.68,418.6,425.3,-183.02,-436.93,-663.8,-249.92,-28.23,235.98,0,485.9,-0.09
dw_cut_4_n1_ch3_opt_disp_struct_16.xyz,Nucleus 25O :,5.432843,-6.979807,3.640572,-46.72,202.82,-285.24,-57.73,402.07,446.11,433.11,-243.16,-708.15,-470.12,-285.24,-57.73,202.82,0,488.06,-0.07
dw_cut_4_n1_ch3_opt_disp_struct_17.xyz,Nucleus 1H :,1.01835,0.036946,-1.340447,29.17,35.07,23.53,28.9,39.59,27.42,29.33,-5.87,-0.11,-2.86,23.53,28.9,35.07,0,11.54,-0.07
dw_cut_4_n1_ch3_opt_disp_struct_17.xyz,Nucleus 2H :,1.74618,0.738439,-1.764412,28.72,35.25,24.29,26.63,45.97,24.09,27.7,-11.86,2.29,-2.02,24.29,26.63,35.25,0,10.96,-0.57
dw_cut_4_n1_ch3_opt_disp_struct_17.xyz,Nucleus 6H :,1.331999,-0.9798,-1.61961,24.28,16.4,25.25,31.2,49.17,15.71,30.94,-18.19,0.78,-5.57,16.4,25.25,31.2,0,14.8,0.2
dw_cut_4_n1_ch3_opt_disp_struct_17.xyz,Nucleus 10H :,0.925748,0.186522,0.133637,23.76,29.92,19.03,22.32,32.44,38.72,50.64,-2.71,-18.81,-29.02,19.03,22.32,29.92,0,10.89,-0.4
dw_cut_4_n1_ch3_opt_disp_struct_17.xyz,Nucleus 14H :,1.723543,0.984233,0.930802,23.99,28.74,19.93,23.31,9.63,31.73,46.36,-23.08,10.36,-3.01,19.93,23.31,28.74,0,8.81,-0.23
dw_cut_4_n1_ch3_opt_disp_struct_17.xyz,Nucleus 16H :,1.34634,0.799535,2.233544,24.06,19.44,28.05,24.69,11.53,31.77,47.37,-22.71,7.99,-3.76,19.44,24.69,28.05,0,8.61,0.22
dw_cut_4_n1_ch3_opt_disp_struct_17.xyz,Nucleus 17H :,1.7155,1.304238,3.017512,24.38,20.86,25.26,27.01,44.62,28.38,31.47,-19.22,-7.57,-4.56,20.86,25.26,27.01,0,6.15,0.43
dw_cut_4_n1_ch3_opt_disp_struct_17.xyz,Nucleus 18H :,0.299236,-0.08643,2.30707,29.05,35.3,27.72,24.13,43.61,26.7,33.33,0.44,-10.92,-6.0,24.13,27.72,35.3,0,11.17,-0.36
dw_cut_4_n1_ch3_opt_disp_struct_17.xyz,Nucleus 19H :,0.010759,-0.489276,1.004272,29.19,23.8,29.53,34.25,41.44,22.24,27.51,-7.8,2.58,1.6,23.8,29.53,34.25,0,10.45,0.1
dw_cut_4_n1_ch3_opt_disp_struct_17.xyz,Nucleus 20H :,-1.016968,-1.436204,0.805711,28.9,34.76,23.97,27.98,39.89,13.32,25.62,-5.43,10.97,2.35,23.97,27.98,34.76,0,10.79,-0.26
dw_cut_4_n1_ch3_opt_disp_struct_17.xyz,Nucleus 21H :,-1.230804,-1.803306,-0.195718,28.33,34.24,24.37,26.39,12.88,24.79,40.34,11.59,1.62,-6.22,24.37,26.39,34.24,0,9.87,-0.59
dw_cut_4_n1_ch3_opt_disp_struct_17.xyz,Nucleus 26H :,-1.706074,-1.965294,1.909417,29.88,27.25,29.47,32.92,12.38,21.72,38.08,15.61,7.31,-5.47,27.25,29.47,32.92,0,5.67,-0.22
dw_cut_4_n1_ch3_opt_disp_struct_17.xyz,Nucleus 27H :,-2.746939,-3.030357,1.725261,30.33,34.42,26.31,30.25,39.51,11.03,25.37,-5.31,15.28,5.09,26.31,30.25,34.42,0,8.11,-0.03
dw_cut_4_n1_ch3_opt_disp_struct_17.xyz,Nucleus 28H :,-1.381996,-1.534529,3.199434,29.89,32.93,29.54,27.2,38.26,20.95,11.76,-5.56,8.13,16.14,27.2,29.54,32.93,0,5.73,-0.18
dw_cut_4_n1_ch3_opt_disp_struct_17.xyz,Nucleus 0C :,-1.89858,-1.969716,4.050159,172.25,160.67,168.21,187.87,235.67,242.67,256.7,-66.48,-77.28,-74.54,160.67,168.21,187.87,0,27.2,-0.45
dw_cut_4_n1_ch3_opt_disp_struct_17.xyz,Nucleus 3C :,-0.381346,-0.584137,3.422605,63.29,148.87,52.31,-11.3,241.89,262.04,273.86,-93.26,-220.48,-274.18,-11.3,52.31,148.87,0,160.17,-0.21
dw_cut_4_n1_ch3_opt_disp_struct_17.xyz,Nucleus 4C :,-0.093377,-0.310143,4.433786,57.33,-27.63,127.24,72.37,255.14,264.29,273.32,-293.2,-132.23,-195.35,-27.63,72.37,127.24,0,154.87,0.29
dw_cut_4_n1_ch3_opt_disp_struct_17.xyz,Nucleus 7C :,2.54249,1.638152,0.663504,42.76,143.08,-35.72,20.91,264.25,274.33,270.03,-126.56,-306.14,-247.64,-35.72,20.91,143.08,0,178.8,-0.37
dw_cut_4_n1_ch3_opt_disp_struct_17.xyz,Nucleus 8C :,0.05306,0.219642,-1.830981,48.45,167.95,0.16,-22.76,225.22,263.2,258.34,-57.3,-262.41,-281.7,-22.76,0.16,167.95,0,190.71,-0.76
dw_cut_4_n1_ch3_opt_disp_struct_17.xyz,Nucleus 9C :,-2.998952,-3.159816,0.667176,54.91,158.58,49.54,-43.4,249.93,271.69,267.4,-92.56,-220.94,-310.81,-43.4,49.54,158.58,0,201.98,-0.08
dw_cut_4_n1_ch3_opt_disp_struct_17.xyz,Nucleus 11C :,-3.673003,-2.79407,2.265307,45.26,172.98,-60.27,23.06,232.36,262.94,272.91,-59.39,-324.11,-248.93,-60.27,23.06,172.98,0,233.25,-0.29
dw_cut_4_n1_ch3_opt_disp_struct_17.xyz,Nucleus 12C :,-2.38546,-3.996963,2.106193,160.71,188.41,137.04,156.67,253.57,222.9,230.27,-60.49,-87.24,-76.88,137.04,156.67,188.41,0,51.37,-0.24
dw_cut_4_n1_ch3_opt_disp_struct_17.xyz,Nucleus 13C :,5.147209,-7.176561,2.661731,51.43,163.47,47.15,-56.32,228.56,259.27,273.12,-65.29,-225.8,-315.56,-56.32,47.15,163.47,0,219.79,-0.06
dw_cut_4_n1_ch3_opt_disp_struct_17.xyz,Nucleus 15C :,4.063938,-6.115551,2.578299,65.68,169.41,53.48,-25.86,246.04,272.84,263.8,-76.71,-217.04,-291.91,-25.86,53.48,169.41,0,195.27,-0.19
dw_cut_4_n1_ch3_opt_disp_struct_17.xyz,Nucleus 22C :,3.148919,-6.225643,3.444366,159.63,122.9,191.72,164.27,252.39,220.29,225.07,-97.44,-54.41,-67.02,122.9,164.27,191.72,0,68.82,0.2
dw_cut_4_n1_ch3_opt_disp_struct_17.xyz,Nucleus 23C :,4.211696,-5.250653,1.670791,2.6,-87.26,67.18,27.87,203.23,254.84,268.16,-136.06,-342.12,-240.25,-87.26,27.87,67.18,0,154.44,0.49
dw_cut_4_n1_ch3_opt_disp_struct_17.xyz,Nucleus 5N :,4.702342,-8.171177,2.534053,120.49,59.84,169.16,132.47,298.04,336.64,331.06,-129.43,-203.9,-270.94,59.84,132.47,169.16,0,109.32,0.33
dw_cut_4_n1_ch3_opt_disp_struct_17.xyz,Nucleus 24O :,5.930056,-7.0337,1.909183,-14.15,236.16,-28.41,-250.21,397.57,419.91,425.63,-184.23,-437.15,-664.18,-250.21,-28.41,236.16,0,486.37,-0.09
dw_cut_4_n1_ch3_opt_disp_struct_17.xyz,Nucleus 25O :,5.601173,-7.163606,3.660132,-46.71,203.01,-285.31,-57.83,402.0,447.43,433.52,-244.3,-708.82,-469.97,-285.31,-57.83,203.01,0,488.32,-0.07
dw_cut_4_n1_ch3_opt_disp_struct_18.xyz,Nucleus 1H :,1.01835,0.036946,-1.340447,29.16,35.06,23.53,28.9,39.58,27.39,29.3,-5.84,-0.09,-2.85,23.53,28.9,35.06,0,11.53,-0.07
dw_cut_4_n1_ch3_opt_disp_struct_18.xyz,Nucleus 2H :,1.74618,0.738439,-1.764412,28.74,35.27,24.31,26.64,45.94,24.08,27.66,-11.81,2.32,-1.97,24.31,26.64,35.27,0,10.96,-0.57
dw_cut_4_n1_ch3_opt_disp_struct_18.xyz,Nucleus 6H :,1.331999,-0.9798,-1.61961,24.28,16.38,25.26,31.19,49.11,15.69,30.92,-18.13,0.78,-5.54,16.38,25.26,31.19,0,14.81,0.2
dw_cut_4_n1_ch3_opt_disp_struct_18.xyz,Nucleus 10H :,0.925748,0.186522,0.133637,23.75,29.92,19.03,22.31,32.45,38.69,50.54,-2.71,-18.81,-28.9,19.03,22.31,29.92,0,10.89,-0.4
dw_cut_4_n1_ch3_opt_disp_struct_18.xyz,Nucleus 14H :,1.723543,0.984233,0.930802,23.98,28.75,19.87,23.31,9.65,31.68,46.34,-23.07,10.28,-2.94,19.87,23.31,28.75,0,8.88,-0.23
dw_cut_4_n1_ch3_opt_disp_struct_18.xyz,Nucleus 16H :,1.34634,0.799535,2.233544,24.05,19.39,28.06,24.69,11.54,31.76,47.3,-22.64,7.93,-3.73,19.39,24.69,28.06,0,8.67,0.22
dw_cut_4_n1_ch3_opt_disp_struct_18.xyz,Nucleus 17H :,1.7155,1.304238,3.017512,24.37,20.83,25.26,27.02,44.59,28.37,31.44,-19.18,-7.58,-4.52,20.83,25.26,27.02,0,6.19,0.43
dw_cut_4_n1_ch3_opt_disp_struct_18.xyz,Nucleus 18H :,0.299236,-0.08643,2.30707,29.06,35.3,27.73,24.15,43.58,26.68,33.28,0.46,-10.87,-5.96,24.15,27.73,35.3,0,11.15,-0.36
dw_cut_4_n1_ch3_opt_disp_struct_18.xyz,Nucleus 19H :,0.010759,-0.489276,1.004272,29.19,23.8,29.53,34.24,41.41,22.2,27.49,-7.76,2.6,1.62,23.8,29.53,34.24,0,10.44,0.1
dw_cut_4_n1_ch3_opt_disp_struct_18.xyz,Nucleus 20H :,-1.016968,-1.436204,0.805711,28.89,34.75,23.96,27.96,39.85,13.3,25.59,-5.4,10.96,2.37,23.96,27.96,34.75,0,10.79,-0.26
dw_cut_4_n1_ch3_opt_disp_struct_18.xyz,Nucleus 21H :,-1.230804,-1.803306,-0.195718,28.35,34.27,24.35,26.43,12.87,24.74,40.33,11.58,1.71,-6.18,24.35,26.43,34.27,0,9.92,-0.58
dw_cut_4_n1_ch3_opt_disp_struct_18.xyz,Nucleus 26H :,-1.706074,-1.965294,1.909417,29.87,27.25,29.47,32.88,11.84,21.66,38.04,16.17,7.36,-5.47,27.25,29.47,32.88,0,5.63,-0.21
dw_cut_4_n1_ch3_opt_disp_struct_18.xyz,Nucleus 27H :,-2.746939,-3.030357,1.725261,30.31,34.4,26.32,30.22,39.57,10.49,25.17,-5.39,15.84,5.28,26.32,30.22,34.4,0,8.08,-0.03
dw_cut_4_n1_ch3_opt_disp_struct_18.xyz,Nucleus 28H :,-1.381996,-1.534529,3.199434,29.88,32.9,29.54,27.2,38.21,20.9,11.25,-5.56,8.16,16.67,27.2,29.54,32.9,0,5.7,-0.18
dw_cut_4_n1_ch3_opt_disp_struct_18.xyz,Nucleus 0C :,-1.89858,-1.969716,4.050159,172.28,160.7,168.3,187.85,235.63,242.62,256.7,-66.5,-77.17,-74.43,160.7,168.3,187.85,0,27.15,-0.44
dw_cut_4_n1_ch3_opt_disp_struct_18.xyz,Nucleus 3C :,-0.381346,-0.584137,3.422605,63.28,148.85,52.29,-11.3,241.86,262.06,273.77,-93.25,-220.44,-274.17,-11.3,52.29,148.85,0,160.15,-0.21
dw_cut_4_n1_ch3_opt_disp_struct_18.xyz,Nucleus 4C :,-0.093377,-0.310143,4.433786,57.23,-27.75,127.29,72.15,255.19,264.1,273.29,-293.27,-132.15,-195.47,-27.75,72.15,127.29,0,155.04,0.29
dw_cut_4_n1_ch3_opt_disp_struct_18.xyz,Nucleus 7C :,2.54249,1.638152,0.663504,42.82,143.15,-35.63,20.95,264.29,274.15,269.89,-126.4,-305.94,-247.53,-35.63,20.95,143.15,0,178.78,-0.37
dw_cut_4_n1_ch3_opt_disp_struct_18.xyz,Nucleus 8C :,0.05306,0.219642,-1.830981,48.44,167.89,0.11,-22.69,225.21,263.14,258.3,-57.35,-262.41,-281.57,-22.69,0.11,167.89,0,190.58,-0.76
dw_cut_4_n1_ch3_opt_disp_struct_18.xyz,Nucleus 9C :,-2.998952,-3.159816,0.667176,54.91,158.61,49.48,-43.36,249.92,271.56,267.37,-92.48,-220.99,-310.64,-43.36,49.48,158.61,0,201.97,-0.08
dw_cut_4_n1_ch3_opt_disp_struct_18.xyz,Nucleus 11C :,-3.673003,-2.79407,2.265307,45.19,172.93,-60.27,22.9,232.39,262.85,272.9,-59.47,-324.01,-249.09,-60.27,22.9,172.93,0,233.2,-0.29
dw_cut_4_n1_ch3_opt_disp_struct_18.xyz,Nucleus 12C :,-2.38546,-3.996963,2.106193,160.72,188.36,137.12,156.69,253.56,222.91,230.18,-60.54,-87.08,-76.86,137.12,156.69,188.36,0,51.24,-0.24
dw_cut_4_n1_ch3_opt_disp_struct_18.xyz,Nucleus 13C :,5.315539,-7.36036,2.681291,51.45,163.44,47.15,-56.24,228.61,259.22,273.05,-65.35,-225.72,-315.45,-56.24,47.15,163.44,0,219.68,-0.06
dw_cut_4_n1_ch3_opt_disp_struct_18.xyz,Nucleus 15C :,4.232269,-6.299351,2.597859,65.69,169.48,53.4,-25.82,245.94,272.81,263.67,-76.53,-217.08,-291.76,-25.82,53.4,169.48,0,195.3,-0.19
dw_cut_4_n1_ch3_opt_disp_struct_18.xyz,Nucleus 22C :,3.317249,-6.409442,3.463926,159.6,122.9,191.66,164.25,252.36,219.5,224.55,-96.65,-54.23,-66.73,122.9,164.25,191.66,0,68.76,0.2
dw_cut_4_n1_ch3_opt_disp_struct_18.xyz,Nucleus 23C :,4.380027,-5.434452,1.690351,2.56,-87.36,67.2,27.85,203.08,254.72,268.56,-135.89,-342.11,-240.67,-87.36,27.85,67.2,0,154.56,0.49
dw_cut_4_n1_ch3_opt_disp_struct_18.xyz,Nucleus 5N :,4.870673,-8.354976,2.553613,120.41,59.71,169.18,132.33,298.08,336.6,330.95,-129.43,-204.01,-270.98,59.71,132.33,169.18,0,109.47,0.33
dw_cut_4_n1_ch3_opt_disp_struct_18.xyz,Nucleus 24O :,6.098387,-7.2175,1.928743,-14.22,236.24,-28.53,-250.37,397.47,421.27,425.97,-185.64,-437.32,-664.41,-250.37,-28.53,236.24,0,486.61,-0.09
dw_cut_4_n1_ch3_opt_disp_struct_18.xyz,Nucleus 25O :,5.769504,-7.347405,3.679693,-46.67,203.08,-285.21,-57.88,401.94,448.75,433.9,-245.55,-709.25,-469.79,-285.21,-57.88,203.08,0,488.29,-0.07
dw_cut_4_n1_ch3_opt_disp_struct_19.xyz,Nucleus 1H :,1.01835,0.036946,-1.340447,29.15,35.06,23.51,28.89,39.57,27.35,29.27,-5.83,-0.06,-2.85,23.51,28.89,35.06,0,11.55,-0.07
dw_cut_4_n1_ch3_opt_disp_struct_19.xyz,Nucleus 2H :,1.74618,0.738439,-1.764412,28.75,35.29,24.31,26.64,45.91,24.07,27.63,-11.77,2.34,-1.93,24.31,26.64,35.29,0,10.98,-0.58
dw_cut_4_n1_ch3_opt_disp_struct_19.xyz,Nucleus 6H :,1.331999,-0.9798,-1.61961,24.27,16.36,25.25,31.19,49.05,15.68,30.89,-18.08,0.78,-5.52,16.36,25.25,31.19,0,14.83,0.2
dw_cut_4_n1_ch3_opt_disp_struct_19.xyz,Nucleus 10H :,0.925748,0.186522,0.133637,23.75,29.92,19.01,22.31,32.48,38.66,50.43,-2.72,-18.82,-28.78,19.01,22.31,29.92,0,10.91,-0.4
dw_cut_4_n1_ch3_opt_disp_struct_19.xyz,Nucleus 14H :,1.723543,0.984233,0.930802,23.98,28.76,19.86,23.32,9.7,31.63,46.32,-23.04,10.22,-2.89,19.86,23.32,28.76,0,8.9,-0.22
dw_cut_4_n1_ch3_opt_disp_struct_19.xyz,Nucleus 16H :,1.34634,0.799535,2.233544,24.05,19.38,28.06,24.7,11.56,31.74,47.23,-22.57,7.89,-3.72,19.38,24.7,28.06,0,8.68,0.22
dw_cut_4_n1_ch3_opt_disp_struct_19.xyz,Nucleus 17H :,1.7155,1.304238,3.017512,24.36,20.81,25.25,27.02,44.55,28.35,31.41,-19.15,-7.57,-4.5,20.81,25.25,27.02,0,6.21,0.43
dw_cut_4_n1_ch3_opt_disp_struct_19.xyz,Nucleus 18H :,0.299236,-0.08643,2.30707,29.05,35.3,27.72,24.13,43.55,26.65,33.23,0.47,-10.83,-5.92,24.13,27.72,35.3,0,11.17,-0.36
dw_cut_4_n1_ch3_opt_disp_struct_19.xyz,Nucleus 19H :,0.010759,-0.489276,1.004272,29.18,23.78,29.52,34.24,41.38,22.15,27.47,-7.72,2.61,1.65,23.78,29.52,34.24,0,10.46,0.1
dw_cut_4_n1_ch3_opt_disp_struct_19.xyz,Nucleus 20H :,-1.016968,-1.436204,0.805711,28.88,34.74,23.95,27.96,39.82,13.29,25.56,-5.38,10.97,2.39,23.95,27.96,34.74,0,10.79,-0.26
dw_cut_4_n1_ch3_opt_disp_struct_19.xyz,Nucleus 21H :,-1.230804,-1.803306,-0.195718,28.36,34.29,24.35,26.44,12.86,24.68,40.32,11.59,1.78,-6.14,24.35,26.44,34.29,0,9.94,-0.58
dw_cut_4_n1_ch3_opt_disp_struct_19.xyz,Nucleus 26H :,-1.706074,-1.965294,1.909417,29.86,27.26,29.47,32.86,11.29,21.6,38.0,16.75,7.41,-5.47,27.26,29.47,32.86,0,5.6,-0.21
dw_cut_4_n1_ch3_opt_disp_struct_19.xyz,Nucleus 27H :,-2.746939,-3.030357,1.725261,30.31,34.39,26.34,30.2,39.62,9.93,24.97,-5.47,16.4,5.47,26.34,30.2,34.39,0,8.05,-0.04
dw_cut_4_n1_ch3_opt_disp_struct_19.xyz,Nucleus 28H :,-1.381996,-1.534529,3.199434,29.87,32.88,29.53,27.21,38.16,20.86,10.73,-5.55,8.2,17.22,27.21,29.53,32.88,0,5.67,-0.18
dw_cut_4_n1_ch3_opt_disp_struct_19.xyz,Nucleus 0C :,-1.89858,-1.969716,4.050159,172.28,160.69,168.32,187.84,235.57,242.53,256.72,-66.52,-77.08,-74.36,160.69,168.32,187.84,0,27.15,-0.44
dw_cut_4_n1_ch3_opt_disp_struct_19.xyz,Nucleus 3C :,-0.381346,-0.584137,3.422605,63.27,148.84,52.25,-11.28,241.84,262.08,273.68,-93.24,-220.42,-274.14,-11.28,52.25,148.84,0,160.12,-0.21
dw_cut_4_n1_ch3_opt_disp_struct_19.xyz,Nucleus 4C :,-0.093377,-0.310143,4.433786,57.15,-27.86,127.3,72.01,255.28,263.85,273.26,-293.29,-132.11,-195.53,-27.86,72.01,127.3,0,155.16,0.29
dw_cut_4_n1_ch3_opt_disp_struct_19.xyz,Nucleus 7C :,2.54249,1.638152,0.663504,42.84,143.13,-35.57,20.96,264.34,273.91,269.75,-126.28,-305.78,-247.42,-35.57,20.96,143.13,0,178.7,-0.37
dw_cut_4_n1_ch3_opt_disp_struct_19.xyz,Nucleus 8C :,0.05306,0.219642,-1.830981,48.46,167.88,0.14,-22.64,225.21,263.11,258.25,-57.37,-262.37,-281.45,-22.64,0.14,167.88,0,190.52,-0.76
dw_cut_4_n1_ch3_opt_disp_struct_19.xyz,Nucleus 9C :,-2.998952,-3.159816,0.667176,54.93,158.61,49.48,-43.3,249.93,271.41,267.35,-92.42,-221.0,-310.48,-43.3,49.48,158.61,0,201.91,-0.08
dw_cut_4_n1_ch3_opt_disp_struct_19.xyz,Nucleus 11C :,-3.673003,-2.79407,2.265307,45.17,172.94,-60.26,22.82,232.46,262.75,272.93,-59.53,-323.9,-249.21,-60.26,22.82,172.94,0,233.2,-0.29
dw_cut_4_n1_ch3_opt_disp_struct_19.xyz,Nucleus 12C :,-2.38546,-3.996963,2.106193,160.72,188.36,137.14,156.67,253.57,222.92,230.06,-60.56,-86.98,-76.83,137.14,156.67,188.36,0,51.22,-0.24
dw_cut_4_n1_ch3_opt_disp_struct_19.xyz,Nucleus 13C :,5.48387,-7.544159,2.700852,51.49,163.45,47.19,-56.17,228.68,259.14,273.0,-65.39,-225.64,-315.32,-56.17,47.19,163.45,0,219.62,-0.06
dw_cut_4_n1_ch3_opt_disp_struct_19.xyz,Nucleus 15C :,4.4006,-6.48315,2.61742,65.68,169.48,53.38,-25.81,245.82,272.78,263.54,-76.38,-217.09,-291.62,-25.81,53.38,169.48,0,195.29,-0.19
dw_cut_4_n1_ch3_opt_disp_struct_19.xyz,Nucleus 22C :,3.48558,-6.593241,3.483487,159.6,122.92,191.62,164.25,252.35,218.68,224.01,-95.8,-53.99,-66.44,122.92,164.25,191.62,0,68.7,0.2
dw_cut_4_n1_ch3_opt_disp_struct_19.xyz,Nucleus 23C :,4.548358,-5.618251,1.709912,2.54,-87.45,67.22,27.84,202.93,254.61,268.95,-135.72,-342.11,-241.06,-87.45,27.84,67.22,0,154.67,0.49
dw_cut_4_n1_ch3_opt_disp_struct_19.xyz,Nucleus 5N :,5.039004,-8.538776,2.573174,120.36,59.65,169.2,132.23,298.16,336.55,330.84,-129.46,-204.06,-270.94,59.65,132.23,169.2,0,109.55,0.33
dw_cut_4_n1_ch3_opt_disp_struct_19.xyz,Nucleus 24O :,6.266717,-7.401299,1.948304,-14.26,236.32,-28.61,-250.5,397.39,422.6,426.39,-187.11,-437.45,-664.6,-250.5,-28.61,236.32,0,486.82,-0.09
dw_cut_4_n1_ch3_opt_disp_struct_19.xyz,Nucleus 25O :,5.937835,-7.531204,3.699253,-46.65,203.19,-285.18,-57.95,401.88,450.1,434.27,-709.73,-469.65,-246.81,-285.18,-57.95,203.19,0,488.37,-0.07
dw_cut_4_n1_ch3_opt_disp_struct_2.xyz,Nucleus 1H :,1.01835,0.036946,-1.340447,29.4,35.31,23.84,29.06,39.89,27.42,29.39,0.85,-6.18,-3.15,23.84,29.06,35.31,0,11.47,-0.09
dw_cut_4_n1_ch3_opt_disp_struct_2.xyz,Nucleus 2H :,1.74618,0.738439,-1.764412,28.62,34.66,24.24,26.95,45.94,23.49,28.0,-12.78,2.31,-1.11,24.24,26.95,34.66,0,10.42,-0.48
dw_cut_4_n1_ch3_opt_disp_struct_2.xyz,Nucleus 6H :,1.331999,-0.9798,-1.61961,24.86,17.02,25.63,31.94,48.9,17.08,32.04,-17.38,-6.33,0.27,17.02,25.63,31.94,0,14.92,0.15
dw_cut_4_n1_ch3_opt_disp_struct_2.xyz,Nucleus 10H :,0.925748,0.186522,0.133637,24.15,29.88,19.51,23.05,32.7,39.82,52.45,-2.87,-18.47,-31.19,19.51,23.05,29.88,0,10.37,-0.32
dw_cut_4_n1_ch3_opt_disp_struct_2.xyz,Nucleus 14H :,1.723543,0.984233,0.930802,23.96,28.1,23.12,20.66,7.57,36.57,46.17,13.32,-8.52,-23.23,20.66,23.12,28.1,0,7.44,-0.34
dw_cut_4_n1_ch3_opt_disp_struct_2.xyz,Nucleus 16H :,1.34634,0.799535,2.233544,24.51,20.18,28.08,25.26,11.32,34.37,48.73,9.12,-6.33,-23.67,20.18,25.26,28.08,0,7.9,0.28
dw_cut_4_n1_ch3_opt_disp_struct_2.xyz,Nucleus 17H :,1.7155,1.304238,3.017512,24.81,21.47,25.88,27.08,45.09,29.26,31.57,-19.19,-7.74,-4.56,21.47,25.88,27.08,0,5.61,0.57
dw_cut_4_n1_ch3_opt_disp_struct_2.xyz,Nucleus 18H :,0.299236,-0.08643,2.30707,29.06,35.4,27.73,24.05,43.31,26.78,33.8,0.31,-11.75,-5.28,24.05,27.73,35.4,0,11.35,-0.35
dw_cut_4_n1_ch3_opt_disp_struct_2.xyz,Nucleus 19H :,0.010759,-0.489276,1.004272,29.55,24.16,29.85,34.65,42.21,23.66,28.08,-8.27,1.08,1.89,24.16,29.85,34.65,0,10.49,0.09
dw_cut_4_n1_ch3_opt_disp_struct_2.xyz,Nucleus 20H :,-1.016968,-1.436204,0.805711,29.11,35.3,24.08,27.94,13.32,40.24,27.75,11.13,-5.25,0.14,24.08,27.94,35.3,0,11.22,-0.31
dw_cut_4_n1_ch3_opt_disp_struct_2.xyz,Nucleus 21H :,-1.230804,-1.803306,-0.195718,28.37,24.51,26.93,33.67,13.28,26.88,39.94,11.76,-0.43,-6.32,24.51,26.93,33.67,0,9.16,-0.47
dw_cut_4_n1_ch3_opt_disp_struct_2.xyz,Nucleus 26H :,-1.706074,-1.965294,1.909417,30.2,34.23,29.4,26.97,39.57,20.64,19.25,-5.56,8.85,7.85,26.97,29.4,34.23,0,7.26,-0.33
dw_cut_4_n1_ch3_opt_disp_struct_2.xyz,Nucleus 27H :,-2.746939,-3.030357,1.725261,30.71,25.83,35.34,30.96,15.57,38.6,28.56,10.28,-3.43,2.54,25.83,30.96,35.34,0,9.51,0.08
dw_cut_4_n1_ch3_opt_disp_struct_2.xyz,Nucleus 28H :,-1.381996,-1.534529,3.199434,30.28,34.34,27.05,29.44,39.79,20.06,18.1,-5.65,8.62,9.91,27.05,29.44,34.34,0,7.29,-0.35
dw_cut_4_n1_ch3_opt_disp_struct_2.xyz,Nucleus 0C :,-1.89858,-1.969716,4.050159,171.45,159.77,166.46,188.11,236.13,243.32,254.84,-64.68,-78.19,-77.08,159.77,166.46,188.11,0,28.34,-0.53
dw_cut_4_n1_ch3_opt_disp_struct_2.xyz,Nucleus 3C :,-0.381346,-0.584137,3.422605,62.52,149.59,51.91,-13.93,243.52,260.54,277.04,-94.02,-220.97,-278.54,-13.93,51.91,149.59,0,163.52,-0.19
dw_cut_4_n1_ch3_opt_disp_struct_2.xyz,Nucleus 4C :,-0.093377,-0.310143,4.433786,62.63,-19.99,126.16,81.73,255.55,265.41,273.65,-286.22,-133.63,-186.87,-19.99,81.73,126.16,0,146.15,0.39
dw_cut_4_n1_ch3_opt_disp_struct_2.xyz,Nucleus 7C :,2.54249,1.638152,0.663504,41.65,143.09,-38.85,20.72,284.69,273.48,260.57,-134.06,-312.1,-247.61,-38.85,20.72,143.09,0,181.94,-0.35
dw_cut_4_n1_ch3_opt_disp_struct_2.xyz,Nucleus 8C :,0.05306,0.219642,-1.830981,42.76,169.05,-8.73,-32.05,223.33,261.92,254.66,-54.42,-270.52,-286.71,-32.05,-8.73,169.05,0,201.1,-0.77
dw_cut_4_n1_ch3_opt_disp_struct_2.xyz,Nucleus 9C :,-2.998952,-3.159816,0.667176,54.64,157.54,52.44,-46.06,249.27,270.23,276.7,-95.36,-217.76,-319.15,-46.06,52.44,157.54,0,203.6,-0.03
dw_cut_4_n1_ch3_opt_disp_struct_2.xyz,Nucleus 11C :,-3.673003,-2.79407,2.265307,48.02,172.73,-58.75,30.09,228.49,264.6,277.79,-56.84,-326.71,-243.27,-58.75,30.09,172.73,0,231.48,-0.23
dw_cut_4_n1_ch3_opt_disp_struct_2.xyz,Nucleus 12C :,-2.38546,-3.996963,2.106193,160.21,188.88,135.46,156.29,252.26,225.26,235.07,-60.97,-93.4,-77.59,135.46,156.29,188.88,0,53.42,-0.22
dw_cut_4_n1_ch3_opt_disp_struct_2.xyz,Nucleus 13C :,2.622247,-4.419573,2.368324,46.31,162.92,40.91,-64.89,227.41,259.34,277.59,-66.41,-236.56,-322.43,-64.89,40.91,162.92,0,227.81,-0.07
dw_cut_4_n1_ch3_opt_disp_struct_2.xyz,Nucleus 15C :,1.538977,-3.358564,2.284892,67.53,168.14,57.3,-22.84,244.98,277.36,268.36,-80.25,-216.04,-291.79,-22.84,57.3,168.14,0,190.98,-0.16
dw_cut_4_n1_ch3_opt_disp_struct_2.xyz,Nucleus 22C :,0.623957,-3.468655,3.150959,159.74,122.41,193.68,163.13,255.57,225.54,227.22,-103.15,-53.67,-72.3,122.41,163.13,193.68,0,71.27,0.14
dw_cut_4_n1_ch3_opt_disp_struct_2.xyz,Nucleus 23C :,1.686734,-2.493665,1.377384,4.43,-81.89,72.16,23.01,203.9,258.19,265.8,-131.78,-343.6,-239.22,-81.89,23.01,72.16,0,154.05,0.36
dw_cut_4_n1_ch3_opt_disp_struct_2.xyz,Nucleus 5N :,2.177381,-5.41419,2.240646,125.56,67.96,167.62,141.09,298.54,336.98,331.38,-131.77,-195.59,-262.87,67.96,141.09,167.62,0,99.66,0.47
dw_cut_4_n1_ch3_opt_disp_struct_2.xyz,Nucleus 24O :,3.405094,-4.276713,1.615776,-39.04,215.59,-47.88,-284.82,399.92,420.44,427.14,-210.38,-453.37,-700.86,-284.82,-47.88,215.59,0,500.41,-0.05
dw_cut_4_n1_ch3_opt_disp_struct_2.xyz,Nucleus 25O :,3.076212,-4.406618,3.366725,-69.3,-339.12,-64.15,195.38,400.34,420.15,431.59,-751.58,-482.95,-225.44,-339.12,-64.15,195.38,0,534.5,0.03
dw_cut_4_n1_ch3_opt_disp_struct_3.xyz,Nucleus 1H :,1.01835,0.036946,-1.340447,29.39,35.31,23.81,29.05,39.98,27.77,29.53,-6.42,0.43,-3.1,23.81,29.05,35.31,0,11.5,-0.09
dw_cut_4_n1_ch3_opt_disp_struct_3.xyz,Nucleus 2H :,1.74618,0.738439,-1.764412,28.62,34.69,24.23,26.94,46.24,24.0,28.01,-12.98,1.96,-1.38,24.23,26.94,34.69,0,10.46,-0.48
dw_cut_4_n1_ch3_opt_disp_struct_3.xyz,Nucleus 6H :,1.331999,-0.9798,-1.61961,24.76,16.93,25.55,31.8,49.29,17.05,31.84,-17.92,0.2,-6.18,16.93,25.55,31.8,0,14.87,0.16
dw_cut_4_n1_ch3_opt_disp_struct_3.xyz,Nucleus 10H :,0.925748,0.186522,0.133637,24.04,29.82,19.49,22.8,33.23,39.77,52.84,-3.46,-18.66,-31.61,19.49,22.8,29.82,0,10.33,-0.36
dw_cut_4_n1_ch3_opt_disp_struct_3.xyz,Nucleus 14H :,1.723543,0.984233,0.930802,24.03,28.26,23.25,20.57,6.99,35.13,46.59,13.78,-6.91,-23.5,20.57,23.25,28.26,0,7.69,-0.3
dw_cut_4_n1_ch3_opt_disp_struct_3.xyz,Nucleus 16H :,1.34634,0.799535,2.233544,24.38,20.09,28.01,25.05,10.96,33.58,48.93,9.31,-5.6,-24.03,20.09,25.05,28.01,0,7.92,0.25
dw_cut_4_n1_ch3_opt_disp_struct_3.xyz,Nucleus 17H :,1.7155,1.304238,3.017512,24.74,21.39,25.79,27.05,45.21,29.25,31.73,-19.4,-7.74,-4.81,21.39,25.79,27.05,0,5.66,0.56
dw_cut_4_n1_ch3_opt_disp_struct_3.xyz,Nucleus 18H :,0.299236,-0.08643,2.30707,29.1,35.43,27.75,24.11,43.63,27.03,34.13,0.16,-11.96,-5.69,24.11,27.75,35.43,0,11.32,-0.36
dw_cut_4_n1_ch3_opt_disp_struct_3.xyz,Nucleus 19H :,0.010759,-0.489276,1.004272,29.49,24.12,29.79,34.55,42.08,23.53,28.23,-8.27,1.14,1.75,24.12,29.79,34.55,0,10.43,0.09
dw_cut_4_n1_ch3_opt_disp_struct_3.xyz,Nucleus 20H :,-1.016968,-1.436204,0.805711,29.1,35.24,24.08,27.98,40.44,13.23,27.3,11.25,-5.53,0.61,24.08,27.98,35.24,0,11.16,-0.3
dw_cut_4_n1_ch3_opt_disp_struct_3.xyz,Nucleus 21H :,-1.230804,-1.803306,-0.195718,28.31,24.49,26.78,33.65,13.05,26.23,40.2,11.9,0.18,-6.63,24.49,26.78,33.65,0,9.16,-0.5
dw_cut_4_n1_ch3_opt_disp_struct_3.xyz,Nucleus 26H :,-1.706074,-1.965294,1.909417,30.16,34.07,29.4,27.01,39.35,20.42,18.63,-5.49,9.26,8.31,27.01,29.4,34.07,0,7.06,-0.32
dw_cut_4_n1_ch3_opt_disp_struct_3.xyz,Nucleus 27H :,-2.746939,-3.030357,1.725261,30.66,25.9,35.2,30.87,15.21,38.51,28.12,10.71,-3.49,2.91,25.9,30.87,35.2,0,9.3,0.07
dw_cut_4_n1_ch3_opt_disp_struct_3.xyz,Nucleus 28H :,-1.381996,-1.534529,3.199434,30.22,34.14,27.07,29.46,39.6,19.87,17.39,-5.63,9.02,10.43,27.07,29.46,34.14,0,7.07,-0.32
dw_cut_4_n1_ch3_opt_disp_struct_3.xyz,Nucleus 0C :,-1.89858,-1.969716,4.050159,171.58,159.92,166.69,188.12,236.4,243.79,255.29,-64.87,-78.58,-77.3,159.92,166.69,188.12,0,28.2,-0.52
dw_cut_4_n1_ch3_opt_disp_struct_3.xyz,Nucleus 3C :,-0.381346,-0.584137,3.422605,62.64,149.5,51.97,-13.55,244.16,261.03,278.22,-94.69,-222.35,-278.45,-13.55,51.97,149.5,0,163.05,-0.2
dw_cut_4_n1_ch3_opt_disp_struct_3.xyz,Nucleus 4C :,-0.093377,-0.310143,4.433786,61.81,-21.3,126.35,80.37,256.42,264.97,273.93,-287.57,-133.62,-188.71,-21.3,80.37,126.35,0,147.65,0.38
dw_cut_4_n1_ch3_opt_disp_struct_3.xyz,Nucleus 7C :,2.54249,1.638152,0.663504,41.43,143.13,-39.11,20.26,285.93,273.95,261.12,-134.5,-313.18,-249.05,-39.11,20.26,143.13,0,182.24,-0.35
dw_cut_4_n1_ch3_opt_disp_struct_3.xyz,Nucleus 8C :,0.05306,0.219642,-1.830981,44.48,168.9,-6.01,-29.45,223.68,263.98,256.16,-54.92,-269.81,-285.64,-29.45,-6.01,168.9,0,198.35,-0.76
dw_cut_4_n1_ch3_opt_disp_struct_3.xyz,Nucleus 9C :,-2.998952,-3.159816,0.667176,54.11,157.79,50.95,-46.4,250.77,271.34,276.62,-96.1,-220.18,-320.1,-46.4,50.95,157.79,0,204.19,-0.05
dw_cut_4_n1_ch3_opt_disp_struct_3.xyz,Nucleus 11C :,-3.673003,-2.79407,2.265307,47.21,172.79,-59.78,28.61,228.15,265.58,277.11,-56.36,-327.83,-245.03,-59.78,28.61,172.79,0,232.57,-0.24
dw_cut_4_n1_ch3_opt_disp_struct_3.xyz,Nucleus 12C :,-2.38546,-3.996963,2.106193,160.29,188.82,135.7,156.35,252.69,224.41,234.47,-60.64,-92.56,-77.5,135.7,156.35,188.82,0,53.12,-0.22
dw_cut_4_n1_ch3_opt_disp_struct_3.xyz,Nucleus 13C :,2.790578,-4.603372,2.387884,47.51,163.1,42.24,-62.8,224.27,261.84,276.56,-64.16,-234.19,-321.78,-62.8,42.24,163.1,0,225.9,-0.07
dw_cut_4_n1_ch3_opt_disp_struct_3.xyz,Nucleus 15C :,1.707307,-3.542363,2.304453,66.62,168.38,56.08,-24.6,244.82,277.67,268.45,-79.97,-216.7,-294.41,-24.6,56.08,168.38,0,192.98,-0.16
dw_cut_4_n1_ch3_opt_disp_struct_3.xyz,Nucleus 22C :,0.792288,-3.652455,3.17052,159.86,122.62,193.39,163.57,255.09,223.92,225.79,-101.34,-52.67,-71.2,122.62,163.57,193.39,0,70.77,0.16
dw_cut_4_n1_ch3_opt_disp_struct_3.xyz,Nucleus 23C :,1.855065,-2.677465,1.396945,3.74,-82.54,69.54,24.23,205.03,258.17,265.12,-135.53,-343.4,-238.18,-82.54,24.23,69.54,0,152.08,0.4
dw_cut_4_n1_ch3_opt_disp_struct_3.xyz,Nucleus 5N :,2.345712,-5.597989,2.260206,124.62,66.29,167.89,139.69,298.51,337.38,331.42,-131.31,-197.29,-264.83,66.29,139.69,167.89,0,101.6,0.44
dw_cut_4_n1_ch3_opt_disp_struct_3.xyz,Nucleus 24O :,3.573425,-4.460512,1.635336,-25.4,225.13,-38.52,-262.82,400.05,417.31,421.79,-195.28,-444.01,-676.07,-262.82,-38.52,225.13,0,487.95,-0.08
dw_cut_4_n1_ch3_opt_disp_struct_3.xyz,Nucleus 25O :,3.244542,-4.590418,3.386286,-55.9,202.36,-310.77,-59.3,400.15,419.5,429.0,-217.54,-720.42,-478.41,-310.77,-59.3,202.36,0,513.13,-0.02
dw_cut_4_n1_ch3_opt_disp_struct_4.xyz,Nucleus 1H :,1.01835,0.036946,-1.340447,29.37,35.29,23.79,29.04,40.01,27.97,29.57,-6.51,0.15,-3.06,23.79,29.04,35.29,0,11.5,-0.09
dw_cut_4_n1_ch3_opt_disp_struct_4.xyz,Nucleus 2H :,1.74618,0.738439,-1.764412,28.62,34.73,24.23,26.9,46.4,24.25,28.05,-13.03,1.82,-1.64,24.23,26.9,34.73,0,10.5,-0.49
dw_cut_4_n1_ch3_opt_disp_struct_4.xyz,Nucleus 6H :,1.331999,-0.9798,-1.61961,24.68,16.86,25.5,31.67,49.52,16.92,31.69,-18.28,0.26,-6.07,16.86,25.5,31.67,0,14.81,0.17
dw_cut_4_n1_ch3_opt_disp_struct_4.xyz,Nucleus 10H :,0.925748,0.186522,0.133637,23.97,29.8,19.47,22.63,33.43,39.62,52.92,-3.66,-18.74,-31.67,19.47,22.63,29.8,0,10.33,-0.39
dw_cut_4_n1_ch3_opt_disp_struct_4.xyz,Nucleus 14H :,1.723543,0.984233,0.930802,24.05,28.38,23.29,20.49,6.86,34.17,46.82,13.79,-5.83,-23.65,20.49,23.29,28.38,0,7.89,-0.29
dw_cut_4_n1_ch3_opt_disp_struct_4.xyz,Nucleus 16H :,1.34634,0.799535,2.233544,24.3,20.01,27.98,24.91,10.8,33.0,48.95,9.34,-5.03,-24.16,20.01,24.91,27.98,0,7.97,0.23
dw_cut_4_n1_ch3_opt_disp_struct_4.xyz,Nucleus 17H :,1.7155,1.304238,3.017512,24.69,21.33,25.7,27.03,45.27,29.17,31.77,-19.54,-7.71,-4.9,21.33,25.7,27.03,0,5.7,0.53
dw_cut_4_n1_ch3_opt_disp_struct_4.xyz,Nucleus 18H :,0.299236,-0.08643,2.30707,29.12,35.44,27.77,24.14,43.82,27.15,34.27,0.09,-12.01,-5.96,24.14,27.77,35.44,0,11.3,-0.36
dw_cut_4_n1_ch3_opt_disp_struct_4.xyz,Nucleus 19H :,0.010759,-0.489276,1.004272,29.44,24.09,29.74,34.48,41.98,23.45,28.26,-8.26,1.18,1.71,24.09,29.74,34.48,0,10.39,0.09
dw_cut_4_n1_ch3_opt_disp_struct_4.xyz,Nucleus 20H :,-1.016968,-1.436204,0.805711,29.09,35.18,24.08,28.01,40.54,13.21,26.96,11.28,-5.69,0.97,24.08,28.01,35.18,0,11.1,-0.29
dw_cut_4_n1_ch3_opt_disp_struct_4.xyz,Nucleus 21H :,-1.230804,-1.803306,-0.195718,28.27,24.49,26.66,33.66,12.93,25.85,40.36,11.94,0.54,-6.81,24.49,26.66,33.66,0,9.17,-0.53
dw_cut_4_n1_ch3_opt_disp_struct_4.xyz,Nucleus 26H :,-1.706074,-1.965294,1.909417,30.12,33.92,29.41,27.03,39.13,20.43,18.04,-5.41,9.8,8.37,27.03,29.41,33.92,0,6.89,-0.31
dw_cut_4_n1_ch3_opt_disp_struct_4.xyz,Nucleus 27H :,-2.746939,-3.030357,1.725261,30.61,25.95,35.07,30.8,14.86,38.47,27.74,11.11,-3.57,3.23,25.95,30.8,35.07,0,9.12,0.06
dw_cut_4_n1_ch3_opt_disp_struct_4.xyz,Nucleus 28H :,-1.381996,-1.534529,3.199434,30.17,33.97,27.08,29.47,39.39,19.83,16.81,-5.58,9.13,10.95,27.08,29.47,33.97,0,6.89,-0.3
dw_cut_4_n1_ch3_opt_disp_struct_4.xyz,Nucleus 0C :,-1.89858,-1.969716,4.050159,171.7,160.07,166.91,188.12,236.5,244.06,255.6,-65.1,-78.76,-77.2,160.07,166.91,188.12,0,28.05,-0.51
dw_cut_4_n1_ch3_opt_disp_struct_4.xyz,Nucleus 3C :,-0.381346,-0.584137,3.422605,62.82,149.43,52.16,-13.12,244.41,261.43,278.62,-95.0,-222.99,-278.0,-13.12,52.16,149.43,0,162.55,-0.2
dw_cut_4_n1_ch3_opt_disp_struct_4.xyz,Nucleus 4C :,-0.093377,-0.310143,4.433786,61.12,-22.33,126.5,79.2,256.87,264.7,274.01,-288.61,-133.55,-190.05,-22.33,79.2,126.5,0,148.83,0.36
dw_cut_4_n1_ch3_opt_disp_struct_4.xyz,Nucleus 7C :,2.54249,1.638152,0.663504,41.48,143.15,-38.88,20.17,285.44,274.12,261.65,-134.09,-313.12,-249.56,-38.88,20.17,143.15,0,182.03,-0.35
dw_cut_4_n1_ch3_opt_disp_struct_4.xyz,Nucleus 8C :,0.05306,0.219642,-1.830981,45.7,168.77,-4.08,-27.59,223.83,264.97,257.2,-55.24,-268.89,-284.78,-27.59,-4.08,168.77,0,196.36,-0.76
dw_cut_4_n1_ch3_opt_disp_struct_4.xyz,Nucleus 9C :,-2.998952,-3.159816,0.667176,54.05,157.98,50.33,-46.17,252.09,271.82,275.55,-96.41,-221.26,-319.65,-46.17,50.33,157.98,0,204.15,-0.05
dw_cut_4_n1_ch3_opt_disp_struct_4.xyz,Nucleus 11C :,-3.673003,-2.79407,2.265307,46.74,172.84,-60.23,27.62,228.6,265.91,276.33,-56.56,-328.08,-245.97,-60.23,27.62,172.84,0,233.07,-0.25
dw_cut_4_n1_ch3_opt_disp_struct_4.xyz,Nucleus 12C :,-2.38546,-3.996963,2.106193,160.38,188.77,135.91,156.45,252.95,223.89,233.99,-60.38,-91.89,-77.44,135.91,156.45,188.77,0,52.86,-0.22
dw_cut_4_n1_ch3_opt_disp_struct_4.xyz,Nucleus 13C :,2.958908,-4.787171,2.407445,48.48,163.21,43.45,-61.22,222.85,263.16,275.96,-63.03,-232.37,-321.12,-61.22,43.45,163.21,0,224.43,-0.07
dw_cut_4_n1_ch3_opt_disp_struct_4.xyz,Nucleus 15C :,1.875638,-3.726162,2.324013,66.2,168.58,55.45,-25.43,245.5,276.98,268.26,-79.89,-216.86,-295.4,-25.43,55.45,168.58,0,194.01,-0.17
dw_cut_4_n1_ch3_opt_disp_struct_4.xyz,Nucleus 22C :,0.960618,-3.836254,3.19008,159.9,122.79,193.12,163.8,254.62,222.59,224.63,-99.86,-51.89,-70.38,122.79,163.8,193.12,0,70.33,0.17
dw_cut_4_n1_ch3_opt_disp_struct_4.xyz,Nucleus 23C :,2.023396,-2.861264,1.416505,3.35,-83.32,68.19,25.19,206.02,258.3,264.8,-137.85,-343.36,-237.85,-83.32,25.19,68.19,0,151.51,0.43
dw_cut_4_n1_ch3_opt_disp_struct_4.xyz,Nucleus 5N :,2.514042,-5.781788,2.279767,123.85,64.99,168.09,138.47,298.35,337.68,331.43,-130.93,-198.71,-266.26,64.99,138.47,168.09,0,103.1,0.43
dw_cut_4_n1_ch3_opt_disp_struct_4.xyz,Nucleus 24O :,3.741756,-4.644311,1.654897,-18.23,229.68,-31.82,-252.54,399.91,416.1,419.11,-187.98,-437.35,-664.47,-252.54,-31.82,229.68,0,482.22,-0.08
dw_cut_4_n1_ch3_opt_disp_struct_4.xyz,Nucleus 25O :,3.412873,-4.774217,3.405846,-49.07,204.82,-296.3,-55.72,400.6,421.27,427.85,-216.72,-705.88,-474.31,-296.3,-55.72,204.82,0,501.12,-0.04
dw_cut_4_n1_ch3_opt_disp_struct_5.xyz,Nucleus 1H :,1.01835,0.036946,-1.340447,29.36,35.27,23.77,29.03,40.0,28.05,29.57,-6.5,-0.02,-3.02,23.77,29.03,35.27,0,11.5,-0.09
dw_cut_4_n1_ch3_opt_disp_struct_5.xyz,Nucleus 2H :,1.74618,0.738439,-1.764412,28.62,34.77,24.23,26.85,46.44,24.34,28.09,-12.97,1.8,-1.85,24.23,26.85,34.77,0,10.54,-0.5
dw_cut_4_n1_ch3_opt_disp_struct_5.xyz,Nucleus 6H :,1.331999,-0.9798,-1.61961,24.61,16.8,25.46,31.57,49.66,16.73,31.57,-18.5,0.36,-6.0,16.8,25.46,31.57,0,14.77,0.17
dw_cut_4_n1_ch3_opt_disp_struct_5.xyz,Nucleus 10H :,0.925748,0.186522,0.133637,23.92,29.8,19.43,22.52,33.38,39.44,52.84,-3.63,-18.73,-31.54,19.43,22.52,29.8,0,10.37,-0.41
dw_cut_4_n1_ch3_opt_disp_struct_5.xyz,Nucleus 14H :,1.723543,0.984233,0.930802,24.06,28.46,23.3,20.41,7.09,33.55,46.89,13.46,-5.12,-23.7,20.41,23.3,28.46,0,8.05,-0.28
dw_cut_4_n1_ch3_opt_disp_struct_5.xyz,Nucleus 16H :,1.34634,0.799535,2.233544,24.24,19.95,27.97,24.81,10.79,32.59,48.84,9.27,-4.63,-24.13,19.95,24.81,27.97,0,8.02,0.21
dw_cut_4_n1_ch3_opt_disp_struct_5.xyz,Nucleus 17H :,1.7155,1.304238,3.017512,24.64,21.28,25.62,27.02,45.28,29.05,31.77,-19.61,-7.66,-4.91,21.28,25.62,27.02,0,5.74,0.51
dw_cut_4_n1_ch3_opt_disp_struct_5.xyz,Nucleus 18H :,0.299236,-0.08643,2.30707,29.12,35.44,27.77,24.16,43.91,27.19,34.28,0.07,-11.95,-6.12,24.16,27.77,35.44,0,11.28,-0.36
dw_cut_4_n1_ch3_opt_disp_struct_5.xyz,Nucleus 19H :,0.010759,-0.489276,1.004272,29.4,24.07,29.71,34.43,41.91,23.39,28.21,-8.25,1.21,1.74,24.07,29.71,34.43,0,10.36,0.09
dw_cut_4_n1_ch3_opt_disp_struct_5.xyz,Nucleus 20H :,-1.016968,-1.436204,0.805711,29.08,35.12,24.08,28.03,40.55,13.23,26.7,11.26,-5.77,1.24,24.08,28.03,35.12,0,11.04,-0.29
dw_cut_4_n1_ch3_opt_disp_struct_5.xyz,Nucleus 21H :,-1.230804,-1.803306,-0.195718,28.25,24.49,26.56,33.69,12.88,25.64,40.46,11.92,0.73,-6.9,24.49,26.56,33.69,0,9.2,-0.55
dw_cut_4_n1_ch3_opt_disp_struct_5.xyz,Nucleus 26H :,-1.706074,-1.965294,1.909417,30.09,33.78,29.42,27.06,38.92,20.53,17.46,-5.34,10.37,8.31,27.06,29.42,33.78,0,6.72,-0.3
dw_cut_4_n1_ch3_opt_disp_struct_5.xyz,Nucleus 27H :,-2.746939,-3.030357,1.725261,30.57,34.96,26.0,30.74,14.54,38.46,27.39,-3.68,11.48,3.52,26.0,30.74,34.96,0,8.96,0.06
dw_cut_4_n1_ch3_opt_disp_struct_5.xyz,Nucleus 28H :,-1.381996,-1.534529,3.199434,30.14,33.82,29.49,27.1,39.2,19.86,16.27,-5.52,9.11,11.49,27.1,29.49,33.82,0,6.72,-0.29
dw_cut_4_n1_ch3_opt_disp_struct_5.xyz,Nucleus 0C :,-1.89858,-1.969716,4.050159,171.8,160.2,167.1,188.1,236.54,244.16,255.82,-65.34,-78.82,-76.94,160.2,167.1,188.1,0,27.9,-0.51
dw_cut_4_n1_ch3_opt_disp_struct_5.xyz,Nucleus 3C :,-0.381346,-0.584137,3.422605,62.98,149.37,52.33,-12.75,244.22,261.73,278.36,-94.93,-223.09,-277.34,-12.75,52.33,149.37,0,162.12,-0.2
dw_cut_4_n1_ch3_opt_disp_struct_5.xyz,Nucleus 4C :,-0.093377,-0.310143,4.433786,60.53,-23.19,126.61,78.18,256.95,264.64,273.97,-289.48,-133.43,-191.05,-23.19,78.18,126.61,0,149.8,0.35
dw_cut_4_n1_ch3_opt_disp_struct_5.xyz,Nucleus 7C :,2.54249,1.638152,0.663504,41.64,143.15,-38.47,20.23,283.61,274.12,262.38,-133.23,-312.55,-249.44,-38.47,20.23,143.15,0,181.62,-0.35
dw_cut_4_n1_ch3_opt_disp_struct_5.xyz,Nucleus 8C :,0.05306,0.219642,-1.830981,46.52,168.66,-2.78,-26.31,223.91,265.39,257.84,-55.44,-268.03,-284.1,-26.31,-2.78,168.66,0,194.97,-0.76
dw_cut_4_n1_ch3_opt_disp_struct_5.xyz,Nucleus 9C :,-2.998952,-3.159816,0.667176,54.15,158.12,50.08,-45.76,252.79,271.96,274.22,-96.34,-221.59,-318.6,-45.76,50.08,158.12,0,203.88,-0.06
dw_cut_4_n1_ch3_opt_disp_struct_5.xyz,Nucleus 11C :,-3.673003,-2.79407,2.265307,46.44,172.86,-60.41,26.87,229.29,265.84,275.5,-56.98,-327.89,-246.45,-60.41,26.87,172.86,0,233.27,-0.25
dw_cut_4_n1_ch3_opt_disp_struct_5.xyz,Nucleus 12C :,-2.38546,-3.996963,2.106193,160.45,188.71,136.1,156.53,253.12,223.59,233.55,-60.22,-91.3,-77.39,136.1,156.53,188.71,0,52.61,-0.22
dw_cut_4_n1_ch3_opt_disp_struct_5.xyz,Nucleus 13C :,3.127239,-4.970971,2.427005,49.21,163.27,44.43,-60.06,223.03,263.36,275.62,-62.95,-231.04,-320.37,-60.06,44.43,163.27,0,223.33,-0.06
dw_cut_4_n1_ch3_opt_disp_struct_5.xyz,Nucleus 15C :,2.043969,-3.909961,2.343574,66.0,168.74,55.06,-25.81,246.37,275.81,267.98,-79.84,-216.86,-295.49,-25.81,55.06,168.74,0,194.55,-0.17
dw_cut_4_n1_ch3_opt_disp_struct_5.xyz,Nucleus 22C :,1.128949,-4.020053,3.209641,159.9,122.89,192.89,163.92,254.2,221.4,223.69,-98.57,-51.29,-69.74,122.89,163.92,192.89,0,70.0,0.17
dw_cut_4_n1_ch3_opt_disp_struct_5.xyz,Nucleus 23C :,2.191727,-3.045063,1.436065,3.17,-84.03,67.59,25.94,206.44,258.3,264.85,-138.86,-343.33,-237.89,-84.03,25.94,67.59,0,151.62,0.45
dw_cut_4_n1_ch3_opt_disp_struct_5.xyz,Nucleus 5N :,2.682373,-5.965587,2.299327,123.23,63.99,168.25,137.44,298.22,337.86,331.48,-130.67,-199.84,-267.36,63.99,137.44,168.25,0,104.26,0.41
dw_cut_4_n1_ch3_opt_disp_struct_5.xyz,Nucleus 24O :,3.910086,-4.82811,1.674457,-14.65,231.82,-27.98,-247.79,399.7,415.98,418.66,-185.45,-433.88,-658.97,-247.79,-27.98,231.82,0,479.61,-0.08
dw_cut_4_n1_ch3_opt_disp_struct_5.xyz,Nucleus 25O :,3.581204,-4.958016,3.425407,-46.03,205.07,-289.14,-54.01,401.09,423.86,427.49,-218.99,-699.72,-471.81,-289.14,-54.01,205.07,0,494.21,-0.05
dw_cut_4_n1_ch3_opt_disp_struct_6.xyz,Nucleus 1H :,1.01835,0.036946,-1.340447,29.34,35.24,23.76,29.02,39.97,28.06,29.55,-6.43,-0.13,-2.99,23.76,29.02,35.24,0,11.48,-0.08
dw_cut_4_n1_ch3_opt_disp_struct_6.xyz,Nucleus 2H :,1.74618,0.738439,-1.764412,28.62,34.82,24.23,26.8,46.43,24.37,28.13,-12.87,1.82,-2.02,24.23,26.8,34.82,0,10.59,-0.52
dw_cut_4_n1_ch3_opt_disp_struct_6.xyz,Nucleus 6H :,1.331999,-0.9798,-1.61961,24.55,16.76,25.43,31.47,49.73,16.54,31.47,-18.64,0.47,-5.92,16.76,25.43,31.47,0,14.71,0.18
dw_cut_4_n1_ch3_opt_disp_struct_6.xyz,Nucleus 10H :,0.925748,0.186522,0.133637,23.88,29.8,19.39,22.45,33.19,39.31,52.69,-3.48,-18.71,-31.35,19.39,22.45,29.8,0,10.41,-0.41
dw_cut_4_n1_ch3_opt_disp_struct_6.xyz,Nucleus 14H :,1.723543,0.984233,0.930802,24.05,28.52,20.34,23.29,7.47,33.13,46.88,-23.67,12.98,-4.64,20.34,23.29,28.52,0,8.18,-0.28
dw_cut_4_n1_ch3_opt_disp_struct_6.xyz,Nucleus 16H :,1.34634,0.799535,2.233544,24.21,19.89,27.97,24.76,10.86,32.32,48.67,9.13,-4.36,-24.0,19.89,24.76,27.97,0,8.08,0.2
dw_cut_4_n1_ch3_opt_disp_struct_6.xyz,Nucleus 17H :,1.7155,1.304238,3.017512,24.6,21.23,25.55,27.03,45.25,28.92,31.76,-19.63,-7.63,-4.87,21.23,25.55,27.03,0,5.8,0.49
dw_cut_4_n1_ch3_opt_disp_struct_6.xyz,Nucleus 18H :,0.299236,-0.08643,2.30707,29.12,35.43,27.77,24.17,43.93,27.18,34.21,0.08,-11.84,-6.2,24.17,27.77,35.43,0,11.26,-0.36
dw_cut_4_n1_ch3_opt_disp_struct_6.xyz,Nucleus 19H :,0.010759,-0.489276,1.004272,29.37,24.05,29.68,34.39,41.86,23.3,28.13,-8.24,1.24,1.83,24.05,29.68,34.39,0,10.34,0.09
dw_cut_4_n1_ch3_opt_disp_struct_6.xyz,Nucleus 20H :,-1.016968,-1.436204,0.805711,29.06,35.07,24.08,28.04,40.52,13.27,26.5,11.22,-5.78,1.47,24.08,28.04,35.07,0,10.99,-0.28
dw_cut_4_n1_ch3_opt_disp_struct_6.xyz,Nucleus 21H :,-1.230804,-1.803306,-0.195718,28.24,24.49,26.48,33.74,12.88,25.52,40.52,11.87,0.85,-6.93,24.49,26.48,33.74,0,9.25,-0.57
dw_cut_4_n1_ch3_opt_disp_struct_6.xyz,Nucleus 26H :,-1.706074,-1.965294,1.909417,30.06,27.09,29.43,33.66,38.74,20.67,16.89,-5.29,10.94,8.21,27.09,29.43,33.66,0,6.57,-0.29
dw_cut_4_n1_ch3_opt_disp_struct_6.xyz,Nucleus 27H :,-2.746939,-3.030357,1.725261,30.53,34.87,26.04,30.68,38.5,14.24,27.09,-3.82,11.81,3.76,26.04,30.68,34.87,0,8.83,0.05
dw_cut_4_n1_ch3_opt_disp_struct_6.xyz,Nucleus 28H :,-1.381996,-1.534529,3.199434,30.1,33.69,29.51,27.11,39.03,19.95,15.74,-5.47,9.04,12.03,27.11,29.51,33.69,0,6.58,-0.27
dw_cut_4_n1_ch3_opt_disp_struct_6.xyz,Nucleus 0C :,-1.89858,-1.969716,4.050159,171.89,160.31,167.27,188.09,236.53,244.15,255.98,-65.56,-78.81,-76.62,160.31,167.27,188.09,0,27.78,-0.5
dw_cut_4_n1_ch3_opt_disp_struct_6.xyz,Nucleus 3C :,-0.381346,-0.584137,3.422605,63.11,149.32,52.43,-12.42,243.79,261.92,277.72,-94.62,-222.88,-276.59,-12.42,52.43,149.32,0,161.74,-0.2
dw_cut_4_n1_ch3_opt_disp_struct_6.xyz,Nucleus 4C :,-0.093377,-0.310143,4.433786,59.98,-23.97,126.67,77.25,256.76,264.74,273.87,-290.24,-133.32,-191.87,-23.97,77.25,126.67,0,150.64,0.34
dw_cut_4_n1_ch3_opt_disp_struct_6.xyz,Nucleus 7C :,2.54249,1.638152,0.663504,41.8,143.12,-38.06,20.35,281.43,273.98,263.09,-132.18,-311.83,-249.09,-38.06,20.35,143.12,0,181.18,-0.36
dw_cut_4_n1_ch3_opt_disp_struct_6.xyz,Nucleus 8C :,0.05306,0.219642,-1.830981,47.14,168.63,-1.84,-25.38,224.06,265.48,258.22,-55.61,-267.21,-283.53,-25.38,-1.84,168.63,0,194.01,-0.76
dw_cut_4_n1_ch3_opt_disp_struct_6.xyz,Nucleus 9C :,-2.998952,-3.159816,0.667176,54.27,158.22,49.97,-45.37,252.86,271.69,273.29,-96.0,-221.57,-317.43,-45.37,49.97,158.22,0,203.59,-0.06
dw_cut_4_n1_ch3_opt_disp_struct_6.xyz,Nucleus 11C :,-3.673003,-2.79407,2.265307,46.23,172.88,-60.46,26.27,229.99,265.58,274.74,-57.45,-327.48,-246.69,-60.46,26.27,172.88,0,233.34,-0.26
dw_cut_4_n1_ch3_opt_disp_struct_6.xyz,Nucleus 12C :,-2.38546,-3.996963,2.106193,160.5,188.66,136.26,156.59,253.23,223.42,233.09,-60.16,-90.71,-77.35,136.26,156.59,188.66,0,52.4,-0.22
dw_cut_4_n1_ch3_opt_disp_struct_6.xyz,Nucleus 13C :,3.29557,-5.15477,2.446566,49.74,163.3,45.15,-59.22,223.93,263.05,275.34,-63.39,-230.04,-319.66,-59.22,45.15,163.3,0,222.52,-0.06
dw_cut_4_n1_ch3_opt_disp_struct_6.xyz,Nucleus 15C :,2.2123,-4.09376,2.363134,65.89,168.85,54.8,-25.98,246.99,274.72,267.63,-79.68,-216.83,-295.15,-25.98,54.8,168.85,0,194.83,-0.17
dw_cut_4_n1_ch3_opt_disp_struct_6.xyz,Nucleus 22C :,1.29728,-4.203852,3.229201,159.85,122.93,192.68,163.95,253.84,220.43,223.1,-97.56,-50.99,-69.25,122.93,163.95,192.68,0,69.75,0.18
dw_cut_4_n1_ch3_opt_disp_struct_6.xyz,Nucleus 23C :,2.360058,-3.228862,1.455626,3.1,-84.62,67.41,26.5,206.53,258.09,265.13,-139.13,-343.24,-238.08,-84.62,26.5,67.41,0,152.03,0.46
dw_cut_4_n1_ch3_opt_disp_struct_6.xyz,Nucleus 5N :,2.850704,-6.149386,2.318888,122.63,63.1,168.34,136.46,298.12,337.9,331.57,-130.54,-200.8,-268.34,63.1,136.46,168.34,0,105.24,0.39
dw_cut_4_n1_ch3_opt_disp_struct_6.xyz,Nucleus 24O :,4.078417,-5.01191,1.694018,-12.98,232.83,-26.12,-245.66,399.43,416.57,419.12,-185.07,-432.52,-656.47,-245.66,-26.12,232.83,0,478.49,-0.08
dw_cut_4_n1_ch3_opt_disp_struct_6.xyz,Nucleus 25O :,3.749535,-5.141815,3.444967,-44.97,204.36,-285.64,-53.62,401.46,426.35,427.82,-222.45,-697.45,-470.62,-285.64,-53.62,204.36,0,490.0,-0.05
dw_cut_4_n1_ch3_opt_disp_struct_7.xyz,Nucleus 1H :,1.01835,0.036946,-1.340447,29.32,35.22,23.74,29.01,39.92,28.03,29.52,-6.35,-0.2,-2.96,23.74,29.01,35.22,0,11.48,-0.08
dw_cut_4_n1_ch3_opt_disp_struct_7.xyz,Nucleus 2H :,1.74618,0.738439,-1.764412,28.62,34.87,24.24,26.76,46.4,24.36,28.14,-12.75,1.86,-2.14,24.24,26.76,34.87,0,10.63,-0.52
dw_cut_4_n1_ch3_opt_disp_struct_7.xyz,Nucleus 6H :,1.331999,-0.9798,-1.61961,24.51,16.71,25.4,31.42,49.77,16.37,31.38,-18.69,0.56,-5.87,16.71,25.4,31.42,0,14.71,0.18
dw_cut_4_n1_ch3_opt_disp_struct_7.xyz,Nucleus 10H :,0.925748,0.186522,0.133637,23.85,29.82,19.35,22.39,32.95,39.21,52.51,-3.28,-18.69,-31.13,19.35,22.39,29.82,0,10.47,-0.42
dw_cut_4_n1_ch3_opt_disp_struct_7.xyz,Nucleus 14H :,1.723543,0.984233,0.930802,24.05,28.57,20.28,23.29,7.91,32.85,46.82,-23.61,12.47,-4.31,20.28,23.29,28.57,0,8.29,-0.28
dw_cut_4_n1_ch3_opt_disp_struct_7.xyz,Nucleus 16H :,1.34634,0.799535,2.233544,24.18,19.83,27.98,24.72,10.94,32.14,48.5,8.98,-4.18,-23.86,19.83,24.72,27.98,0,8.15,0.2
dw_cut_4_n1_ch3_opt_disp_struct_7.xyz,Nucleus 17H :,1.7155,1.304238,3.017512,24.57,21.19,25.49,27.02,45.2,28.81,31.75,-19.62,-7.61,-4.83,21.19,25.49,27.02,0,5.83,0.47
dw_cut_4_n1_ch3_opt_disp_struct_7.xyz,Nucleus 18H :,0.299236,-0.08643,2.30707,29.12,35.41,27.78,24.17,43.92,27.15,34.11,0.11,-11.7,-6.23,24.17,27.78,35.41,0,11.24,-0.36
dw_cut_4_n1_ch3_opt_disp_struct_7.xyz,Nucleus 19H :,0.010759,-0.489276,1.004272,29.35,24.02,29.66,34.36,41.82,23.18,28.05,-8.21,1.24,1.96,24.02,29.66,34.36,0,10.34,0.09
dw_cut_4_n1_ch3_opt_disp_struct_7.xyz,Nucleus 20H :,-1.016968,-1.436204,0.805711,29.05,35.02,24.08,28.04,40.46,13.3,26.33,11.17,-5.77,1.64,24.08,28.04,35.02,0,10.94,-0.28
dw_cut_4_n1_ch3_opt_disp_struct_7.xyz,Nucleus 21H :,-1.230804,-1.803306,-0.195718,28.23,24.48,26.42,33.79,12.9,25.44,40.54,11.79,0.92,-6.9,24.48,26.42,33.79,0,9.31,-0.58
dw_cut_4_n1_ch3_opt_disp_struct_7.xyz,Nucleus 26H :,-1.706074,-1.965294,1.909417,30.04,27.12,29.44,33.55,38.61,20.84,16.36,-5.28,11.49,8.08,27.12,29.44,33.55,0,6.43,-0.28
dw_cut_4_n1_ch3_opt_disp_struct_7.xyz,Nucleus 27H :,-2.746939,-3.030357,1.725261,30.5,34.79,26.08,30.63,38.58,14.0,26.86,-3.97,12.09,3.94,26.08,30.63,34.79,0,8.71,0.04
dw_cut_4_n1_ch3_opt_disp_struct_7.xyz,Nucleus 28H :,-1.381996,-1.534529,3.199434,30.07,33.57,29.52,27.12,38.89,20.08,15.25,-5.46,8.93,12.53,27.12,29.52,33.57,0,6.45,-0.26
dw_cut_4_n1_ch3_opt_disp_struct_7.xyz,Nucleus 0C :,-1.89858,-1.969716,4.050159,171.96,160.4,167.42,188.06,236.49,244.06,256.11,-65.75,-78.73,-76.3,160.4,167.42,188.06,0,27.66,-0.49
dw_cut_4_n1_ch3_opt_disp_struct_7.xyz,Nucleus 3C :,-0.381346,-0.584137,3.422605,63.19,149.25,52.51,-12.18,243.29,262.04,276.98,-94.29,-222.48,-275.94,-12.18,52.51,149.25,0,161.43,-0.2
dw_cut_4_n1_ch3_opt_disp_struct_7.xyz,Nucleus 4C :,-0.093377,-0.310143,4.433786,59.55,-24.59,126.77,76.46,256.4,264.95,273.76,-290.83,-133.15,-192.51,-24.59,76.46,126.77,0,151.36,0.34
dw_cut_4_n1_ch3_opt_disp_struct_7.xyz,Nucleus 7C :,2.54249,1.638152,0.663504,41.96,143.12,-37.67,20.43,263.67,279.48,273.7,-131.13,-311.06,-248.79,-37.67,20.43,143.12,0,180.79,-0.36
dw_cut_4_n1_ch3_opt_disp_struct_7.xyz,Nucleus 8C :,0.05306,0.219642,-1.830981,47.48,168.49,-1.27,-24.78,224.25,265.37,258.5,-55.91,-266.53,-283.23,-24.78,-1.27,168.49,0,193.27,-0.76
dw_cut_4_n1_ch3_opt_disp_struct_7.xyz,Nucleus 9C :,-2.998952,-3.159816,0.667176,54.4,158.3,49.9,-45.01,252.47,270.84,273.09,-95.5,-221.42,-316.3,-45.01,49.9,158.3,0,203.31,-0.07
dw_cut_4_n1_ch3_opt_disp_struct_7.xyz,Nucleus 11C :,-3.673003,-2.79407,2.265307,46.06,172.91,-60.46,25.73,230.52,265.26,274.09,-57.81,-327.02,-246.87,-60.46,25.73,172.91,0,233.37,-0.26
dw_cut_4_n1_ch3_opt_disp_struct_7.xyz,Nucleus 12C :,-2.38546,-3.996963,2.106193,160.55,188.63,136.39,156.64,253.32,223.29,232.64,-60.13,-90.16,-77.29,136.39,156.64,188.63,0,52.24,-0.22
dw_cut_4_n1_ch3_opt_disp_struct_7.xyz,Nucleus 13C :,3.463901,-5.338569,2.466126,50.15,163.34,45.69,-58.58,225.14,262.35,275.06,-63.94,-229.22,-318.94,-58.58,45.69,163.34,0,221.92,-0.06
dw_cut_4_n1_ch3_opt_disp_struct_7.xyz,Nucleus 15C :,2.380631,-4.27756,2.382694,65.83,168.95,54.58,-26.05,247.21,273.96,267.24,-79.39,-216.82,-294.71,-26.05,54.58,168.95,0,195.0,-0.17
dw_cut_4_n1_ch3_opt_disp_struct_7.xyz,Nucleus 22C :,1.465611,-4.387651,3.248762,159.82,122.98,192.51,163.97,253.53,219.86,222.99,-96.94,-51.06,-68.92,122.98,163.97,192.51,0,69.53,0.18
dw_cut_4_n1_ch3_opt_disp_struct_7.xyz,Nucleus 23C :,2.528388,-3.412661,1.475186,3.05,-85.11,67.36,26.91,206.38,257.76,265.47,-139.03,-343.14,-238.27,-85.11,26.91,67.36,0,152.47,0.47
dw_cut_4_n1_ch3_opt_disp_struct_7.xyz,Nucleus 5N :,3.019035,-6.333186,2.338448,122.25,62.51,168.49,135.76,298.03,337.82,331.68,-130.33,-201.41,-269.02,62.51,135.76,168.49,0,105.98,0.38
dw_cut_4_n1_ch3_opt_disp_struct_7.xyz,Nucleus 24O :,4.246748,-5.195709,1.713578,-12.36,233.28,-25.41,-244.95,399.14,417.46,419.87,-185.51,-432.34,-655.7,-244.95,-25.41,233.28,0,478.23,-0.08
dw_cut_4_n1_ch3_opt_disp_struct_7.xyz,Nucleus 25O :,3.917865,-5.325614,3.464528,-44.75,203.44,-283.8,-53.89,401.7,429.86,427.39,-226.18,-696.8,-470.2,-283.8,-53.89,203.44,0,487.24,-0.06
dw_cut_4_n1_ch3_opt_disp_struct_8.xyz,Nucleus 1H :,1.01835,0.036946,-1.340447,29.3,35.2,23.72,28.99,39.87,27.97,29.5,-6.27,-0.23,-2.94,23.72,28.99,35.2,0,11.48,-0.08
dw_cut_4_n1_ch3_opt_disp_struct_8.xyz,Nucleus 2H :,1.74618,0.738439,-1.764412,28.63,34.92,24.25,26.72,46.35,24.34,28.13,-12.63,1.9,-2.21,24.25,26.72,34.92,0,10.67,-0.54
dw_cut_4_n1_ch3_opt_disp_struct_8.xyz,Nucleus 6H :,1.331999,-0.9798,-1.61961,24.47,16.66,25.37,31.37,49.76,16.23,31.3,-18.71,0.63,-5.81,16.66,25.37,31.37,0,14.71,0.18
dw_cut_4_n1_ch3_opt_disp_struct_8.xyz,Nucleus 10H :,0.925748,0.186522,0.133637,23.84,29.84,19.31,22.36,32.71,39.15,52.31,-3.08,-18.69,-30.9,19.31,22.36,29.84,0,10.53,-0.42
dw_cut_4_n1_ch3_opt_disp_struct_8.xyz,Nucleus 14H :,1.723543,0.984233,0.930802,24.04,28.61,20.22,23.28,8.27,32.63,46.75,-23.54,12.04,-4.05,20.22,23.28,28.61,0,8.39,-0.27
dw_cut_4_n1_ch3_opt_disp_struct_8.xyz,Nucleus 16H :,1.34634,0.799535,2.233544,24.15,19.78,27.98,24.7,11.03,32.02,48.34,8.84,-4.07,-23.71,19.78,24.7,27.98,0,8.2,0.2
dw_cut_4_n1_ch3_opt_disp_struct_8.xyz,Nucleus 17H :,1.7155,1.304238,3.017512,24.54,21.14,25.45,27.02,45.14,28.72,31.73,-19.59,-7.6,-4.79,21.14,25.45,27.02,0,5.88,0.46
dw_cut_4_n1_ch3_opt_disp_struct_8.xyz,Nucleus 18H :,0.299236,-0.08643,2.30707,29.12,35.4,27.77,24.18,43.9,27.09,34.0,0.16,-11.57,-6.23,24.18,27.77,35.4,0,11.22,-0.36
dw_cut_4_n1_ch3_opt_disp_struct_8.xyz,Nucleus 19H :,0.010759,-0.489276,1.004272,29.32,24.0,29.64,34.33,41.79,23.05,27.97,-8.18,2.09,1.26,24.0,29.64,34.33,0,10.33,0.09
dw_cut_4_n1_ch3_opt_disp_struct_8.xyz,Nucleus 20H :,-1.016968,-1.436204,0.805711,29.03,34.98,24.07,28.04,40.4,13.34,26.19,11.11,-5.74,1.79,24.07,28.04,34.98,0,10.91,-0.27
dw_cut_4_n1_ch3_opt_disp_struct_8.xyz,Nucleus 21H :,-1.230804,-1.803306,-0.195718,28.23,24.47,26.38,33.85,12.93,25.38,40.54,11.72,0.98,-6.85,24.47,26.38,33.85,0,9.38,-0.59
dw_cut_4_n1_ch3_opt_disp_struct_8.xyz,Nucleus 26H :,-1.706074,-1.965294,1.909417,30.01,27.14,29.44,33.44,38.52,21.02,15.89,-5.29,11.96,7.93,27.14,29.44,33.44,0,6.3,-0.27
dw_cut_4_n1_ch3_opt_disp_struct_8.xyz,Nucleus 27H :,-2.746939,-3.030357,1.725261,30.47,34.72,26.11,30.58,38.69,13.83,26.7,-4.14,12.29,4.05,26.11,30.58,34.72,0,8.61,0.04
dw_cut_4_n1_ch3_opt_disp_struct_8.xyz,Nucleus 28H :,-1.381996,-1.534529,3.199434,30.04,33.46,29.53,27.14,38.79,20.24,14.83,-5.47,8.78,12.95,27.14,29.53,33.46,0,6.32,-0.24
dw_cut_4_n1_ch3_opt_disp_struct_8.xyz,Nucleus 0C :,-1.89858,-1.969716,4.050159,172.01,160.46,167.55,188.03,236.41,243.92,256.22,-65.89,-78.6,-76.01,160.46,167.55,188.03,0,27.57,-0.49
dw_cut_4_n1_ch3_opt_disp_struct_8.xyz,Nucleus 3C :,-0.381346,-0.584137,3.422605,63.25,149.2,52.54,-11.98,242.85,262.08,276.26,-93.99,-222.04,-275.41,-11.98,52.54,149.2,0,161.18,-0.2
dw_cut_4_n1_ch3_opt_disp_struct_8.xyz,Nucleus 4C :,-0.093377,-0.310143,4.433786,59.15,-25.14,126.84,75.76,256.0,265.17,273.66,-291.34,-132.98,-193.04,-25.14,75.76,126.84,0,151.98,0.33
dw_cut_4_n1_ch3_opt_disp_struct_8.xyz,Nucleus 7C :,2.54249,1.638152,0.663504,42.1,143.11,-37.33,20.52,263.99,278.06,273.32,-130.18,-310.31,-248.57,-37.33,20.52,143.11,0,180.44,-0.36
dw_cut_4_n1_ch3_opt_disp_struct_8.xyz,Nucleus 8C :,0.05306,0.219642,-1.830981,47.75,168.42,-0.85,-24.31,224.45,265.06,258.66,-56.18,-265.75,-283.0,-24.31,-0.85,168.42,0,192.73,-0.76
dw_cut_4_n1_ch3_opt_disp_struct_8.xyz,Nucleus 9C :,-2.998952,-3.159816,0.667176,54.49,158.36,49.83,-44.72,251.9,269.9,273.17,-94.97,-221.23,-315.3,-44.72,49.83,158.36,0,203.08,-0.07
dw_cut_4_n1_ch3_opt_disp_struct_8.xyz,Nucleus 11C :,-3.673003,-2.79407,2.265307,45.92,172.92,-60.44,25.27,230.97,264.9,273.61,-58.15,-326.53,-247.05,-60.44,25.27,172.92,0,233.36,-0.27
dw_cut_4_n1_ch3_opt_disp_struct_8.xyz,Nucleus 12C :,-2.38546,-3.996963,2.106193,160.59,188.59,136.5,156.67,253.37,223.2,232.24,-60.15,-89.66,-77.23,136.5,156.67,188.59,0,52.09,-0.23
dw_cut_4_n1_ch3_opt_disp_struct_8.xyz,Nucleus 13C :,3.632231,-5.522368,2.485687,50.43,163.35,46.05,-58.12,226.08,261.74,274.75,-64.38,-228.54,-318.37,-58.12,46.05,163.35,0,221.47,-0.06
dw_cut_4_n1_ch3_opt_disp_struct_8.xyz,Nucleus 15C :,2.548961,-4.461359,2.402255,65.79,169.04,54.39,-26.05,247.21,273.53,266.72,-79.04,-216.81,-294.23,-26.05,54.39,169.04,0,195.09,-0.18
dw_cut_4_n1_ch3_opt_disp_struct_8.xyz,Nucleus 22C :,1.633942,-4.57145,3.268322,159.79,123.01,192.36,163.99,253.27,219.8,223.36,-96.85,-51.5,-68.73,123.01,163.99,192.36,0,69.35,0.18
dw_cut_4_n1_ch3_opt_disp_struct_8.xyz,Nucleus 23C :,2.696719,-3.59646,1.494747,3.03,-85.51,67.36,27.23,206.03,257.37,265.76,-138.68,-343.02,-238.38,-85.51,27.23,67.36,0,152.87,0.47
dw_cut_4_n1_ch3_opt_disp_struct_8.xyz,Nucleus 5N :,3.187365,-6.516985,2.358009,121.9,61.98,168.6,135.13,297.94,337.66,331.77,-130.15,-201.91,-269.6,61.98,135.13,168.6,0,106.62,0.37
dw_cut_4_n1_ch3_opt_disp_struct_8.xyz,Nucleus 24O :,4.415079,-5.379508,1.733139,-12.23,233.57,-25.32,-244.93,398.89,418.23,420.5,-185.73,-432.7,-655.89,-244.93,-25.32,233.57,0,478.5,-0.08
dw_cut_4_n1_ch3_opt_disp_struct_8.xyz,Nucleus 25O :,4.086196,-5.509414,3.484088,-44.93,202.63,-282.97,-54.46,401.87,432.67,427.91,-229.9,-697.15,-470.18,-282.97,-54.46,202.63,0,485.6,-0.06
dw_cut_4_n1_ch3_opt_disp_struct_9.xyz,Nucleus 1H :,1.01835,0.036946,-1.340447,29.28,35.17,23.7,28.98,39.83,27.9,29.48,-6.19,-0.24,-2.92,23.7,28.98,35.17,0,11.47,-0.08
dw_cut_4_n1_ch3_opt_disp_struct_9.xyz,Nucleus 2H :,1.74618,0.738439,-1.764412,28.64,34.97,24.25,26.69,46.31,24.31,28.09,-12.51,1.96,-2.24,24.25,26.69,34.97,0,10.72,-0.55
dw_cut_4_n1_ch3_opt_disp_struct_9.xyz,Nucleus 6H :,1.331999,-0.9798,-1.61961,24.43,16.63,25.34,31.33,49.73,16.11,31.24,-18.68,0.68,-5.77,16.63,25.34,31.33,0,14.7,0.19
dw_cut_4_n1_ch3_opt_disp_struct_9.xyz,Nucleus 10H :,0.925748,0.186522,0.133637,23.82,29.86,19.28,22.33,32.53,39.1,52.1,-2.93,-18.7,-30.64,19.28,22.33,29.86,0,10.58,-0.42
dw_cut_4_n1_ch3_opt_disp_struct_9.xyz,Nucleus 14H :,1.723543,0.984233,0.930802,24.03,28.64,20.17,23.28,8.6,32.45,46.68,-23.46,11.66,-3.84,20.17,23.28,28.64,0,8.47,-0.27
dw_cut_4_n1_ch3_opt_disp_struct_9.xyz,Nucleus 16H :,1.34634,0.799535,2.233544,24.13,19.73,27.99,24.68,11.11,31.94,48.19,8.71,-3.99,-23.56,19.73,24.68,27.99,0,8.26,0.2
dw_cut_4_n1_ch3_opt_disp_struct_9.xyz,Nucleus 17H :,1.7155,1.304238,3.017512,24.51,21.1,25.41,27.02,45.08,28.65,31.7,-19.55,-7.6,-4.75,21.1,25.41,27.02,0,5.92,0.46
dw_cut_4_n1_ch3_opt_disp_struct_9.xyz,Nucleus 18H :,0.299236,-0.08643,2.30707,29.11,35.39,27.77,24.18,43.87,27.03,33.9,0.21,-11.46,-6.22,24.18,27.77,35.39,0,11.21,-0.36
dw_cut_4_n1_ch3_opt_disp_struct_9.xyz,Nucleus 19H :,0.010759,-0.489276,1.004272,29.3,23.97,29.62,34.31,41.75,22.91,27.89,-8.14,2.2,1.29,23.97,29.62,34.31,0,10.34,0.09
dw_cut_4_n1_ch3_opt_disp_struct_9.xyz,Nucleus 20H :,-1.016968,-1.436204,0.805711,29.01,34.94,24.06,28.04,40.33,13.36,26.08,11.07,-5.71,1.91,24.06,28.04,34.94,0,10.88,-0.27
dw_cut_4_n1_ch3_opt_disp_struct_9.xyz,Nucleus 21H :,-1.230804,-1.803306,-0.195718,28.24,24.46,26.35,33.9,12.96,25.33,40.52,11.65,1.03,-6.77,24.46,26.35,33.9,0,9.44,-0.6
dw_cut_4_n1_ch3_opt_disp_struct_9.xyz,Nucleus 26H :,-1.706074,-1.965294,1.909417,29.99,27.16,29.45,33.36,15.53,21.21,38.46,12.32,7.77,-5.33,27.16,29.45,33.36,0,6.2,-0.26
dw_cut_4_n1_ch3_opt_disp_struct_9.xyz,Nucleus 27H :,-2.746939,-3.030357,1.725261,30.45,34.67,26.14,30.53,38.81,13.71,26.58,-4.31,12.44,4.12,26.14,30.53,34.67,0,8.53,0.03
dw_cut_4_n1_ch3_opt_disp_struct_9.xyz,Nucleus 28H :,-1.381996,-1.534529,3.199434,30.02,33.37,29.54,27.14,38.72,20.42,14.52,-5.5,8.62,13.26,27.14,29.54,33.37,0,6.23,-0.23
dw_cut_4_n1_ch3_opt_disp_struct_9.xyz,Nucleus 0C :,-1.89858,-1.969716,4.050159,172.06,160.52,167.67,188.0,236.31,243.76,256.31,-66.01,-78.43,-75.75,160.52,167.67,188.0,0,27.48,-0.48
dw_cut_4_n1_ch3_opt_disp_struct_9.xyz,Nucleus 3C :,-0.381346,-0.584137,3.422605,63.28,149.14,52.54,-11.83,242.53,262.09,275.64,-93.76,-221.61,-275.02,-11.83,52.54,149.14,0,160.97,-0.2
dw_cut_4_n1_ch3_opt_disp_struct_9.xyz,Nucleus 4C :,-0.093377,-0.310143,4.433786,58.81,-25.61,126.91,75.14,255.61,265.34,273.59,-291.77,-132.83,-193.5,-25.61,75.14,126.91,0,152.52,0.32
dw_cut_4_n1_ch3_opt_disp_struct_9.xyz,Nucleus 7C :,2.54249,1.638152,0.663504,42.22,143.11,-37.03,20.59,264.12,277.08,272.86,-129.38,-309.58,-248.43,-37.03,20.59,143.11,0,180.14,-0.36
dw_cut_4_n1_ch3_opt_disp_struct_9.xyz,Nucleus 8C :,0.05306,0.219642,-1.830981,47.93,168.34,-0.57,-23.98,224.64,264.67,258.75,-56.43,-264.99,-282.86,-23.98,-0.57,168.34,0,192.32,-0.76
dw_cut_4_n1_ch3_opt_disp_struct_9.xyz,Nucleus 9C :,-2.998952,-3.159816,0.667176,54.57,158.41,49.78,-44.47,251.32,273.18,269.13,-94.44,-221.07,-314.4,-44.47,49.78,158.41,0,202.88,-0.07
dw_cut_4_n1_ch3_opt_disp_struct_9.xyz,Nucleus 11C :,-3.673003,-2.79407,2.265307,45.79,172.93,-60.42,24.86,231.27,264.57,273.27,-58.38,-326.1,-247.25,-60.42,24.86,172.93,0,233.35,-0.27
dw_cut_4_n1_ch3_opt_disp_struct_9.xyz,Nucleus 12C :,-2.38546,-3.996963,2.106193,160.61,188.55,136.6,156.69,253.41,223.12,231.88,-60.18,-89.22,-77.17,136.6,156.69,188.55,0,51.95,-0.23
dw_cut_4_n1_ch3_opt_disp_struct_9.xyz,Nucleus 13C :,3.800562,-5.706167,2.505247,50.66,163.37,46.33,-57.73,226.88,261.09,274.42,-64.67,-227.93,-317.81,-57.73,46.33,163.37,0,221.1,-0.06
dw_cut_4_n1_ch3_opt_disp_struct_9.xyz,Nucleus 15C :,2.717292,-4.645158,2.421815,65.76,169.11,54.22,-26.04,247.09,273.32,266.21,-78.68,-216.83,-293.83,-26.04,54.22,169.11,0,195.15,-0.18
dw_cut_4_n1_ch3_opt_disp_struct_9.xyz,Nucleus 22C :,1.802272,-4.75525,3.287882,159.77,123.04,192.24,164.02,253.06,220.22,224.05,-97.24,-52.19,-68.61,123.04,164.02,192.24,0,69.2,0.18
dw_cut_4_n1_ch3_opt_disp_struct_9.xyz,Nucleus 23C :,2.86505,-3.78026,1.514307,2.99,-85.85,67.36,27.46,205.54,256.96,265.97,-138.18,-342.87,-238.44,-85.85,27.46,67.36,0,153.21,0.48
dw_cut_4_n1_ch3_opt_disp_struct_9.xyz,Nucleus 5N :,3.355696,-6.700784,2.377569,121.62,61.55,168.7,134.6,297.84,337.46,331.85,-129.96,-202.29,-270.05,61.55,134.6,168.7,0,107.15,0.36
dw_cut_4_n1_ch3_opt_disp_struct_9.xyz,Nucleus 24O :,4.58341,-5.563307,1.752699,-12.39,233.74,-25.55,-245.35,398.68,418.47,421.06,-185.36,-433.29,-656.73,-245.35,-25.55,233.74,0,479.09,-0.08
dw_cut_4_n1_ch3_opt_disp_struct_9.xyz,Nucleus 25O :,4.254527,-5.693213,3.503649,-45.26,201.96,-282.68,-55.07,402.01,435.35,428.55,-233.27,-698.15,-470.27,-282.68,-55.07,201.96,0,484.64,-0.06
dw_cut_4_n1_opt.xyz,Nucleus 1H :,0.978144,-0.034569,-1.31988,29.37,34.87,24.21,29.02,39.18,25.29,27.95,3.08,-4.41,-3.0,24.21,29.02,34.87,0,10.66,-0.1
dw_cut_4_n1_opt.xyz,Nucleus 2H :,1.688379,0.69099,-1.732939,28.35,34.7,24.07,26.29,42.4,20.37,27.87,-9.72,4.67,-0.54,24.07,26.29,34.7,0,10.63,-0.58
dw_cut_4_n1_opt.xyz,Nucleus 6H :,1.3088,-1.037945,-1.629003,25.83,17.62,26.72,33.14,16.91,32.06,46.3,-13.89,-5.36,1.45,17.62,26.72,33.14,0,15.52,0.17
dw_cut_4_n1_opt.xyz,Nucleus 10H :,0.894737,0.083977,0.158821,25.63,19.6,27.4,29.89,47.29,28.16,33.44,1.21,-11.2,-22.02,19.6,27.4,29.89,0,10.29,0.52
dw_cut_4_n1_opt.xyz,Nucleus 12H :,1.678677,0.894554,0.956207,25.58,20.97,27.4,28.36,47.04,16.86,31.93,-20.87,5.38,-3.62,20.97,27.4,28.36,0,7.39,0.74
dw_cut_4_n1_opt.xyz,Nucleus 14H :,1.29179,0.722999,2.257678,23.46,21.87,25.0,23.5,9.41,42.99,40.87,12.48,-18.34,-17.03,21.87,23.5,25.0,0,3.13,0.04
dw_cut_4_n1_opt.xyz,Nucleus 16H :,1.650136,1.238017,3.039669,25.63,20.78,28.89,27.22,13.95,35.3,47.03,8.12,-6.49,-21.02,20.78,27.22,28.89,0,8.11,0.59
dw_cut_4_n1_opt.xyz,Nucleus 17H :,0.262233,-0.185252,2.332584,25.26,22.07,26.34,27.37,44.52,28.1,29.67,-18.2,-6.29,-2.02,22.07,26.34,27.37,0,5.3,0.61
dw_cut_4_n1_opt.xyz,Nucleus 18H :,-0.011169,-0.603066,1.029663,28.52,34.96,27.43,23.16,41.17,25.1,30.5,-9.58,1.24,-2.88,23.16,27.43,34.96,0,11.8,-0.28
dw_cut_4_n1_opt.xyz,Nucleus 23H :,-1.04211,-1.544829,0.830653,30.32,34.58,29.12,27.26,38.57,23.24,21.91,7.21,4.29,-4.25,27.26,29.12,34.58,0,7.32,-0.49
dw_cut_4_n1_opt.xyz,Nucleus 24H :,-1.243635,-1.918283,-0.170144,30.51,24.81,35.58,31.14,15.85,38.7,29.68,9.05,-3.21,1.47,24.81,31.14,35.58,0,10.77,0.18
dw_cut_4_n1_opt.xyz,Nucleus 25H :,-1.754567,-2.032708,1.932552,30.22,35.02,29.8,25.84,40.07,21.54,20.77,-5.21,8.92,4.58,25.84,29.8,35.02,0,9.18,-0.14
dw_cut_4_n1_opt.xyz,Nucleus 0C :,-2.51362,-2.796131,1.784722,171.06,159.8,165.53,187.86,233.09,240.16,251.35,-72.74,-75.7,-62.97,159.8,165.53,187.86,0,28.06,-0.59
dw_cut_4_n1_opt.xyz,Nucleus 3C :,-1.455646,-1.596003,3.220569,69.79,151.16,65.91,-7.71,239.22,260.85,271.69,-89.63,-201.38,-271.4,-7.71,65.91,151.16,0,158.87,-0.07
dw_cut_4_n1_opt.xyz,Nucleus 4C :,-1.979262,-2.022088,4.070344,67.43,-11.47,125.32,88.44,250.53,270.58,264.51,-275.87,-130.59,-176.87,-11.47,88.44,125.32,0,136.79,0.46
dw_cut_4_n1_opt.xyz,Nucleus 7C :,-0.440416,-0.662021,3.446074,55.53,142.55,-20.64,44.67,273.89,256.86,266.24,-124.6,-283.88,-221.93,-20.64,44.67,142.55,0,163.19,-0.2
dw_cut_4_n1_opt.xyz,Nucleus 8C :,-0.158307,-0.378329,4.456402,47.02,169.32,-1.21,-27.06,219.14,238.13,244.86,-52.6,-241.25,-267.23,-27.06,-1.21,169.32,0,196.38,-0.74
dw_cut_4_n1_opt.xyz,Nucleus 9C :,2.480066,1.569137,0.685866,84.51,180.47,84.75,-11.69,247.41,262.47,265.83,-67.91,-177.03,-277.23,-11.69,84.75,180.47,0,192.16,0.0
dw_cut_4_n1_opt.xyz,Nucleus 11C :,0.005073,0.140766,-1.797348,66.88,-40.51,170.14,71.02,233.4,258.1,268.62,-63.33,-301.33,-194.82,-40.51,71.02,170.14,0,210.65,0.06
dw_cut_4_n1_opt.xyz,Nucleus 13C :,2.091927,-3.86989,2.306706,56.74,170.84,56.66,-57.28,221.6,280.53,252.23,-54.83,-223.82,-305.49,-57.28,56.66,170.84,0,228.12,-0.0
dw_cut_4_n1_opt.xyz,Nucleus 15C :,1.016882,-2.800305,2.226445,81.46,168.78,80.68,-5.09,244.15,270.11,262.48,-75.97,-188.34,-268.08,-5.09,80.68,168.78,0,173.87,-0.01
dw_cut_4_n1_opt.xyz,Nucleus 19C :,0.104902,-2.901669,3.096773,156.25,193.91,119.74,155.1,255.88,231.61,229.25,-109.57,-57.94,-80.48,119.74,155.1,193.91,0,74.17,-0.05
dw_cut_4_n1_opt.xyz,Nucleus 20C :,1.167531,-1.938033,1.316915,9.8,-97.06,108.21,18.25,206.68,260.42,269.74,-98.98,-362.31,-246.17,-97.06,18.25,108.21,0,205.27,0.12
dw_cut_4_n1_opt.xyz,Nucleus 5N :,1.661706,-4.828276,1.989214,135.52,88.39,166.91,151.26,297.18,334.55,325.82,-236.83,-132.5,-181.67,88.39,151.26,166.91,0,78.52,0.6
dw_cut_4_n1_opt.xyz,Nucleus 21O :,2.956973,-3.650632,1.670477,-178.72,-617.67,-62.42,143.94,393.79,448.62,422.81,-1063.14,-459.5,-278.72,-617.67,-62.42,143.94,0,761.61,0.46
dw_cut_4_n1_opt.xyz,Nucleus 22O :,2.420257,-3.99895,3.344162,-204.14,-653.63,-44.8,86.0,447.36,416.63,402.62,-1097.21,-452.25,-329.6,-653.63,-44.8,86.0,0,739.63,0.65
dw_cut_4_n1_opt_disp_struct_0.xyz,Nucleus 1H :,0.978144,-0.034569,-1.31988,29.36,35.0,23.97,29.1,39.37,25.86,28.49,2.64,-4.96,-3.34,23.97,29.1,35.0,0,11.03,-0.07
dw_cut_4_n1_opt_disp_struct_0.xyz,Nucleus 2H :,1.688379,0.69099,-1.732939,28.49,34.7,24.3,26.47,43.44,21.05,27.68,-10.62,4.26,-0.35,24.3,26.47,34.7,0,10.4,-0.58
dw_cut_4_n1_opt_disp_struct_0.xyz,Nucleus 6H :,1.3088,-1.037945,-1.629003,25.31,17.36,26.08,32.48,16.93,32.06,47.05,-15.22,-5.82,0.91,17.36,26.08,32.48,0,15.12,0.15
dw_cut_4_n1_opt_disp_struct_0.xyz,Nucleus 10H :,0.894737,0.083977,0.158821,24.74,19.62,29.17,25.43,29.14,34.2,47.92,-0.07,-12.95,-24.02,19.62,25.43,29.17,0,9.55,0.22
dw_cut_4_n1_opt_disp_struct_0.xyz,Nucleus 12H :,1.678677,0.894554,0.956207,24.99,20.9,26.27,27.79,47.67,15.78,32.35,-22.23,5.95,-4.57,20.9,26.27,27.79,0,6.89,0.56
dw_cut_4_n1_opt_disp_struct_0.xyz,Nucleus 14H :,1.29179,0.722999,2.257678,23.63,21.39,25.85,23.66,7.14,42.45,40.71,14.32,-18.49,-15.22,21.39,23.66,25.85,0,4.46,0.02
dw_cut_4_n1_opt_disp_struct_0.xyz,Nucleus 16H :,1.650136,1.238017,3.039669,25.05,20.52,28.53,26.1,12.59,35.23,47.43,8.68,-6.84,-21.95,20.52,26.1,28.53,0,8.01,0.39
dw_cut_4_n1_opt_disp_struct_0.xyz,Nucleus 17H :,0.262233,-0.185252,2.332584,25.04,21.74,26.07,27.3,44.73,28.48,30.25,-18.7,-7.05,-2.61,21.74,26.07,27.3,0,5.56,0.56
dw_cut_4_n1_opt_disp_struct_0.xyz,Nucleus 18H :,-0.011169,-0.603066,1.029663,28.77,35.19,27.49,23.63,41.63,25.62,31.43,-10.04,0.95,-3.27,23.63,27.49,35.19,0,11.56,-0.33
dw_cut_4_n1_opt_disp_struct_0.xyz,Nucleus 23H :,-1.04211,-1.544829,0.830653,30.33,34.47,29.04,27.47,38.67,22.3,21.11,-4.51,7.51,5.9,27.47,29.04,34.47,0,7.0,-0.55
dw_cut_4_n1_opt_disp_struct_0.xyz,Nucleus 24H :,-1.243635,-1.918283,-0.170144,30.73,25.47,35.55,31.17,15.29,38.6,29.31,10.25,-3.17,1.91,25.47,31.17,35.55,0,10.08,0.13
dw_cut_4_n1_opt_disp_struct_0.xyz,Nucleus 25H :,-1.754567,-2.032708,1.932552,30.37,34.96,29.84,26.32,40.12,20.65,19.63,-5.33,9.57,6.47,26.32,29.84,34.96,0,8.64,-0.18
dw_cut_4_n1_opt_disp_struct_0.xyz,Nucleus 0C :,-2.51362,-2.796131,1.784722,171.01,159.53,165.61,187.89,234.2,241.02,252.22,-74.49,-76.55,-63.38,159.53,165.61,187.89,0,28.36,-0.57
dw_cut_4_n1_opt_disp_struct_0.xyz,Nucleus 3C :,-1.455646,-1.596003,3.220569,64.35,149.54,57.47,-13.95,240.14,260.76,272.3,-91.41,-211.18,-277.55,-13.95,57.47,149.54,0,163.49,-0.13
dw_cut_4_n1_opt_disp_struct_0.xyz,Nucleus 4C :,-1.979262,-2.022088,4.070344,64.89,-16.49,125.66,85.5,252.23,271.76,265.76,-282.13,-132.01,-180.93,-16.49,85.5,125.66,0,142.15,0.43
dw_cut_4_n1_opt_disp_struct_0.xyz,Nucleus 7C :,-0.440416,-0.662021,3.446074,46.18,142.68,-33.24,29.09,256.39,277.78,270.41,-128.97,-301.3,-235.8,-33.24,29.09,142.68,0,175.92,-0.29
dw_cut_4_n1_opt_disp_struct_0.xyz,Nucleus 8C :,-0.158307,-0.378329,4.456402,39.27,171.34,-13.58,-39.95,222.63,251.33,246.9,-52.37,-262.88,-287.79,-39.95,-13.58,171.34,0,211.29,-0.75
dw_cut_4_n1_opt_disp_struct_0.xyz,Nucleus 9C :,2.480066,1.569137,0.685866,68.27,175.01,61.85,-32.05,248.84,265.3,266.6,-74.4,-202.89,-298.64,-32.05,61.85,175.01,0,207.06,-0.09
dw_cut_4_n1_opt_disp_struct_0.xyz,Nucleus 11C :,0.005073,0.140766,-1.797348,61.14,-48.76,171.59,60.58,232.58,259.87,271.74,-61.32,-311.43,-208.02,-48.76,60.58,171.59,0,220.35,-0.01
dw_cut_4_n1_opt_disp_struct_0.xyz,Nucleus 13C :,2.257249,-4.05576,2.331619,50.74,172.54,45.87,-66.18,279.45,224.57,250.61,-52.53,-233.56,-316.3,-66.18,45.87,172.54,0,238.72,-0.06
dw_cut_4_n1_opt_disp_struct_0.xyz,Nucleus 15C :,1.182204,-2.986176,2.251358,72.92,168.45,66.19,-15.87,244.82,273.65,263.43,-77.45,-206.24,-279.43,-15.87,66.19,168.45,0,184.32,-0.11
dw_cut_4_n1_opt_disp_struct_0.xyz,Nucleus 19C :,0.270224,-3.08754,3.121686,158.34,120.94,193.94,160.15,255.69,230.91,227.0,-106.15,-56.57,-75.85,120.94,160.15,193.94,0,73.0,0.07
dw_cut_4_n1_opt_disp_struct_0.xyz,Nucleus 20C :,1.332853,-2.123904,1.341828,8.71,-84.25,90.59,19.79,203.33,258.77,267.79,-112.99,-347.76,-243.0,-84.25,19.79,90.59,0,174.84,0.19
dw_cut_4_n1_opt_disp_struct_0.xyz,Nucleus 5N :,1.827028,-5.014146,2.014127,130.22,77.49,166.07,147.1,298.52,335.8,327.6,-249.66,-133.41,-188.19,77.49,147.1,166.07,0,88.58,0.57
dw_cut_4_n1_opt_disp_struct_0.xyz,Nucleus 21O :,3.122295,-3.836503,1.69539,-120.05,-473.79,-54.55,168.18,395.78,431.52,435.1,-906.42,-452.71,-263.43,-473.79,-54.55,168.18,0,641.97,0.31
dw_cut_4_n1_opt_disp_struct_0.xyz,Nucleus 22O :,2.585579,-4.18482,3.369076,-152.5,-523.37,-65.57,131.45,403.13,422.59,443.44,-959.56,-475.12,-291.95,-523.37,-65.57,131.45,0,654.82,0.4
dw_cut_4_n1_opt_disp_struct_1.xyz,Nucleus 1H :,0.978144,-0.034569,-1.31988,29.36,35.11,23.86,29.12,39.59,26.52,28.88,2.01,-5.63,-3.28,23.86,29.12,35.11,0,11.25,-0.06
dw_cut_4_n1_opt_disp_struct_1.xyz,Nucleus 2H :,1.688379,0.69099,-1.732939,28.55,34.73,24.32,26.61,44.22,22.03,27.55,-11.28,3.37,-0.23,24.32,26.61,34.73,0,10.41,-0.56
dw_cut_4_n1_opt_disp_struct_1.xyz,Nucleus 6H :,1.3088,-1.037945,-1.629003,25.0,17.16,25.75,32.09,47.83,16.94,31.85,-16.36,0.63,-5.89,17.16,25.75,32.09,0,14.93,0.15
dw_cut_4_n1_opt_disp_struct_1.xyz,Nucleus 10H :,0.894737,0.083977,0.158821,24.26,19.61,28.84,24.34,30.15,34.79,48.68,-1.44,-13.81,-25.58,19.61,24.34,28.84,0,9.23,0.03
dw_cut_4_n1_opt_disp_struct_1.xyz,Nucleus 12H :,1.678677,0.894554,0.956207,24.62,20.81,25.55,27.5,14.9,48.04,32.49,-23.06,6.51,-5.01,20.81,25.55,27.5,0,6.69,0.42
dw_cut_4_n1_opt_disp_struct_1.xyz,Nucleus 14H :,1.29179,0.722999,2.257678,23.8,21.11,26.36,23.93,5.65,43.02,38.98,15.55,-12.76,-19.06,21.11,23.93,26.36,0,5.25,0.07
dw_cut_4_n1_opt_disp_struct_1.xyz,Nucleus 16H :,1.650136,1.238017,3.039669,24.67,20.31,28.27,25.44,11.63,34.63,47.7,9.15,-6.45,-22.64,20.31,25.44,28.27,0,7.96,0.29
dw_cut_4_n1_opt_disp_struct_1.xyz,Nucleus 17H :,0.262233,-0.185252,2.332584,24.89,21.55,25.92,27.21,44.89,28.82,30.71,-19.02,-7.45,-3.28,21.55,25.92,27.21,0,5.66,0.55
dw_cut_4_n1_opt_disp_struct_1.xyz,Nucleus 18H :,-0.011169,-0.603066,1.029663,28.94,35.36,27.56,23.89,42.13,26.19,32.21,-10.53,0.53,-3.72,23.89,27.56,35.36,0,11.47,-0.36
dw_cut_4_n1_opt_disp_struct_1.xyz,Nucleus 23H :,-1.04211,-1.544829,0.830653,30.26,34.27,29.03,27.48,38.63,21.4,20.13,-4.66,7.8,7.48,27.48,29.03,34.27,0,6.79,-0.54
dw_cut_4_n1_opt_disp_struct_1.xyz,Nucleus 24H :,-1.243635,-1.918283,-0.170144,30.75,25.75,35.44,31.07,14.84,38.5,28.68,10.97,-3.19,2.47,25.75,31.07,35.44,0,9.69,0.1
dw_cut_4_n1_opt_disp_struct_1.xyz,Nucleus 25H :,-1.754567,-2.032708,1.932552,30.39,34.82,29.82,26.53,40.03,19.98,18.17,-5.36,8.14,10.22,26.53,29.82,34.82,0,8.29,-0.21
dw_cut_4_n1_opt_disp_struct_1.xyz,Nucleus 0C :,-2.51362,-2.796131,1.784722,171.09,159.45,165.8,188.01,235.23,241.89,253.11,-77.48,-76.0,-63.49,159.45,165.8,188.01,0,28.56,-0.56
dw_cut_4_n1_opt_disp_struct_1.xyz,Nucleus 3C :,-1.455646,-1.596003,3.220569,62.5,149.48,53.76,-15.73,241.0,261.11,273.77,-92.09,-216.43,-279.85,-15.73,53.76,149.48,0,165.21,-0.16
dw_cut_4_n1_opt_disp_struct_1.xyz,Nucleus 4C :,-1.979262,-2.022088,4.070344,63.39,-19.29,126.03,83.42,253.93,272.55,265.84,-285.43,-132.62,-184.11,-19.29,83.42,126.03,0,145.32,0.41
dw_cut_4_n1_opt_disp_struct_1.xyz,Nucleus 7C :,-0.440416,-0.662021,3.446074,41.85,142.93,-39.91,22.53,257.35,280.37,273.0,-131.57,-311.38,-242.21,-39.91,22.53,142.93,0,182.84,-0.32
dw_cut_4_n1_opt_disp_struct_1.xyz,Nucleus 8C :,-0.158307,-0.378329,4.456402,39.66,171.87,-13.24,-39.65,224.36,257.37,251.93,-53.15,-269.52,-292.0,-39.65,-13.24,171.87,0,211.52,-0.75
dw_cut_4_n1_opt_disp_struct_1.xyz,Nucleus 9C :,2.480066,1.569137,0.685866,60.32,174.51,49.74,-43.3,248.86,269.5,268.02,-76.87,-217.03,-311.54,-43.3,49.74,174.51,0,217.81,-0.15
dw_cut_4_n1_opt_disp_struct_1.xyz,Nucleus 11C :,0.005073,0.140766,-1.797348,58.28,-53.14,172.48,55.51,230.28,262.05,272.95,-58.55,-317.24,-214.65,-53.14,55.51,172.48,0,225.62,-0.04
dw_cut_4_n1_opt_disp_struct_1.xyz,Nucleus 13C :,2.422571,-4.241631,2.356532,49.18,173.52,41.64,-67.61,222.13,278.15,252.62,-48.68,-236.51,-320.18,-67.61,41.64,173.52,0,241.13,-0.09
dw_cut_4_n1_opt_disp_struct_1.xyz,Nucleus 15C :,1.347526,-3.172047,2.276271,68.79,168.76,59.33,-21.72,244.03,274.65,265.62,-77.13,-214.06,-286.74,-21.72,59.33,168.76,0,190.48,-0.15
dw_cut_4_n1_opt_disp_struct_1.xyz,Nucleus 19C :,0.435546,-3.273411,3.1466,159.24,121.35,193.67,162.69,255.31,229.12,224.39,-103.14,-55.14,-72.84,121.35,162.69,193.67,0,72.32,0.14
dw_cut_4_n1_opt_disp_struct_1.xyz,Nucleus 20C :,1.498175,-2.309775,1.366741,6.32,-81.54,79.17,21.32,201.19,257.41,266.45,-122.14,-343.83,-240.12,-81.54,21.32,79.17,0,160.71,0.28
dw_cut_4_n1_opt_disp_struct_1.xyz,Nucleus 5N :,1.992351,-5.200017,2.03904,127.18,71.51,166.33,143.71,299.41,336.58,328.84,-133.6,-192.54,-257.14,71.51,143.71,166.33,0,94.82,0.52
dw_cut_4_n1_opt_disp_struct_1.xyz,Nucleus 21O :,3.287617,-4.022374,1.720303,-78.27,193.97,-55.58,-373.21,397.84,423.72,432.37,-795.43,-455.59,-237.72,-373.21,-55.58,193.97,0,567.18,0.12
dw_cut_4_n1_opt_disp_struct_1.xyz,Nucleus 22O :,2.750901,-4.370691,3.393989,-104.81,-412.62,-72.43,170.61,401.17,421.25,436.91,-837.3,-485.45,-251.02,-412.62,-72.43,170.61,0,583.23,0.17
dw_cut_4_n1_opt_disp_struct_10.xyz,Nucleus 1H :,0.978144,-0.034569,-1.31988,29.23,35.03,23.62,29.04,39.71,27.71,29.12,-6.14,0.25,-2.96,23.62,29.04,35.03,0,11.41,-0.05
dw_cut_4_n1_opt_disp_struct_10.xyz,Nucleus 2H :,1.688379,0.69099,-1.732939,28.59,35.09,24.27,26.42,45.12,23.92,27.28,-11.35,2.02,-1.22,24.27,26.42,35.09,0,10.82,-0.6
dw_cut_4_n1_opt_disp_struct_10.xyz,Nucleus 6H :,1.3088,-1.037945,-1.629003,24.31,16.53,25.25,31.16,49.31,15.86,30.82,-18.56,0.88,-5.37,16.53,25.25,31.16,0,14.63,0.19
dw_cut_4_n1_opt_disp_struct_10.xyz,Nucleus 10H :,0.894737,0.083977,0.158821,23.59,28.62,19.16,22.98,48.29,30.32,34.18,-2.38,-13.97,-25.67,19.16,22.98,28.62,0,9.46,-0.19
dw_cut_4_n1_opt_disp_struct_10.xyz,Nucleus 12H :,1.678677,0.894554,0.956207,23.97,20.25,24.36,27.31,47.35,14.97,30.07,-23.03,5.39,-2.82,20.25,24.36,27.31,0,7.06,0.17
dw_cut_4_n1_opt_disp_struct_10.xyz,Nucleus 14H :,1.29179,0.722999,2.257678,23.94,20.3,27.18,24.34,5.53,32.5,44.11,14.81,-5.4,-19.73,20.3,24.34,27.18,0,6.88,0.17
dw_cut_4_n1_opt_disp_struct_10.xyz,Nucleus 16H :,1.650136,1.238017,3.039669,24.03,19.63,27.98,24.49,10.52,31.27,47.02,-22.59,9.21,-3.32,19.63,24.49,27.98,0,8.35,0.17
dw_cut_4_n1_opt_disp_struct_10.xyz,Nucleus 17H :,0.262233,-0.185252,2.332584,24.44,21.0,25.27,27.06,45.05,28.51,30.95,-19.68,-7.47,-4.03,21.0,25.27,27.06,0,6.06,0.41
dw_cut_4_n1_opt_disp_struct_10.xyz,Nucleus 18H :,-0.011169,-0.603066,1.029663,29.1,35.46,27.64,24.19,43.18,27.01,32.94,0.08,-10.64,-5.27,24.19,27.64,35.46,0,11.27,-0.39
dw_cut_4_n1_opt_disp_struct_10.xyz,Nucleus 23H :,-1.04211,-1.544829,0.830653,29.9,32.97,29.18,27.56,15.32,22.47,37.73,13.04,6.19,-5.05,27.56,29.18,32.97,0,5.41,-0.4
dw_cut_4_n1_opt_disp_struct_10.xyz,Nucleus 24H :,-1.243635,-1.918283,-0.170144,30.43,34.58,26.25,30.45,38.87,13.38,26.07,-4.46,12.89,4.53,26.25,30.45,34.58,0,8.33,0.01
dw_cut_4_n1_opt_disp_struct_10.xyz,Nucleus 25H :,-1.754567,-2.032708,1.932552,30.09,33.64,29.82,26.81,38.9,20.09,13.22,-5.36,9.51,13.92,26.81,29.82,33.64,0,6.83,-0.12
dw_cut_4_n1_opt_disp_struct_10.xyz,Nucleus 0C :,-2.51362,-2.796131,1.784722,171.95,160.4,167.42,188.04,236.37,243.28,255.36,-65.23,-78.26,-75.68,160.4,167.42,188.04,0,27.64,-0.49
dw_cut_4_n1_opt_disp_struct_10.xyz,Nucleus 3C :,-1.455646,-1.596003,3.220569,62.86,149.08,53.1,-13.6,241.38,262.57,273.68,-92.44,-219.7,-276.91,-13.6,53.1,149.08,0,162.68,-0.18
dw_cut_4_n1_opt_disp_struct_10.xyz,Nucleus 4C :,-1.979262,-2.022088,4.070344,58.31,-26.99,127.18,74.75,255.13,265.5,272.57,-293.11,-131.55,-193.6,-26.99,74.75,127.18,0,154.17,0.32
dw_cut_4_n1_opt_disp_struct_10.xyz,Nucleus 7C :,-0.440416,-0.662021,3.446074,40.2,143.05,-41.6,19.14,261.92,273.09,275.47,-127.64,-314.38,-247.87,-41.6,19.14,143.05,0,184.65,-0.34
dw_cut_4_n1_opt_disp_struct_10.xyz,Nucleus 8C :,-0.158307,-0.378329,4.456402,48.38,171.18,0.22,-26.26,227.23,264.65,259.82,-56.07,-264.31,-286.18,-26.26,0.22,171.18,0,197.44,-0.73
dw_cut_4_n1_opt_disp_struct_10.xyz,Nucleus 9C :,2.480066,1.569137,0.685866,54.65,175.71,38.93,-50.7,250.63,271.06,262.74,-75.68,-229.23,-315.57,-50.7,38.93,175.71,0,226.41,-0.21
dw_cut_4_n1_opt_disp_struct_10.xyz,Nucleus 11C :,0.005073,0.140766,-1.797348,55.79,174.74,-56.59,49.23,229.3,263.3,268.84,-54.94,-319.7,-219.42,-56.59,49.23,174.74,0,231.33,-0.09
dw_cut_4_n1_opt_disp_struct_10.xyz,Nucleus 13C :,3.910471,-5.914467,2.580751,52.67,175.19,43.34,-60.52,219.75,273.01,256.75,-44.78,-229.56,-317.16,-60.52,43.34,175.19,0,235.71,-0.12
dw_cut_4_n1_opt_disp_struct_10.xyz,Nucleus 15C :,2.835426,-4.844883,2.50049,65.83,170.31,53.27,-26.1,244.01,271.35,265.29,-74.51,-217.23,-291.43,-26.1,53.27,170.31,0,196.41,-0.19
dw_cut_4_n1_opt_disp_struct_10.xyz,Nucleus 19C :,1.923446,-4.946247,3.370818,159.72,122.29,191.66,165.21,252.42,225.66,218.43,-96.34,-53.62,-67.41,122.29,165.21,191.66,0,69.37,0.24
dw_cut_4_n1_opt_disp_struct_10.xyz,Nucleus 20C :,2.986075,-3.982611,1.59096,3.03,-86.06,67.22,27.94,204.14,256.11,265.74,-136.92,-342.2,-237.76,-86.06,27.94,67.22,0,153.28,0.49
dw_cut_4_n1_opt_disp_struct_10.xyz,Nucleus 5N :,3.48025,-6.872853,2.263259,120.76,60.26,168.1,133.91,298.91,337.59,330.27,-131.31,-203.16,-270.02,60.26,133.91,168.1,0,107.84,0.37
dw_cut_4_n1_opt_disp_struct_10.xyz,Nucleus 21O :,4.775517,-5.69521,1.944522,-16.95,230.33,-29.86,-251.33,397.36,411.16,423.87,-182.71,-437.02,-663.51,-251.33,-29.86,230.33,0,481.66,-0.08
dw_cut_4_n1_opt_disp_struct_10.xyz,Nucleus 22O :,4.238801,-6.043527,3.618208,-41.42,205.68,-277.44,-52.49,401.28,437.51,427.87,-231.09,-692.83,-466.99,-277.44,-52.49,205.68,0,483.12,-0.07
dw_cut_4_n1_opt_disp_struct_11.xyz,Nucleus 1H :,0.978144,-0.034569,-1.31988,29.21,35.01,23.59,29.03,39.67,27.63,29.09,-6.07,0.27,-2.96,23.59,29.03,35.01,0,11.42,-0.05
dw_cut_4_n1_opt_disp_struct_11.xyz,Nucleus 2H :,1.688379,0.69099,-1.732939,28.6,35.13,24.28,26.4,45.07,23.87,27.2,-11.25,2.1,-1.18,24.28,26.4,35.13,0,10.85,-0.61
dw_cut_4_n1_opt_disp_struct_11.xyz,Nucleus 6H :,1.3088,-1.037945,-1.629003,24.28,16.49,25.23,31.13,49.23,15.79,30.78,-18.49,0.87,-5.33,16.49,25.23,31.13,0,14.64,0.19
dw_cut_4_n1_opt_disp_struct_11.xyz,Nucleus 10H :,0.894737,0.083977,0.158821,23.57,28.63,19.11,22.98,48.09,30.14,34.12,-2.25,-13.93,-25.45,19.11,22.98,28.63,0,9.52,-0.19
dw_cut_4_n1_opt_disp_struct_11.xyz,Nucleus 12H :,1.678677,0.894554,0.956207,23.96,20.21,24.36,27.31,47.21,15.03,29.99,-22.89,5.29,-2.75,20.21,24.36,27.31,0,7.1,0.17
dw_cut_4_n1_opt_disp_struct_11.xyz,Nucleus 14H :,1.29179,0.722999,2.257678,23.94,20.26,27.2,24.35,5.67,32.37,44.06,14.62,-5.25,-19.67,20.26,24.35,27.2,0,6.94,0.18
dw_cut_4_n1_opt_disp_struct_11.xyz,Nucleus 16H :,1.650136,1.238017,3.039669,24.02,19.59,27.99,24.49,10.6,31.25,46.86,-22.42,9.07,-3.3,19.59,24.49,27.99,0,8.4,0.17
dw_cut_4_n1_opt_disp_struct_11.xyz,Nucleus 17H :,0.262233,-0.185252,2.332584,24.42,20.96,25.24,27.06,44.98,28.47,30.91,-19.63,-7.47,-3.99,20.96,25.24,27.06,0,6.1,0.4
dw_cut_4_n1_opt_disp_struct_11.xyz,Nucleus 18H :,-0.011169,-0.603066,1.029663,29.09,35.45,27.63,24.18,43.12,26.95,32.85,0.12,-10.55,-5.23,24.18,27.63,35.45,0,11.27,-0.39
dw_cut_4_n1_opt_disp_struct_11.xyz,Nucleus 23H :,-1.04211,-1.544829,0.830653,29.88,32.9,29.18,27.57,15.02,22.7,37.71,13.35,5.99,-5.11,27.57,29.18,32.9,0,5.33,-0.39
dw_cut_4_n1_opt_disp_struct_11.xyz,Nucleus 24H :,-1.243635,-1.918283,-0.170144,30.41,34.54,26.27,30.41,39.0,13.29,25.97,-4.64,13.0,4.59,26.27,30.41,34.54,0,8.27,0.0
dw_cut_4_n1_opt_disp_struct_11.xyz,Nucleus 25H :,-1.754567,-2.032708,1.932552,30.07,33.57,29.82,26.82,38.86,20.2,12.97,-5.41,9.41,14.17,26.82,29.82,33.57,0,6.75,-0.11
dw_cut_4_n1_opt_disp_struct_11.xyz,Nucleus 0C :,-2.51362,-2.796131,1.784722,171.99,160.43,167.51,188.02,236.27,243.09,255.43,-65.33,-78.04,-75.45,160.43,167.51,188.02,0,27.59,-0.49
dw_cut_4_n1_opt_disp_struct_11.xyz,Nucleus 3C :,-1.455646,-1.596003,3.220569,62.88,149.05,53.06,-13.48,241.23,262.53,273.23,-92.32,-219.36,-276.69,-13.48,53.06,149.05,0,162.53,-0.18
dw_cut_4_n1_opt_disp_struct_11.xyz,Nucleus 4C :,-1.979262,-2.022088,4.070344,58.04,-27.37,127.22,74.26,254.87,265.57,272.49,-293.43,-131.45,-193.93,-27.37,74.26,127.22,0,154.59,0.31
dw_cut_4_n1_opt_disp_struct_11.xyz,Nucleus 7C :,-0.440416,-0.662021,3.446074,40.29,143.03,-41.36,19.2,261.78,272.81,274.95,-127.11,-313.73,-247.83,-41.36,19.2,143.03,0,184.39,-0.34
dw_cut_4_n1_opt_disp_struct_11.xyz,Nucleus 8C :,-0.158307,-0.378329,4.456402,48.53,171.15,0.42,-25.98,227.38,264.04,259.93,-56.24,-263.55,-285.97,-25.98,0.42,171.15,0,197.13,-0.73
dw_cut_4_n1_opt_disp_struct_11.xyz,Nucleus 9C :,2.480066,1.569137,0.685866,54.68,175.75,38.85,-50.56,250.12,271.01,262.23,-75.26,-229.11,-314.95,-50.56,38.85,175.75,0,226.31,-0.21
dw_cut_4_n1_opt_disp_struct_11.xyz,Nucleus 11C :,0.005073,0.140766,-1.797348,55.78,174.83,-56.55,49.06,229.37,262.91,268.67,-54.87,-319.32,-219.41,-56.55,49.06,174.83,0,231.38,-0.09
dw_cut_4_n1_opt_disp_struct_11.xyz,Nucleus 13C :,4.075793,-6.100338,2.605664,52.78,175.24,43.4,-60.31,220.03,272.7,256.54,-44.93,-229.18,-316.82,-60.31,43.4,175.24,0,235.55,-0.12
dw_cut_4_n1_opt_disp_struct_11.xyz,Nucleus 15C :,3.000748,-5.030753,2.525403,65.82,170.36,53.15,-26.05,243.78,271.34,264.79,-74.16,-217.26,-291.01,-26.05,53.15,170.36,0,196.41,-0.19
dw_cut_4_n1_opt_disp_struct_11.xyz,Nucleus 19C :,2.088768,-5.132118,3.395731,159.7,122.27,191.56,165.27,252.33,226.38,219.02,-96.98,-54.28,-67.38,122.27,165.27,191.56,0,69.29,0.24
dw_cut_4_n1_opt_disp_struct_11.xyz,Nucleus 20C :,3.151397,-4.168481,1.615873,2.98,-86.31,67.2,28.04,203.76,255.78,265.97,-136.57,-342.1,-237.91,-86.31,28.04,67.2,0,153.51,0.49
dw_cut_4_n1_opt_disp_struct_11.xyz,Nucleus 5N :,3.645572,-7.058724,2.288172,120.51,59.88,168.17,133.47,298.88,337.39,330.25,-131.15,-203.46,-270.39,59.88,133.47,168.17,0,108.29,0.36
dw_cut_4_n1_opt_disp_struct_11.xyz,Nucleus 21O :,4.940839,-5.88108,1.969435,-16.94,230.78,-29.96,-251.63,397.11,410.65,424.71,-181.56,-437.42,-664.31,-251.63,-29.96,230.78,0,482.41,-0.08
dw_cut_4_n1_opt_disp_struct_11.xyz,Nucleus 22O :,4.404123,-6.229398,3.643121,-41.83,205.61,-278.04,-53.05,401.43,439.48,428.61,-233.1,-694.79,-467.1,-278.04,-53.05,205.61,0,483.65,-0.07
dw_cut_4_n1_opt_disp_struct_12.xyz,Nucleus 1H :,0.978144,-0.034569,-1.31988,29.19,34.99,23.57,29.02,39.63,27.55,29.08,-6.01,0.29,-2.95,23.57,29.02,34.99,0,11.42,-0.04
dw_cut_4_n1_opt_disp_struct_12.xyz,Nucleus 2H :,1.688379,0.69099,-1.732939,28.61,35.17,24.28,26.38,45.03,23.82,27.12,-11.15,2.16,-1.14,24.28,26.38,35.17,0,10.89,-0.61
dw_cut_4_n1_opt_disp_struct_12.xyz,Nucleus 6H :,1.3088,-1.037945,-1.629003,24.26,16.45,25.22,31.11,49.15,15.74,30.74,-18.42,0.86,-5.3,16.45,25.22,31.11,0,14.66,0.2
dw_cut_4_n1_opt_disp_struct_12.xyz,Nucleus 10H :,0.894737,0.083977,0.158821,23.56,28.64,19.07,22.98,47.92,30.05,34.02,-2.17,-13.88,-25.25,19.07,22.98,28.64,0,9.57,-0.18
dw_cut_4_n1_opt_disp_struct_12.xyz,Nucleus 12H :,1.678677,0.894554,0.956207,23.95,20.17,24.35,27.32,47.08,15.08,29.93,-22.76,5.21,-2.69,20.17,24.35,27.32,0,7.15,0.17
dw_cut_4_n1_opt_disp_struct_12.xyz,Nucleus 14H :,1.29179,0.722999,2.257678,23.93,20.22,27.21,24.35,5.77,32.27,44.02,14.48,-5.13,-19.63,20.22,24.35,27.21,0,6.99,0.18
dw_cut_4_n1_opt_disp_struct_12.xyz,Nucleus 16H :,1.650136,1.238017,3.039669,24.01,19.54,28.0,24.49,10.67,31.24,46.73,-22.28,8.95,-3.28,19.54,24.49,28.0,0,8.46,0.17
dw_cut_4_n1_opt_disp_struct_12.xyz,Nucleus 17H :,0.262233,-0.185252,2.332584,24.4,20.92,25.21,27.06,44.91,28.43,30.88,-19.58,-7.47,-3.96,20.92,25.21,27.06,0,6.14,0.4
dw_cut_4_n1_opt_disp_struct_12.xyz,Nucleus 18H :,-0.011169,-0.603066,1.029663,29.08,35.44,27.63,24.18,43.07,26.9,32.77,0.15,-10.46,-5.2,24.18,27.63,35.44,0,11.26,-0.39
dw_cut_4_n1_opt_disp_struct_12.xyz,Nucleus 23H :,-1.04211,-1.544829,0.830653,29.87,32.83,29.19,27.58,14.68,22.89,37.69,13.7,5.81,-5.17,27.58,29.19,32.83,0,5.25,-0.39
dw_cut_4_n1_opt_disp_struct_12.xyz,Nucleus 24H :,-1.243635,-1.918283,-0.170144,30.39,34.5,26.29,30.37,39.12,13.12,25.86,-4.79,13.19,4.66,26.29,30.37,34.5,0,8.21,-0.01
dw_cut_4_n1_opt_disp_struct_12.xyz,Nucleus 25H :,-1.754567,-2.032708,1.932552,30.05,33.51,29.82,26.83,38.83,20.28,12.69,-5.44,9.35,14.45,26.83,29.82,33.51,0,6.68,-0.1
dw_cut_4_n1_opt_disp_struct_12.xyz,Nucleus 0C :,-2.51362,-2.796131,1.784722,172.02,160.46,167.6,188.01,236.18,242.9,255.48,-65.42,-77.84,-75.24,160.46,167.6,188.01,0,27.55,-0.48
dw_cut_4_n1_opt_disp_struct_12.xyz,Nucleus 3C :,-1.455646,-1.596003,3.220569,62.87,149.01,53.02,-13.41,241.14,262.52,272.92,-92.24,-219.12,-276.58,-13.41,53.02,149.01,0,162.42,-0.18
dw_cut_4_n1_opt_disp_struct_12.xyz,Nucleus 4C :,-1.979262,-2.022088,4.070344,57.82,-27.67,127.28,73.84,254.7,265.55,272.44,-293.67,-131.35,-194.21,-27.67,73.84,127.28,0,154.95,0.31
dw_cut_4_n1_opt_disp_struct_12.xyz,Nucleus 7C :,-0.440416,-0.662021,3.446074,40.36,143.02,-41.17,19.24,261.66,272.5,274.58,-126.68,-313.16,-247.8,-41.17,19.24,143.02,0,184.19,-0.34
dw_cut_4_n1_opt_disp_struct_12.xyz,Nucleus 8C :,-0.158307,-0.378329,4.456402,48.63,171.09,0.56,-25.77,227.52,263.57,259.99,-56.44,-262.98,-285.8,-25.77,0.56,171.09,0,196.86,-0.73
dw_cut_4_n1_opt_disp_struct_12.xyz,Nucleus 9C :,2.480066,1.569137,0.685866,54.7,175.78,38.77,-50.45,249.75,270.9,261.88,-74.92,-229.07,-314.45,-50.45,38.77,175.78,0,226.23,-0.21
dw_cut_4_n1_opt_disp_struct_12.xyz,Nucleus 11C :,0.005073,0.140766,-1.797348,55.77,174.91,-56.51,48.92,229.41,262.56,268.57,-54.79,-318.99,-219.44,-56.51,48.92,174.91,0,231.42,-0.09
dw_cut_4_n1_opt_disp_struct_12.xyz,Nucleus 13C :,4.241115,-6.286209,2.630578,52.86,175.3,43.43,-60.15,220.21,272.43,256.38,-45.01,-228.89,-316.56,-60.15,43.43,175.3,0,235.45,-0.12
dw_cut_4_n1_opt_disp_struct_12.xyz,Nucleus 15C :,3.16607,-5.216624,2.550316,65.82,170.42,53.04,-26.01,243.62,271.32,264.37,-73.86,-217.32,-290.68,-26.01,53.04,170.42,0,196.43,-0.2
dw_cut_4_n1_opt_disp_struct_12.xyz,Nucleus 19C :,2.25409,-5.317988,3.420645,159.68,122.24,191.48,165.33,252.26,226.85,219.39,-97.4,-54.76,-67.29,122.24,165.33,191.48,0,69.24,0.24
dw_cut_4_n1_opt_disp_struct_12.xyz,Nucleus 20C :,3.316719,-4.354352,1.640786,2.91,-86.53,67.15,28.1,203.49,255.49,266.23,-136.36,-342.02,-238.13,-86.53,28.1,67.15,0,153.68,0.49
dw_cut_4_n1_opt_disp_struct_12.xyz,Nucleus 5N :,3.810895,-7.244594,2.313085,120.32,59.58,168.25,133.13,298.87,337.23,330.18,-130.99,-203.7,-270.62,59.58,133.13,168.25,0,108.67,0.35
dw_cut_4_n1_opt_disp_struct_12.xyz,Nucleus 21O :,5.106161,-6.066951,1.994348,-16.95,231.21,-30.1,-251.95,396.9,410.39,425.48,-180.75,-437.8,-665.06,-251.95,-30.1,231.21,0,483.16,-0.08
dw_cut_4_n1_opt_disp_struct_12.xyz,Nucleus 22O :,4.569445,-6.415269,3.668034,-42.27,205.74,-278.93,-53.62,401.54,441.12,429.34,-234.59,-696.98,-467.25,-278.93,-53.62,205.74,0,484.67,-0.07
dw_cut_4_n1_opt_disp_struct_13.xyz,Nucleus 1H :,0.978144,-0.034569,-1.31988,29.18,34.98,23.55,29.01,39.6,27.48,29.07,-5.97,0.31,-2.94,23.55,29.01,34.98,0,11.43,-0.04
dw_cut_4_n1_opt_disp_struct_13.xyz,Nucleus 2H :,1.688379,0.69099,-1.732939,28.62,35.2,24.28,26.37,44.98,23.77,27.04,-11.07,2.22,-1.1,24.28,26.37,35.2,0,10.92,-0.62
dw_cut_4_n1_opt_disp_struct_13.xyz,Nucleus 6H :,1.3088,-1.037945,-1.629003,24.24,16.42,25.21,31.09,49.07,15.7,30.71,-18.34,0.86,-5.28,16.42,25.21,31.09,0,14.67,0.2
dw_cut_4_n1_opt_disp_struct_13.xyz,Nucleus 10H :,0.894737,0.083977,0.158821,23.55,28.64,19.03,22.99,47.76,30.01,33.92,-2.12,-13.83,-25.07,19.03,22.99,28.64,0,9.61,-0.17
dw_cut_4_n1_opt_disp_struct_13.xyz,Nucleus 12H :,1.678677,0.894554,0.956207,23.93,20.13,24.35,27.32,46.96,15.11,29.88,-22.64,5.14,-2.65,20.13,24.35,27.32,0,7.19,0.18
dw_cut_4_n1_opt_disp_struct_13.xyz,Nucleus 14H :,1.29179,0.722999,2.257678,23.92,20.18,27.22,24.36,5.84,32.18,43.99,14.37,-5.03,-19.59,20.18,24.36,27.22,0,7.04,0.19
dw_cut_4_n1_opt_disp_struct_13.xyz,Nucleus 16H :,1.650136,1.238017,3.039669,24.0,19.51,28.0,24.49,10.74,31.24,46.61,-22.16,8.85,-3.27,19.51,24.49,28.0,0,8.49,0.17
dw_cut_4_n1_opt_disp_struct_13.xyz,Nucleus 17H :,0.262233,-0.185252,2.332584,24.38,20.89,25.19,27.06,44.85,28.39,30.85,-19.54,-7.47,-3.93,20.89,25.19,27.06,0,6.17,0.39
dw_cut_4_n1_opt_disp_struct_13.xyz,Nucleus 18H :,-0.011169,-0.603066,1.029663,29.07,35.43,27.62,24.17,43.02,26.86,32.7,0.18,-10.38,-5.17,24.17,27.62,35.43,0,11.26,-0.39
dw_cut_4_n1_opt_disp_struct_13.xyz,Nucleus 23H :,-1.04211,-1.544829,0.830653,29.85,32.77,29.2,27.59,14.3,23.03,37.67,14.1,5.68,-5.22,27.59,29.2,32.77,0,5.18,-0.38
dw_cut_4_n1_opt_disp_struct_13.xyz,Nucleus 24H :,-1.243635,-1.918283,-0.170144,30.37,34.47,26.31,30.33,39.22,12.86,25.72,-4.93,13.47,4.77,26.31,30.33,34.47,0,8.16,-0.01
dw_cut_4_n1_opt_disp_struct_13.xyz,Nucleus 25H :,-1.754567,-2.032708,1.932552,30.03,33.45,29.82,26.83,38.79,20.31,12.36,-5.47,9.32,14.79,26.83,29.82,33.45,0,6.62,-0.1
dw_cut_4_n1_opt_disp_struct_13.xyz,Nucleus 0C :,-2.51362,-2.796131,1.784722,172.05,160.48,167.67,187.99,236.11,242.73,255.54,-65.5,-77.68,-75.05,160.48,167.67,187.99,0,27.51,-0.48
dw_cut_4_n1_opt_disp_struct_13.xyz,Nucleus 3C :,-1.455646,-1.596003,3.220569,62.87,148.98,52.98,-13.35,241.06,262.52,272.69,-92.18,-218.97,-276.51,-13.35,52.98,148.98,0,162.33,-0.18
dw_cut_4_n1_opt_disp_struct_13.xyz,Nucleus 4C :,-1.979262,-2.022088,4.070344,57.62,-27.94,127.32,73.48,254.6,265.45,272.41,-293.87,-131.27,-194.45,-27.94,73.48,127.32,0,155.26,0.31
dw_cut_4_n1_opt_disp_struct_13.xyz,Nucleus 7C :,-0.440416,-0.662021,3.446074,40.44,143.02,-40.99,19.28,261.6,274.28,272.19,-126.35,-312.66,-247.76,-40.99,19.28,143.02,0,184.01,-0.34
dw_cut_4_n1_opt_disp_struct_13.xyz,Nucleus 8C :,-0.158307,-0.378329,4.456402,48.7,171.04,0.67,-25.6,227.64,263.26,260.01,-56.59,-262.56,-285.64,-25.6,0.67,171.04,0,196.64,-0.73
dw_cut_4_n1_opt_disp_struct_13.xyz,Nucleus 9C :,2.480066,1.569137,0.685866,54.72,175.8,38.7,-50.35,249.48,270.78,261.63,-74.63,-229.07,-314.03,-50.35,38.7,175.8,0,226.15,-0.21
dw_cut_4_n1_opt_disp_struct_13.xyz,Nucleus 11C :,0.005073,0.140766,-1.797348,55.77,174.98,-56.48,48.8,229.44,262.25,268.51,-54.71,-318.69,-219.5,-56.48,48.8,174.98,0,231.46,-0.09
dw_cut_4_n1_opt_disp_struct_13.xyz,Nucleus 13C :,4.406438,-6.472079,2.655491,52.93,175.34,43.46,-60.02,220.35,272.21,256.27,-45.07,-228.65,-316.33,-60.02,43.46,175.34,0,235.36,-0.12
dw_cut_4_n1_opt_disp_struct_13.xyz,Nucleus 15C :,3.331392,-5.402495,2.575229,65.82,170.47,52.95,-25.97,243.49,271.28,264.0,-73.59,-217.36,-290.38,-25.97,52.95,170.47,0,196.44,-0.2
dw_cut_4_n1_opt_disp_struct_13.xyz,Nucleus 19C :,2.419413,-5.503859,3.445558,159.67,122.21,191.41,165.38,252.21,219.49,227.07,-97.56,-55.07,-67.14,122.21,165.38,191.41,0,69.2,0.25
dw_cut_4_n1_opt_disp_struct_13.xyz,Nucleus 20C :,3.482041,-4.540223,1.665699,2.84,-86.72,67.11,28.12,203.33,255.24,266.53,-136.23,-341.95,-238.41,-86.72,28.12,67.11,0,153.83,0.49
dw_cut_4_n1_opt_disp_struct_13.xyz,Nucleus 5N :,3.976217,-7.430465,2.337999,120.16,59.33,168.32,132.84,298.87,337.12,330.06,-130.87,-203.91,-270.77,59.33,132.84,168.32,0,108.99,0.35
dw_cut_4_n1_opt_disp_struct_13.xyz,Nucleus 21O :,5.271483,-6.252822,2.019261,-16.95,231.62,-30.23,-252.24,396.72,410.46,426.16,-180.39,-438.12,-665.68,-252.24,-30.23,231.62,0,483.86,-0.08
dw_cut_4_n1_opt_disp_struct_13.xyz,Nucleus 22O :,4.734767,-6.601139,3.692947,-42.65,205.95,-279.79,-54.1,401.59,442.54,430.01,-235.75,-699.0,-467.33,-279.79,-54.1,205.95,0,485.74,-0.07
dw_cut_4_n1_opt_disp_struct_14.xyz,Nucleus 1H :,0.978144,-0.034569,-1.31988,29.17,34.97,23.53,29.0,39.58,27.42,29.05,-5.93,0.32,-2.94,23.53,29.0,34.97,0,11.44,-0.04
dw_cut_4_n1_opt_disp_struct_14.xyz,Nucleus 2H :,1.688379,0.69099,-1.732939,28.63,35.23,24.29,26.37,44.94,23.74,26.98,-10.99,2.27,-1.06,24.29,26.37,35.23,0,10.94,-0.62
dw_cut_4_n1_opt_disp_struct_14.xyz,Nucleus 6H :,1.3088,-1.037945,-1.629003,24.22,16.39,25.2,31.08,48.99,15.67,30.67,-18.26,0.85,-5.25,16.39,25.2,31.08,0,14.69,0.2
dw_cut_4_n1_opt_disp_struct_14.xyz,Nucleus 10H :,0.894737,0.083977,0.158821,23.55,28.65,19.0,22.99,47.62,30.01,33.81,-2.1,-13.78,-24.92,19.0,22.99,28.65,0,9.65,-0.17
dw_cut_4_n1_opt_disp_struct_14.xyz,Nucleus 12H :,1.678677,0.894554,0.956207,23.93,20.1,24.35,27.33,46.86,15.13,29.86,-22.53,5.09,-2.62,20.1,24.35,27.33,0,7.23,0.17
dw_cut_4_n1_opt_disp_struct_14.xyz,Nucleus 14H :,1.29179,0.722999,2.257678,23.92,20.15,27.23,24.37,5.9,32.11,43.96,14.28,-4.95,-19.55,20.15,24.37,27.23,0,7.08,0.19
dw_cut_4_n1_opt_disp_struct_14.xyz,Nucleus 16H :,1.650136,1.238017,3.039669,23.99,19.47,28.01,24.5,10.79,31.24,46.5,-22.05,8.76,-3.26,19.47,24.5,28.01,0,8.54,0.18
dw_cut_4_n1_opt_disp_struct_14.xyz,Nucleus 17H :,0.262233,-0.185252,2.332584,24.37,20.86,25.18,27.06,44.79,28.36,30.82,-19.49,-7.47,-3.9,20.86,25.18,27.06,0,6.2,0.39
dw_cut_4_n1_opt_disp_struct_14.xyz,Nucleus 18H :,-0.011169,-0.603066,1.029663,29.06,35.42,27.61,24.16,42.98,26.83,32.64,0.2,-10.32,-5.13,24.16,27.61,35.42,0,11.26,-0.39
dw_cut_4_n1_opt_disp_struct_14.xyz,Nucleus 23H :,-1.04211,-1.544829,0.830653,29.84,32.71,29.2,27.6,13.86,23.13,37.64,14.55,5.58,-5.25,27.6,29.2,32.71,0,5.11,-0.38
dw_cut_4_n1_opt_disp_struct_14.xyz,Nucleus 24H :,-1.243635,-1.918283,-0.170144,30.36,34.44,26.33,30.3,39.3,12.51,25.57,-5.05,13.83,4.9,26.33,30.3,34.44,0,8.11,-0.02
dw_cut_4_n1_opt_disp_struct_14.xyz,Nucleus 25H :,-1.754567,-2.032708,1.932552,30.02,33.4,29.81,26.84,38.74,20.3,11.99,-5.48,9.33,15.17,26.84,29.81,33.4,0,6.56,-0.1
dw_cut_4_n1_opt_disp_struct_14.xyz,Nucleus 0C :,-2.51362,-2.796131,1.784722,172.07,160.5,167.74,187.98,236.03,242.59,255.58,-65.57,-77.53,-74.89,160.5,167.74,187.98,0,27.48,-0.47
dw_cut_4_n1_opt_disp_struct_14.xyz,Nucleus 3C :,-1.455646,-1.596003,3.220569,62.86,148.95,52.94,-13.3,241.0,262.54,272.52,-92.14,-218.87,-276.47,-13.3,52.94,148.95,0,162.25,-0.18
dw_cut_4_n1_opt_disp_struct_14.xyz,Nucleus 4C :,-1.979262,-2.022088,4.070344,57.45,-28.17,127.36,73.17,254.57,265.27,272.39,-294.02,-131.2,-194.65,-28.17,73.17,127.36,0,155.53,0.3
dw_cut_4_n1_opt_disp_struct_14.xyz,Nucleus 7C :,-0.440416,-0.662021,3.446074,40.49,143.01,-40.84,19.31,261.59,273.99,271.91,-126.1,-312.24,-247.69,-40.84,19.31,143.01,0,183.85,-0.35
dw_cut_4_n1_opt_disp_struct_14.xyz,Nucleus 8C :,-0.158307,-0.378329,4.456402,48.77,171.0,0.75,-25.45,227.72,263.05,260.01,-56.72,-262.28,-285.49,-25.45,0.75,171.0,0,196.45,-0.73
dw_cut_4_n1_opt_disp_struct_14.xyz,Nucleus 9C :,2.480066,1.569137,0.685866,54.74,175.82,38.65,-50.26,249.3,270.64,261.46,-74.4,-229.1,-313.7,-50.26,38.65,175.82,0,226.08,-0.21
dw_cut_4_n1_opt_disp_struct_14.xyz,Nucleus 11C :,0.005073,0.140766,-1.797348,55.76,175.04,-56.45,48.7,229.45,261.98,268.48,-54.63,-318.43,-219.57,-56.45,48.7,175.04,0,231.49,-0.09
dw_cut_4_n1_opt_disp_struct_14.xyz,Nucleus 13C :,4.57176,-6.65795,2.680404,52.98,175.38,43.47,-59.91,220.45,272.04,256.18,-45.11,-228.47,-316.14,-59.91,43.47,175.38,0,235.29,-0.12
dw_cut_4_n1_opt_disp_struct_14.xyz,Nucleus 15C :,3.496714,-5.588365,2.600142,65.81,170.5,52.86,-25.93,243.38,271.24,263.68,-73.34,-217.39,-290.13,-25.93,52.86,170.5,0,196.43,-0.2
dw_cut_4_n1_opt_disp_struct_14.xyz,Nucleus 19C :,2.584735,-5.68973,3.470471,159.65,122.19,191.35,165.41,252.17,219.31,227.06,-97.43,-55.24,-66.93,122.19,165.41,191.35,0,69.16,0.25
dw_cut_4_n1_opt_disp_struct_14.xyz,Nucleus 20C :,3.647363,-4.726093,1.690613,2.77,-86.88,67.09,28.11,203.23,255.04,266.88,-136.16,-341.91,-238.76,-86.88,28.11,67.09,0,153.97,0.49
dw_cut_4_n1_opt_disp_struct_14.xyz,Nucleus 5N :,4.141539,-7.616336,2.362912,120.03,59.11,168.39,132.6,298.88,337.03,329.93,-130.79,-204.1,-270.86,59.11,132.6,168.39,0,109.28,0.35
dw_cut_4_n1_opt_disp_struct_14.xyz,Nucleus 21O :,5.436805,-6.438692,2.044175,-16.94,231.97,-30.33,-252.45,396.58,410.87,426.78,-180.51,-438.37,-666.16,-252.45,-30.33,231.97,0,484.42,-0.08
dw_cut_4_n1_opt_disp_struct_14.xyz,Nucleus 22O :,4.900089,-6.78701,3.71786,-42.94,206.19,-280.53,-54.49,401.6,443.86,430.6,-236.8,-700.74,-467.36,-280.53,-54.49,206.19,0,486.72,-0.07
dw_cut_4_n1_opt_disp_struct_15.xyz,Nucleus 1H :,0.978144,-0.034569,-1.31988,29.16,34.96,23.53,29.0,39.56,27.38,29.03,-5.9,0.34,-2.92,23.53,29.0,34.96,0,11.43,-0.04
dw_cut_4_n1_opt_disp_struct_15.xyz,Nucleus 2H :,1.688379,0.69099,-1.732939,28.65,35.27,24.31,26.37,44.91,23.72,26.93,-10.9,2.31,-1.01,24.31,26.37,35.27,0,10.96,-0.62
dw_cut_4_n1_opt_disp_struct_15.xyz,Nucleus 6H :,1.3088,-1.037945,-1.629003,24.21,16.37,25.2,31.07,48.91,15.65,30.65,-18.19,0.84,-5.23,16.37,25.2,31.07,0,14.7,0.2
dw_cut_4_n1_opt_disp_struct_15.xyz,Nucleus 10H :,0.894737,0.083977,0.158821,23.55,28.67,19.0,22.98,47.51,30.0,33.73,-2.08,-13.72,-24.8,19.0,22.98,28.67,0,9.67,-0.18
dw_cut_4_n1_opt_disp_struct_15.xyz,Nucleus 12H :,1.678677,0.894554,0.956207,23.91,20.04,24.35,27.34,46.77,15.12,29.84,-22.44,5.04,-2.58,20.04,24.35,27.34,0,7.3,0.18
dw_cut_4_n1_opt_disp_struct_15.xyz,Nucleus 14H :,1.29179,0.722999,2.257678,23.9,20.09,27.25,24.36,5.91,32.04,43.94,14.2,-4.86,-19.53,20.09,24.36,27.25,0,7.16,0.19
dw_cut_4_n1_opt_disp_struct_15.xyz,Nucleus 16H :,1.650136,1.238017,3.039669,23.97,19.4,28.02,24.5,10.8,31.23,46.42,-21.96,8.67,-3.24,19.4,24.5,28.02,0,8.62,0.18
dw_cut_4_n1_opt_disp_struct_15.xyz,Nucleus 17H :,0.262233,-0.185252,2.332584,24.36,20.84,25.17,27.07,44.75,28.34,30.79,-19.45,-7.48,-3.87,20.84,25.17,27.07,0,6.23,0.39
dw_cut_4_n1_opt_disp_struct_15.xyz,Nucleus 18H :,-0.011169,-0.603066,1.029663,29.07,35.42,27.62,24.18,42.94,26.8,32.59,0.22,-10.25,-5.09,24.18,27.62,35.42,0,11.24,-0.39
dw_cut_4_n1_opt_disp_struct_15.xyz,Nucleus 23H :,-1.04211,-1.544829,0.830653,29.81,32.66,29.18,27.59,13.35,23.17,37.6,15.06,5.52,-5.27,27.59,29.18,32.66,0,5.07,-0.37
dw_cut_4_n1_opt_disp_struct_15.xyz,Nucleus 24H :,-1.243635,-1.918283,-0.170144,30.32,34.41,26.31,30.25,39.37,12.07,25.38,-5.16,14.26,5.05,26.31,30.25,34.41,0,8.1,-0.03
dw_cut_4_n1_opt_disp_struct_15.xyz,Nucleus 25H :,-1.754567,-2.032708,1.932552,29.99,33.35,29.79,26.83,38.68,20.26,11.55,-5.48,9.35,15.61,26.83,29.79,33.35,0,6.52,-0.09
dw_cut_4_n1_opt_disp_struct_15.xyz,Nucleus 0C :,-2.51362,-2.796131,1.784722,172.12,160.55,167.87,187.94,235.98,242.5,255.6,-65.63,-77.38,-74.7,160.55,167.87,187.94,0,27.39,-0.47
dw_cut_4_n1_opt_disp_struct_15.xyz,Nucleus 3C :,-1.455646,-1.596003,3.220569,62.85,148.93,52.92,-13.3,240.96,262.57,272.39,-92.12,-218.8,-276.47,-13.3,52.92,148.93,0,162.23,-0.18
dw_cut_4_n1_opt_disp_struct_15.xyz,Nucleus 4C :,-1.979262,-2.022088,4.070344,57.31,-28.36,127.43,72.86,254.56,265.11,272.35,-294.16,-131.09,-194.84,-28.36,72.86,127.43,0,155.79,0.3
dw_cut_4_n1_opt_disp_struct_15.xyz,Nucleus 7C :,-0.440416,-0.662021,3.446074,40.58,143.1,-40.67,19.32,261.6,273.79,271.73,-125.86,-311.88,-247.63,-40.67,19.32,143.1,0,183.77,-0.35
dw_cut_4_n1_opt_disp_struct_15.xyz,Nucleus 8C :,-0.158307,-0.378329,4.456402,48.76,170.89,0.74,-25.34,227.75,262.94,259.99,-56.86,-262.17,-285.36,-25.34,0.74,170.89,0,196.23,-0.73
dw_cut_4_n1_opt_disp_struct_15.xyz,Nucleus 9C :,2.480066,1.569137,0.685866,54.75,175.9,38.54,-50.2,249.2,270.53,261.37,-74.2,-229.19,-313.47,-50.2,38.54,175.9,0,226.1,-0.22
dw_cut_4_n1_opt_disp_struct_15.xyz,Nucleus 11C :,0.005073,0.140766,-1.797348,55.74,175.09,-56.42,48.56,229.44,261.8,268.46,-54.56,-318.23,-219.69,-56.42,48.56,175.09,0,231.51,-0.09
dw_cut_4_n1_opt_disp_struct_15.xyz,Nucleus 13C :,4.737082,-6.843821,2.705317,53.0,175.38,43.45,-59.83,220.47,271.9,256.13,-45.13,-228.36,-316.02,-59.83,43.45,175.38,0,235.21,-0.12
dw_cut_4_n1_opt_disp_struct_15.xyz,Nucleus 15C :,3.662037,-5.774236,2.625056,65.83,170.62,52.74,-25.87,243.28,271.2,263.45,-73.07,-217.46,-289.91,-25.87,52.74,170.62,0,196.49,-0.2
dw_cut_4_n1_opt_disp_struct_15.xyz,Nucleus 19C :,2.750057,-5.8756,3.495384,159.55,122.05,191.26,165.34,252.14,218.71,226.75,-96.98,-55.27,-66.69,122.05,165.34,191.26,0,69.21,0.25
dw_cut_4_n1_opt_disp_struct_15.xyz,Nucleus 20C :,3.812686,-4.911964,1.715526,2.71,-87.02,67.07,28.09,203.14,254.87,267.29,-136.08,-341.89,-239.18,-87.02,28.09,67.07,0,154.09,0.49
dw_cut_4_n1_opt_disp_struct_15.xyz,Nucleus 5N :,4.306861,-7.802206,2.387825,119.9,58.88,168.47,132.36,298.89,336.97,329.8,-130.69,-204.29,-270.96,58.88,132.36,168.47,0,109.59,0.34
dw_cut_4_n1_opt_disp_struct_15.xyz,Nucleus 21O :,5.602128,-6.624563,2.069088,-16.84,232.44,-30.4,-252.56,396.47,411.84,427.34,-181.2,-438.56,-666.4,-252.56,-30.4,232.44,0,485.0,-0.08
dw_cut_4_n1_opt_disp_struct_15.xyz,Nucleus 22O :,5.065411,-6.972881,3.742773,-43.12,206.48,-281.08,-54.77,401.56,445.2,431.06,-237.86,-702.02,-467.32,-281.08,-54.77,206.48,0,487.56,-0.07
dw_cut_4_n1_opt_disp_struct_16.xyz,Nucleus 1H :,0.978144,-0.034569,-1.31988,29.14,34.95,23.5,28.98,39.54,27.31,29.01,-5.88,0.36,-2.92,23.5,28.98,34.95,0,11.45,-0.04
dw_cut_4_n1_opt_disp_struct_16.xyz,Nucleus 2H :,1.688379,0.69099,-1.732939,28.65,35.29,24.29,26.37,44.87,23.69,26.87,-10.85,2.34,-0.98,24.29,26.37,35.29,0,11.0,-0.62
dw_cut_4_n1_opt_disp_struct_16.xyz,Nucleus 6H :,1.3088,-1.037945,-1.629003,24.19,16.34,25.18,31.06,48.84,15.62,30.61,-18.12,0.84,-5.21,16.34,25.18,31.06,0,14.72,0.2
dw_cut_4_n1_opt_disp_struct_16.xyz,Nucleus 10H :,0.894737,0.083977,0.158821,23.54,28.67,18.94,23.0,47.4,30.07,33.58,-2.1,-13.68,-24.67,18.94,23.0,28.67,0,9.73,-0.17
dw_cut_4_n1_opt_disp_struct_16.xyz,Nucleus 12H :,1.678677,0.894554,0.956207,23.91,20.04,24.36,27.34,46.68,15.16,29.83,-22.34,5.0,-2.58,20.04,24.36,27.34,0,7.3,0.18
dw_cut_4_n1_opt_disp_struct_16.xyz,Nucleus 14H :,1.29179,0.722999,2.257678,23.91,20.09,27.25,24.38,5.98,31.99,43.91,14.15,-4.81,-19.49,20.09,24.38,27.25,0,7.16,0.2
dw_cut_4_n1_opt_disp_struct_16.xyz,Nucleus 16H :,1.650136,1.238017,3.039669,23.98,19.41,28.02,24.5,10.86,31.23,46.33,-21.86,8.62,-3.25,19.41,24.5,28.02,0,8.61,0.18
dw_cut_4_n1_opt_disp_struct_16.xyz,Nucleus 17H :,0.262233,-0.185252,2.332584,24.34,20.81,25.15,27.06,44.69,28.31,30.76,-19.42,-7.48,-3.85,20.81,25.15,27.06,0,6.25,0.39
dw_cut_4_n1_opt_disp_struct_16.xyz,Nucleus 18H :,-0.011169,-0.603066,1.029663,29.05,35.4,27.6,24.15,42.9,26.76,32.52,0.23,-10.2,-5.06,24.15,27.6,35.4,0,11.25,-0.39
dw_cut_4_n1_opt_disp_struct_16.xyz,Nucleus 23H :,-1.04211,-1.544829,0.830653,29.81,29.21,27.61,32.62,12.83,23.21,37.56,15.64,5.5,-5.29,27.61,29.21,32.62,0,5.01,-0.36
dw_cut_4_n1_opt_disp_struct_16.xyz,Nucleus 24H :,-1.243635,-1.918283,-0.170144,30.33,34.39,26.36,30.23,39.43,11.61,25.2,-5.25,14.76,5.23,26.36,30.23,34.39,0,8.03,-0.04
dw_cut_4_n1_opt_disp_struct_16.xyz,Nucleus 25H :,-1.754567,-2.032708,1.932552,29.99,33.32,29.81,26.85,38.63,20.21,11.1,-5.47,9.41,16.11,26.85,29.81,33.32,0,6.47,-0.08
dw_cut_4_n1_opt_disp_struct_16.xyz,Nucleus 0C :,-2.51362,-2.796131,1.784722,172.11,160.52,167.85,187.95,235.91,242.34,255.65,-65.68,-77.29,-74.6,160.52,167.85,187.95,0,27.43,-0.47
dw_cut_4_n1_opt_disp_struct_16.xyz,Nucleus 3C :,-1.455646,-1.596003,3.220569,62.84,148.9,52.86,-13.24,240.92,262.6,272.27,-92.1,-218.77,-276.42,-13.24,52.86,148.9,0,162.14,-0.18
dw_cut_4_n1_opt_disp_struct_16.xyz,Nucleus 4C :,-1.979262,-2.022088,4.070344,57.18,-28.54,127.43,72.65,254.65,264.8,272.35,-294.22,-131.09,-194.94,-28.54,72.65,127.43,0,155.97,0.3
dw_cut_4_n1_opt_disp_struct_16.xyz,Nucleus 7C :,-0.440416,-0.662021,3.446074,40.58,143.0,-40.61,19.35,261.68,273.39,271.5,-125.72,-311.62,-247.48,-40.61,19.35,143.0,0,183.61,-0.35
dw_cut_4_n1_opt_disp_struct_16.xyz,Nucleus 8C :,-0.158307,-0.378329,4.456402,48.85,170.93,0.85,-25.24,227.84,262.89,259.94,-56.92,-262.01,-285.2,-25.24,0.85,170.93,0,196.17,-0.73
dw_cut_4_n1_opt_disp_struct_16.xyz,Nucleus 9C :,2.480066,1.569137,0.685866,54.76,175.85,38.56,-50.13,249.12,270.35,261.33,-74.05,-229.21,-313.25,-50.13,38.56,175.85,0,225.98,-0.22
dw_cut_4_n1_opt_disp_struct_16.xyz,Nucleus 11C :,0.005073,0.140766,-1.797348,55.76,175.14,-56.4,48.55,229.46,261.55,268.5,-54.49,-318.0,-219.74,-56.4,48.55,175.14,0,231.54,-0.09
dw_cut_4_n1_opt_disp_struct_16.xyz,Nucleus 13C :,4.902404,-7.029691,2.73023,53.06,175.45,43.48,-59.74,220.58,271.78,256.04,-45.15,-228.22,-315.84,-59.74,43.48,175.45,0,235.19,-0.12
dw_cut_4_n1_opt_disp_struct_16.xyz,Nucleus 15C :,3.827359,-5.960107,2.649969,65.81,170.57,52.73,-25.87,243.16,271.15,263.14,-72.89,-217.45,-289.69,-25.87,52.73,170.57,0,196.44,-0.2
dw_cut_4_n1_opt_disp_struct_16.xyz,Nucleus 19C :,2.915379,-6.061471,3.520297,159.61,122.16,191.23,165.44,252.11,218.12,226.42,-96.29,-55.14,-66.39,122.16,165.44,191.23,0,69.07,0.25
dw_cut_4_n1_opt_disp_struct_16.xyz,Nucleus 20C :,3.978008,-5.097835,1.740439,2.66,-87.16,67.09,28.06,203.09,254.72,267.68,-136.01,-341.89,-239.6,-87.16,28.06,67.09,0,154.25,0.49
dw_cut_4_n1_opt_disp_struct_16.xyz,Nucleus 5N :,4.472183,-7.988077,2.412738,119.83,58.78,168.49,132.21,298.96,336.89,329.64,-130.71,-204.38,-270.93,58.78,132.21,168.49,0,109.71,0.34
dw_cut_4_n1_opt_disp_struct_16.xyz,Nucleus 21O :,5.76745,-6.810434,2.094001,-16.84,232.62,-30.47,-252.68,396.38,412.81,427.9,-182.21,-438.74,-666.66,-252.68,-30.47,232.62,0,485.3,-0.08
dw_cut_4_n1_opt_disp_struct_16.xyz,Nucleus 22O :,5.230734,-7.158751,3.767687,-43.28,206.75,-281.53,-55.07,401.55,446.56,431.52,-238.93,-703.21,-467.34,-281.53,-55.07,206.75,0,488.28,-0.07
dw_cut_4_n1_opt_disp_struct_17.xyz,Nucleus 1H :,0.978144,-0.034569,-1.31988,29.14,34.94,23.49,28.98,39.52,27.28,28.99,-5.85,0.38,-2.9,23.49,28.98,34.94,0,11.45,-0.04
dw_cut_4_n1_opt_disp_struct_17.xyz,Nucleus 2H :,1.688379,0.69099,-1.732939,28.67,35.32,24.32,26.37,44.83,23.68,26.83,-10.79,2.38,-0.93,24.32,26.37,35.32,0,11.0,-0.63
dw_cut_4_n1_opt_disp_struct_17.xyz,Nucleus 6H :,1.3088,-1.037945,-1.629003,24.19,16.32,25.19,31.05,48.77,15.6,30.59,-18.06,0.83,-5.18,16.32,25.19,31.05,0,14.73,0.2
dw_cut_4_n1_opt_disp_struct_17.xyz,Nucleus 10H :,0.894737,0.083977,0.158821,23.53,28.67,18.94,22.99,47.3,30.09,33.51,-2.1,-13.63,-24.57,18.94,22.99,28.67,0,9.73,-0.17
dw_cut_4_n1_opt_disp_struct_17.xyz,Nucleus 12H :,1.678677,0.894554,0.956207,23.9,20.0,24.35,27.35,46.6,15.15,29.82,-22.27,4.95,-2.56,20.0,24.35,27.35,0,7.35,0.18
dw_cut_4_n1_opt_disp_struct_17.xyz,Nucleus 14H :,1.29179,0.722999,2.257678,23.89,20.05,27.26,24.37,5.99,31.93,43.89,14.09,-4.74,-19.48,20.05,24.37,27.26,0,7.21,0.2
dw_cut_4_n1_opt_disp_struct_17.xyz,Nucleus 16H :,1.650136,1.238017,3.039669,23.96,19.35,28.03,24.51,10.87,31.23,46.25,-21.78,8.55,-3.23,19.35,24.51,28.03,0,8.68,0.19
dw_cut_4_n1_opt_disp_struct_17.xyz,Nucleus 17H :,0.262233,-0.185252,2.332584,24.34,20.79,25.15,27.07,44.66,28.29,30.73,-19.38,-7.48,-3.81,20.79,25.15,27.07,0,6.28,0.39
dw_cut_4_n1_opt_disp_struct_17.xyz,Nucleus 18H :,-0.011169,-0.603066,1.029663,29.05,35.4,27.6,24.16,42.87,26.74,32.47,0.25,-10.14,-5.01,24.16,27.6,35.4,0,11.24,-0.39
dw_cut_4_n1_opt_disp_struct_17.xyz,Nucleus 23H :,-1.04211,-1.544829,0.830653,29.8,29.2,27.61,32.59,12.27,23.22,37.53,16.21,5.48,-5.3,27.61,29.2,32.59,0,4.98,-0.36
dw_cut_4_n1_opt_disp_struct_17.xyz,Nucleus 24H :,-1.243635,-1.918283,-0.170144,30.32,34.38,26.37,30.2,39.49,11.12,25.01,-5.34,15.26,5.4,26.37,30.2,34.38,0,8.01,-0.04
dw_cut_4_n1_opt_disp_struct_17.xyz,Nucleus 25H :,-1.754567,-2.032708,1.932552,29.98,33.29,29.79,26.85,38.58,20.14,10.62,-5.47,9.46,16.6,26.85,29.79,33.29,0,6.44,-0.09
dw_cut_4_n1_opt_disp_struct_17.xyz,Nucleus 0C :,-2.51362,-2.796131,1.784722,172.15,160.56,167.96,187.93,235.86,242.26,255.66,-65.72,-77.17,-74.45,160.56,167.96,187.93,0,27.37,-0.46
dw_cut_4_n1_opt_disp_struct_17.xyz,Nucleus 3C :,-1.455646,-1.596003,3.220569,62.82,148.88,52.83,-13.24,240.89,262.63,272.16,-92.08,-218.71,-276.42,-13.24,52.83,148.88,0,162.12,-0.18
dw_cut_4_n1_opt_disp_struct_17.xyz,Nucleus 4C :,-1.979262,-2.022088,4.070344,57.07,-28.68,127.49,72.4,254.67,264.61,272.31,-294.31,-131.0,-195.08,-28.68,72.4,127.49,0,156.17,0.29
dw_cut_4_n1_opt_disp_struct_17.xyz,Nucleus 7C :,-0.440416,-0.662021,3.446074,40.65,143.07,-40.49,19.37,261.71,273.2,271.36,-125.56,-311.37,-247.38,-40.49,19.37,143.07,0,183.56,-0.35
dw_cut_4_n1_opt_disp_struct_17.xyz,Nucleus 8C :,-0.158307,-0.378329,4.456402,48.84,170.85,0.82,-25.15,227.86,262.83,259.89,-57.01,-261.99,-285.07,-25.15,0.82,170.85,0,196.0,-0.74
dw_cut_4_n1_opt_disp_struct_17.xyz,Nucleus 9C :,2.480066,1.569137,0.685866,54.77,175.91,38.48,-50.09,249.06,270.25,261.29,-73.92,-229.29,-313.11,-50.09,38.48,175.91,0,226.0,-0.22
dw_cut_4_n1_opt_disp_struct_17.xyz,Nucleus 11C :,0.005073,0.140766,-1.797348,55.74,175.17,-56.38,48.44,229.45,261.4,268.49,-54.44,-317.84,-219.84,-56.38,48.44,175.17,0,231.55,-0.09
dw_cut_4_n1_opt_disp_struct_17.xyz,Nucleus 13C :,5.067726,-7.215562,2.755144,53.07,175.44,43.46,-59.68,220.59,271.68,256.01,-45.17,-228.14,-315.74,-59.68,43.46,175.44,0,235.12,-0.12
dw_cut_4_n1_opt_disp_struct_17.xyz,Nucleus 15C :,3.992681,-6.145977,2.674882,65.83,170.66,52.65,-25.82,243.06,271.12,262.96,-72.66,-217.5,-289.5,-25.82,52.65,170.66,0,196.48,-0.2
dw_cut_4_n1_opt_disp_struct_17.xyz,Nucleus 19C :,3.080701,-6.247342,3.545211,159.57,122.13,191.16,165.41,252.09,217.35,225.98,-95.56,-55.03,-66.12,122.13,165.41,191.16,0,69.03,0.25
dw_cut_4_n1_opt_disp_struct_17.xyz,Nucleus 20C :,4.14333,-5.283705,1.765352,2.61,-87.28,67.1,28.02,202.99,254.6,268.1,-135.9,-341.89,-240.05,-87.28,28.02,67.1,0,154.38,0.49
dw_cut_4_n1_opt_disp_struct_17.xyz,Nucleus 5N :,4.637506,-8.173948,2.437651,119.73,58.6,168.54,132.04,298.98,336.84,329.53,-130.67,-204.51,-270.99,58.6,132.04,168.54,0,109.94,0.34
dw_cut_4_n1_opt_disp_struct_17.xyz,Nucleus 21O :,5.932772,-6.996304,2.118914,-16.8,232.76,-30.49,-252.68,396.29,413.89,428.46,-183.44,-438.85,-666.76,-252.68,-30.49,232.76,0,485.44,-0.08
dw_cut_4_n1_opt_disp_struct_17.xyz,Nucleus 22O :,5.396056,-7.344622,3.7926,-43.34,206.84,-281.64,-55.21,401.51,447.94,431.92,-240.22,-703.91,-467.24,-281.64,-55.21,206.84,0,488.48,-0.07
dw_cut_4_n1_opt_disp_struct_18.xyz,Nucleus 1H :,0.978144,-0.034569,-1.31988,29.12,34.93,23.47,28.97,39.51,27.23,28.96,-5.84,0.41,-2.89,23.47,28.97,34.93,0,11.46,-0.04
dw_cut_4_n1_opt_disp_struct_18.xyz,Nucleus 2H :,1.688379,0.69099,-1.732939,28.68,35.34,24.31,26.38,44.8,23.66,26.79,-10.74,2.41,-0.89,24.31,26.38,35.34,0,11.03,-0.63
dw_cut_4_n1_opt_disp_struct_18.xyz,Nucleus 6H :,1.3088,-1.037945,-1.629003,24.18,16.3,25.18,31.05,48.7,15.58,30.56,-17.99,0.83,-5.16,16.3,25.18,31.05,0,14.75,0.2
dw_cut_4_n1_opt_disp_struct_18.xyz,Nucleus 10H :,0.894737,0.083977,0.158821,23.53,28.67,18.92,22.99,47.21,30.14,33.42,-2.12,-13.59,-24.47,18.92,22.99,28.67,0,9.75,-0.17
dw_cut_4_n1_opt_disp_struct_18.xyz,Nucleus 12H :,1.678677,0.894554,0.956207,23.89,19.98,24.35,27.35,46.53,15.16,29.82,-22.19,4.92,-2.55,19.98,24.35,27.35,0,7.37,0.19
dw_cut_4_n1_opt_disp_struct_18.xyz,Nucleus 14H :,1.29179,0.722999,2.257678,23.89,20.03,27.27,24.38,6.02,31.88,43.88,14.04,-4.69,-19.45,20.03,24.38,27.27,0,7.24,0.2
dw_cut_4_n1_opt_disp_struct_18.xyz,Nucleus 16H :,1.650136,1.238017,3.039669,23.96,19.34,28.03,24.51,10.9,31.22,46.18,-21.7,8.51,-3.22,19.34,24.51,28.03,0,8.69,0.19
dw_cut_4_n1_opt_disp_struct_18.xyz,Nucleus 17H :,0.262233,-0.185252,2.332584,24.32,20.76,25.15,27.06,44.61,28.27,30.7,-19.35,-7.48,-3.79,20.76,25.15,27.06,0,6.3,0.4
dw_cut_4_n1_opt_disp_struct_18.xyz,Nucleus 18H :,-0.011169,-0.603066,1.029663,29.05,35.39,27.6,24.15,42.83,26.7,32.42,0.26,-10.09,-4.98,24.15,27.6,35.39,0,11.24,-0.39
dw_cut_4_n1_opt_disp_struct_18.xyz,Nucleus 23H :,-1.04211,-1.544829,0.830653,29.8,29.21,27.62,32.56,11.7,23.22,37.5,16.8,5.48,-5.32,27.62,29.21,32.56,0,4.94,-0.36
dw_cut_4_n1_opt_disp_struct_18.xyz,Nucleus 24H :,-1.243635,-1.918283,-0.170144,30.31,34.36,26.39,30.17,39.55,10.61,24.82,-5.42,15.79,5.58,26.39,30.17,34.36,0,7.97,-0.05
dw_cut_4_n1_opt_disp_struct_18.xyz,Nucleus 25H :,-1.754567,-2.032708,1.932552,29.97,33.27,29.79,26.86,38.53,20.07,10.14,-5.47,9.53,17.11,26.86,29.79,33.27,0,6.41,-0.08
dw_cut_4_n1_opt_disp_struct_18.xyz,Nucleus 0C :,-2.51362,-2.796131,1.784722,172.15,160.55,167.99,187.92,235.8,242.16,255.68,-65.76,-77.07,-74.35,160.55,167.99,187.92,0,27.37,-0.46
dw_cut_4_n1_opt_disp_struct_18.xyz,Nucleus 3C :,-1.455646,-1.596003,3.220569,62.81,148.86,52.78,-13.22,240.86,262.66,272.06,-92.07,-218.69,-276.4,-13.22,52.78,148.86,0,162.08,-0.19
dw_cut_4_n1_opt_disp_struct_18.xyz,Nucleus 4C :,-1.979262,-2.022088,4.070344,56.98,-28.8,127.51,72.23,254.74,264.35,272.29,-294.34,-130.95,-195.15,-28.8,72.23,127.51,0,156.31,0.29
dw_cut_4_n1_opt_disp_struct_18.xyz,Nucleus 7C :,-0.440416,-0.662021,3.446074,40.67,143.05,-40.42,19.39,261.76,272.92,271.21,-125.44,-311.18,-247.26,-40.42,19.39,143.05,0,183.47,-0.35
dw_cut_4_n1_opt_disp_struct_18.xyz,Nucleus 8C :,-0.158307,-0.378329,4.456402,48.87,170.84,0.85,-25.07,227.89,262.81,259.83,-57.06,-261.92,-284.93,-25.07,0.85,170.84,0,195.91,-0.74
dw_cut_4_n1_opt_disp_struct_18.xyz,Nucleus 9C :,2.480066,1.569137,0.685866,54.77,175.91,38.46,-50.05,249.02,270.12,261.29,-73.81,-229.33,-312.97,-50.05,38.46,175.91,0,225.96,-0.22
dw_cut_4_n1_opt_disp_struct_18.xyz,Nucleus 11C :,0.005073,0.140766,-1.797348,55.75,175.2,-56.36,48.4,229.45,261.24,268.52,-54.38,-317.68,-219.9,-56.36,48.4,175.2,0,231.56,-0.1
dw_cut_4_n1_opt_disp_struct_18.xyz,Nucleus 13C :,5.233049,-7.401433,2.780057,53.11,175.48,43.46,-59.62,220.64,271.58,255.96,-45.19,-228.05,-315.62,-59.62,43.46,175.48,0,235.1,-0.12
dw_cut_4_n1_opt_disp_struct_18.xyz,Nucleus 15C :,4.158003,-6.331848,2.699795,65.83,170.67,52.62,-25.8,242.94,271.08,262.76,-72.48,-217.5,-289.32,-25.8,52.62,170.67,0,196.47,-0.2
dw_cut_4_n1_opt_disp_struct_18.xyz,Nucleus 19C :,3.246023,-6.433212,3.570124,159.57,122.17,191.12,165.43,252.07,216.56,225.52,-94.73,-54.85,-65.85,122.17,165.43,191.12,0,68.95,0.25
dw_cut_4_n1_opt_disp_struct_18.xyz,Nucleus 20C :,4.308652,-5.469576,1.790265,2.58,-87.38,67.13,27.99,202.89,254.5,268.52,-135.77,-341.91,-240.48,-87.38,27.99,67.13,0,154.51,0.49
dw_cut_4_n1_opt_disp_struct_18.xyz,Nucleus 5N :,4.802828,-8.359818,2.462565,119.67,58.51,168.57,131.92,299.03,336.78,329.4,-130.68,-204.57,-270.96,58.51,131.92,168.57,0,110.06,0.33
dw_cut_4_n1_opt_disp_struct_18.xyz,Nucleus 21O :,6.098094,-7.182175,2.143827,-16.79,232.84,-30.51,-252.71,396.22,414.97,429.06,-184.78,-438.96,-666.89,-252.71,-30.51,232.84,0,485.55,-0.08
dw_cut_4_n1_opt_disp_struct_18.xyz,Nucleus 22O :,5.561378,-7.530493,3.817513,-43.38,206.93,-281.72,-55.34,401.48,449.35,432.31,-241.56,-704.56,-467.16,-281.72,-55.34,206.93,0,488.65,-0.07
dw_cut_4_n1_opt_disp_struct_19.xyz,Nucleus 1H :,0.978144,-0.034569,-1.31988,29.11,34.93,23.45,28.96,39.5,27.18,28.93,-5.82,0.43,-2.89,23.45,28.96,34.93,0,11.48,-0.04
dw_cut_4_n1_opt_disp_struct_19.xyz,Nucleus 2H :,1.688379,0.69099,-1.732939,28.68,35.35,24.3,26.38,44.76,23.64,26.74,-10.7,2.43,-0.85,24.3,26.38,35.35,0,11.05,-0.62
dw_cut_4_n1_opt_disp_struct_19.xyz,Nucleus 6H :,1.3088,-1.037945,-1.629003,24.16,16.28,25.16,31.04,48.64,15.57,30.53,-17.93,0.83,-5.14,16.28,25.16,31.04,0,14.76,0.2
dw_cut_4_n1_opt_disp_struct_19.xyz,Nucleus 10H :,0.894737,0.083977,0.158821,23.52,28.68,18.88,23.01,47.13,30.23,33.3,-2.15,-13.57,-24.38,18.88,23.01,28.68,0,9.8,-0.16
dw_cut_4_n1_opt_disp_struct_19.xyz,Nucleus 12H :,1.678677,0.894554,0.956207,23.9,19.98,24.37,27.35,46.46,15.18,29.82,-22.11,4.89,-2.55,19.98,24.37,27.35,0,7.37,0.19
dw_cut_4_n1_opt_disp_struct_19.xyz,Nucleus 14H :,1.29179,0.722999,2.257678,23.9,20.03,27.27,24.39,6.05,31.84,43.86,14.01,-4.64,-19.42,20.03,24.39,27.27,0,7.24,0.2
dw_cut_4_n1_opt_disp_struct_19.xyz,Nucleus 16H :,1.650136,1.238017,3.039669,23.96,19.34,28.03,24.52,10.93,31.22,46.11,-21.62,8.48,-3.22,19.34,24.52,28.03,0,8.69,0.19
dw_cut_4_n1_opt_disp_struct_19.xyz,Nucleus 17H :,0.262233,-0.185252,2.332584,24.31,20.75,25.13,27.05,44.57,28.25,30.67,-19.32,-7.48,-3.76,20.75,25.13,27.05,0,6.3,0.39
dw_cut_4_n1_opt_disp_struct_19.xyz,Nucleus 18H :,-0.011169,-0.603066,1.029663,29.03,35.38,27.59,24.12,42.79,26.67,32.36,0.27,-10.05,-4.94,24.12,27.59,35.38,0,11.26,-0.38
dw_cut_4_n1_opt_disp_struct_19.xyz,Nucleus 23H :,-1.04211,-1.544829,0.830653,29.79,29.21,27.62,32.53,11.12,23.2,37.48,17.41,5.49,-5.34,27.62,29.21,32.53,0,4.91,-0.35
dw_cut_4_n1_opt_disp_struct_19.xyz,Nucleus 24H :,-1.243635,-1.918283,-0.170144,30.3,34.35,26.4,30.15,39.61,10.08,24.63,-5.51,16.32,5.76,26.4,30.15,34.35,0,7.95,-0.06
dw_cut_4_n1_opt_disp_struct_19.xyz,Nucleus 25H :,-1.754567,-2.032708,1.932552,29.96,33.24,29.79,26.86,38.49,19.99,9.63,-5.47,9.6,17.64,26.86,29.79,33.24,0,6.38,-0.08
dw_cut_4_n1_opt_disp_struct_19.xyz,Nucleus 0C :,-2.51362,-2.796131,1.784722,172.15,160.53,167.98,187.93,235.73,242.04,255.71,-65.78,-76.99,-74.27,160.53,167.98,187.93,0,27.4,-0.46
dw_cut_4_n1_opt_disp_struct_19.xyz,Nucleus 3C :,-1.455646,-1.596003,3.220569,62.8,148.84,52.75,-13.19,240.83,262.69,271.97,-92.06,-218.66,-276.37,-13.19,52.75,148.84,0,162.03,-0.19
dw_cut_4_n1_opt_disp_struct_19.xyz,Nucleus 4C :,-1.979262,-2.022088,4.070344,56.89,-28.93,127.51,72.09,254.86,264.02,272.29,-294.36,-130.93,-195.21,-28.93,72.09,127.51,0,156.44,0.29
dw_cut_4_n1_opt_disp_struct_19.xyz,Nucleus 7C :,-0.440416,-0.662021,3.446074,40.67,142.99,-40.36,19.39,261.83,272.61,271.08,-125.34,-311.02,-247.13,-40.36,19.39,142.99,0,183.35,-0.35
dw_cut_4_n1_opt_disp_struct_19.xyz,Nucleus 8C :,-0.158307,-0.378329,4.456402,48.93,170.86,0.95,-25.02,227.93,262.84,259.76,-57.08,-261.86,-284.81,-25.02,0.95,170.86,0,195.88,-0.73
dw_cut_4_n1_opt_disp_struct_19.xyz,Nucleus 9C :,2.480066,1.569137,0.685866,54.8,175.88,38.49,-49.98,249.01,269.98,261.34,-73.72,-229.36,-312.85,-49.98,38.49,175.88,0,225.86,-0.22
dw_cut_4_n1_opt_disp_struct_19.xyz,Nucleus 11C :,0.005073,0.140766,-1.797348,55.76,175.23,-56.35,48.41,229.46,261.07,268.57,-54.34,-317.52,-219.95,-56.35,48.41,175.23,0,231.58,-0.1
dw_cut_4_n1_opt_disp_struct_19.xyz,Nucleus 13C :,5.398371,-7.587303,2.80497,53.15,175.52,43.49,-59.57,220.7,271.51,255.9,-45.2,-227.96,-315.5,-59.57,43.49,175.52,0,235.09,-0.12
dw_cut_4_n1_opt_disp_struct_19.xyz,Nucleus 15C :,4.323325,-6.517719,2.724708,65.81,170.63,52.62,-25.81,242.81,271.03,262.56,-72.33,-217.48,-289.16,-25.81,52.62,170.63,0,196.44,-0.2
dw_cut_4_n1_opt_disp_struct_19.xyz,Nucleus 19C :,3.411346,-6.619083,3.595037,159.56,122.18,191.08,165.43,252.05,215.69,225.02,-93.85,-54.62,-65.59,122.18,165.43,191.08,0,68.9,0.26
dw_cut_4_n1_opt_disp_struct_19.xyz,Nucleus 20C :,4.473974,-5.655447,1.815179,2.56,-87.47,67.16,27.98,202.77,254.4,268.94,-135.63,-341.92,-240.9,-87.47,27.98,67.16,0,154.63,0.49
dw_cut_4_n1_opt_disp_struct_19.xyz,Nucleus 5N :,4.96815,-8.545689,2.487478,119.62,58.44,168.59,131.82,299.11,336.71,329.28,-130.71,-204.62,-270.91,58.44,131.82,168.59,0,110.15,0.33
dw_cut_4_n1_opt_disp_struct_19.xyz,Nucleus 21O :,6.263416,-7.368046,2.168741,-16.76,232.97,-30.52,-252.74,396.16,416.07,429.69,-186.16,-439.04,-667.02,-252.74,-30.52,232.97,0,485.71,-0.08
dw_cut_4_n1_opt_disp_struct_19.xyz,Nucleus 22O :,5.7267,-7.716363,3.842426,-43.39,207.08,-281.8,-55.45,401.45,450.85,432.67,-242.92,-705.14,-467.08,-281.8,-55.45,207.08,0,488.88,-0.07
dw_cut_4_n1_opt_disp_struct_2.xyz,Nucleus 1H :,0.978144,-0.034569,-1.31988,29.37,35.16,23.81,29.13,39.78,27.11,29.11,1.4,-6.12,-3.19,23.81,29.13,35.16,0,11.35,-0.06
dw_cut_4_n1_opt_disp_struct_2.xyz,Nucleus 2H :,1.688379,0.69099,-1.732939,28.58,34.76,24.3,26.67,44.74,22.96,27.47,-11.71,2.53,-0.27,24.3,26.67,34.76,0,10.46,-0.55
dw_cut_4_n1_opt_disp_struct_2.xyz,Nucleus 6H :,1.3088,-1.037945,-1.629003,24.82,17.01,25.59,31.85,48.47,16.93,31.61,-17.26,0.5,-5.8,17.01,25.59,31.85,0,14.84,0.16
dw_cut_4_n1_opt_disp_struct_2.xyz,Nucleus 10H :,0.894737,0.083977,0.158821,24.0,28.66,19.57,23.78,30.99,35.11,49.31,-2.57,-14.23,-26.6,19.57,23.78,28.66,0,9.09,-0.07
dw_cut_4_n1_opt_disp_struct_2.xyz,Nucleus 12H :,1.678677,0.894554,0.956207,24.41,20.73,25.13,27.36,14.27,48.23,32.36,-23.52,6.92,-5.05,20.73,25.13,27.36,0,6.63,0.33
dw_cut_4_n1_opt_disp_struct_2.xyz,Nucleus 14H :,1.29179,0.722999,2.257678,23.92,20.94,26.66,24.15,4.66,43.62,37.11,16.38,-10.55,-19.47,20.94,24.15,26.66,0,5.72,0.12
dw_cut_4_n1_opt_disp_struct_2.xyz,Nucleus 16H :,1.650136,1.238017,3.039669,24.44,20.16,28.1,25.07,10.97,33.78,47.95,9.52,-5.73,-23.16,20.16,25.07,28.1,0,7.94,0.24
dw_cut_4_n1_opt_disp_struct_2.xyz,Nucleus 17H :,0.262233,-0.185252,2.332584,24.79,21.44,25.8,27.14,45.06,29.03,31.02,-19.3,-7.62,-3.81,21.44,25.8,27.14,0,5.7,0.53
dw_cut_4_n1_opt_disp_struct_2.xyz,Nucleus 18H :,-0.011169,-0.603066,1.029663,29.03,35.45,27.6,24.03,42.6,26.65,32.78,-10.93,0.21,-4.22,24.03,27.6,35.45,0,11.42,-0.38
dw_cut_4_n1_opt_disp_struct_2.xyz,Nucleus 23H :,-1.04211,-1.544829,0.830653,30.19,34.06,29.04,27.46,38.53,20.96,19.22,-4.75,8.74,7.87,27.46,29.04,34.06,0,6.6,-0.52
dw_cut_4_n1_opt_disp_struct_2.xyz,Nucleus 24H :,-1.243635,-1.918283,-0.170144,30.72,35.31,25.89,30.96,14.53,38.4,28.08,11.41,-3.24,2.98,25.89,30.96,35.31,0,9.42,0.08
dw_cut_4_n1_opt_disp_struct_2.xyz,Nucleus 25H :,-1.754567,-2.032708,1.932552,30.36,34.65,29.8,26.63,39.87,19.55,17.03,-5.34,9.25,10.73,26.63,29.8,34.65,0,8.02,-0.21
dw_cut_4_n1_opt_disp_struct_2.xyz,Nucleus 0C :,-2.51362,-2.796131,1.784722,171.23,159.53,166.04,188.11,235.93,242.66,253.84,-78.29,-76.9,-63.56,159.53,166.04,188.11,0,28.58,-0.54
dw_cut_4_n1_opt_disp_struct_2.xyz,Nucleus 3C :,-1.455646,-1.596003,3.220569,62.12,149.52,52.64,-15.81,241.77,261.61,275.46,-92.64,-219.31,-280.54,-15.81,52.64,149.52,0,165.33,-0.17
dw_cut_4_n1_opt_disp_struct_2.xyz,Nucleus 4C :,-1.979262,-2.022088,4.070344,62.36,-21.04,126.28,81.84,255.32,265.38,273.14,-287.35,-132.82,-186.59,-21.04,81.84,126.28,0,147.32,0.4
dw_cut_4_n1_opt_disp_struct_2.xyz,Nucleus 7C :,-0.440416,-0.662021,3.446074,40.11,143.05,-42.68,19.97,258.61,282.37,274.49,-133.19,-316.22,-245.71,-42.68,19.97,143.05,0,185.73,-0.33
dw_cut_4_n1_opt_disp_struct_2.xyz,Nucleus 8C :,-0.158307,-0.378329,4.456402,41.9,171.98,-9.9,-36.38,225.14,262.22,254.66,-53.69,-271.05,-291.59,-36.38,-9.9,171.98,0,208.36,-0.75
dw_cut_4_n1_opt_disp_struct_2.xyz,Nucleus 9C :,2.480066,1.569137,0.685866,56.75,174.74,44.07,-48.57,249.32,272.15,269.49,-78.1,-224.47,-318.15,-48.57,44.07,174.74,0,223.31,-0.17
dw_cut_4_n1_opt_disp_struct_2.xyz,Nucleus 11C :,0.005073,0.140766,-1.797348,56.98,173.05,-55.25,53.13,228.33,263.91,273.09,-56.33,-320.27,-217.81,-55.25,53.13,173.05,0,228.3,-0.05
dw_cut_4_n1_opt_disp_struct_2.xyz,Nucleus 13C :,2.587894,-4.427502,2.381446,49.4,174.05,40.72,-66.57,218.95,276.8,255.06,-45.47,-236.07,-321.06,-66.57,40.72,174.05,0,240.62,-0.11
dw_cut_4_n1_opt_disp_struct_2.xyz,Nucleus 15C :,1.512848,-3.357917,2.301184,66.96,169.09,56.3,-24.51,243.45,274.55,267.66,-76.81,-216.81,-291.16,-24.51,56.3,169.09,0,193.6,-0.17
dw_cut_4_n1_opt_disp_struct_2.xyz,Nucleus 19C :,0.600869,-3.459282,3.171513,159.6,121.54,193.36,163.91,254.86,227.27,222.25,-100.79,-53.86,-70.92,121.54,163.91,193.36,0,71.82,0.18
dw_cut_4_n1_opt_disp_struct_2.xyz,Nucleus 20C :,1.663497,-2.495645,1.391654,4.76,-81.44,72.88,22.85,201.05,256.82,265.45,-128.24,-342.73,-238.07,-81.44,22.85,72.88,0,154.32,0.35
dw_cut_4_n1_opt_disp_struct_2.xyz,Nucleus 5N :,2.157673,-5.385888,2.063954,125.38,68.09,166.64,141.42,299.77,337.15,329.51,-133.49,-195.4,-261.4,68.09,141.42,166.64,0,98.55,0.49
dw_cut_4_n1_opt_disp_struct_2.xyz,Nucleus 21O :,3.452939,-4.208244,1.745216,-51.14,211.46,-51.71,-313.17,399.02,417.26,426.21,-213.72,-452.8,-729.38,-313.17,-51.71,211.46,0,524.63,-0.0
dw_cut_4_n1_opt_disp_struct_2.xyz,Nucleus 22O :,2.916223,-4.556562,3.418902,-73.01,-344.7,-67.85,193.52,399.35,418.57,431.77,-759.8,-484.01,-224.91,-344.7,-67.85,193.52,0,538.22,0.03
dw_cut_4_n1_opt_disp_struct_3.xyz,Nucleus 1H :,0.978144,-0.034569,-1.31988,29.35,35.17,23.76,29.12,39.89,27.54,29.24,0.94,-6.41,-3.14,23.76,29.12,35.17,0,11.41,-0.06
dw_cut_4_n1_opt_disp_struct_3.xyz,Nucleus 2H :,1.688379,0.69099,-1.732939,28.58,34.79,24.27,26.68,45.08,23.59,27.45,-11.94,2.02,-0.46,24.27,26.68,34.79,0,10.52,-0.54
dw_cut_4_n1_opt_disp_struct_3.xyz,Nucleus 6H :,1.3088,-1.037945,-1.629003,24.69,16.9,25.49,31.69,48.92,16.85,31.42,-17.88,0.5,-5.73,16.9,25.49,31.69,0,14.79,0.16
dw_cut_4_n1_opt_disp_struct_3.xyz,Nucleus 10H :,0.894737,0.083977,0.158821,23.87,28.59,19.53,23.48,31.59,35.04,49.6,-3.27,-14.32,-27.05,19.53,23.48,28.59,0,9.06,-0.13
dw_cut_4_n1_opt_disp_struct_3.xyz,Nucleus 12H :,1.678677,0.894554,0.956207,24.28,20.66,24.88,27.29,13.96,48.3,32.03,-23.72,7.05,-4.79,20.66,24.88,27.29,0,6.63,0.27
dw_cut_4_n1_opt_disp_struct_3.xyz,Nucleus 14H :,1.29179,0.722999,2.257678,23.97,20.82,26.81,24.28,4.1,35.61,44.0,16.81,-8.88,-19.72,20.82,24.28,26.81,0,5.99,0.16
dw_cut_4_n1_opt_disp_struct_3.xyz,Nucleus 16H :,1.650136,1.238017,3.039669,24.31,20.06,28.01,24.87,10.55,32.98,48.14,9.75,-5.0,-23.48,20.06,24.87,28.01,0,7.95,0.21
dw_cut_4_n1_opt_disp_struct_3.xyz,Nucleus 17H :,0.262233,-0.185252,2.332584,24.72,21.35,25.7,27.1,45.19,29.1,31.19,-19.53,-7.66,-4.14,21.35,25.7,27.1,0,5.75,0.51
dw_cut_4_n1_opt_disp_struct_3.xyz,Nucleus 18H :,-0.011169,-0.603066,1.029663,29.08,35.5,27.63,24.1,42.96,26.94,33.16,-11.19,0.05,-4.69,24.1,27.63,35.5,0,11.4,-0.38
dw_cut_4_n1_opt_disp_struct_3.xyz,Nucleus 23H :,-1.04211,-1.544829,0.830653,30.13,33.87,29.06,27.45,38.39,20.9,18.5,-4.8,9.6,7.78,27.45,29.06,33.87,0,6.42,-0.5
dw_cut_4_n1_opt_disp_struct_3.xyz,Nucleus 24H :,-1.243635,-1.918283,-0.170144,30.66,35.17,25.96,30.86,14.32,38.32,27.62,11.67,-3.31,3.37,25.96,30.86,35.17,0,9.21,0.07
dw_cut_4_n1_opt_disp_struct_3.xyz,Nucleus 25H :,-1.754567,-2.032708,1.932552,30.32,34.48,29.8,26.68,39.69,19.37,16.24,-5.33,9.84,11.14,26.68,29.8,34.48,0,7.8,-0.2
dw_cut_4_n1_opt_disp_struct_3.xyz,Nucleus 0C :,-2.51362,-2.796131,1.784722,171.36,159.68,166.27,188.14,236.29,243.24,254.36,-63.74,-78.76,-77.3,159.68,166.27,188.14,0,28.46,-0.54
dw_cut_4_n1_opt_disp_struct_3.xyz,Nucleus 3C :,-1.455646,-1.596003,3.220569,62.18,149.46,52.55,-15.46,242.5,262.06,276.85,-93.27,-220.93,-280.65,-15.46,52.55,149.46,0,164.92,-0.18
dw_cut_4_n1_opt_disp_struct_3.xyz,Nucleus 4C :,-1.979262,-2.022088,4.070344,61.59,-22.28,126.49,80.56,256.25,264.92,273.47,-288.65,-132.79,-188.43,-22.28,80.56,126.49,0,148.77,0.38
dw_cut_4_n1_opt_disp_struct_3.xyz,Nucleus 7C :,-0.440416,-0.662021,3.446074,39.53,143.08,-43.54,19.05,259.42,283.69,275.12,-133.71,-318.11,-247.82,-43.54,19.05,143.08,0,186.62,-0.33
dw_cut_4_n1_opt_disp_struct_3.xyz,Nucleus 8C :,-0.158307,-0.378329,4.456402,43.95,171.85,-6.69,-33.32,225.7,265.0,256.33,-54.23,-270.54,-290.41,-33.32,-6.69,171.85,0,205.17,-0.74
dw_cut_4_n1_opt_disp_struct_3.xyz,Nucleus 9C :,2.480066,1.569137,0.685866,55.32,175.0,41.6,-50.63,250.4,272.68,270.16,-78.6,-228.03,-320.64,-50.63,41.6,175.0,0,225.63,-0.18
dw_cut_4_n1_opt_disp_struct_3.xyz,Nucleus 11C :,0.005073,0.140766,-1.797348,56.42,173.45,-56.13,51.95,227.39,265.02,272.71,-55.07,-321.58,-219.2,-56.13,51.95,173.45,0,229.58,-0.06
dw_cut_4_n1_opt_disp_struct_3.xyz,Nucleus 13C :,2.753216,-4.613372,2.406359,50.16,174.36,41.09,-64.98,216.75,275.81,256.84,-43.46,-234.71,-320.77,-64.98,41.09,174.36,0,239.34,-0.11
dw_cut_4_n1_opt_disp_struct_3.xyz,Nucleus 15C :,1.67817,-3.543788,2.326097,66.28,169.37,55.11,-25.65,243.5,274.14,268.75,-76.71,-217.39,-293.47,-25.65,55.11,169.37,0,195.02,-0.17
dw_cut_4_n1_opt_disp_struct_3.xyz,Nucleus 19C :,0.766191,-3.645152,3.196426,159.76,121.74,193.04,164.5,254.39,225.87,220.74,-99.07,-52.91,-69.72,121.74,164.5,193.04,0,71.3,0.2
dw_cut_4_n1_opt_disp_struct_3.xyz,Nucleus 20C :,1.828819,-2.681516,1.416568,4.0,-82.1,69.81,24.29,202.47,256.89,264.68,-132.69,-342.43,-236.91,-82.1,24.29,69.81,0,151.91,0.4
dw_cut_4_n1_opt_disp_struct_3.xyz,Nucleus 5N :,2.322995,-5.571758,2.088867,124.29,66.07,166.95,139.85,299.67,337.61,329.78,-133.1,-197.35,-263.74,66.07,139.85,166.95,0,100.88,0.46
dw_cut_4_n1_opt_disp_struct_3.xyz,Nucleus 21O :,3.618261,-4.394115,1.77013,-35.25,221.34,-45.16,-281.94,399.36,413.45,420.14,-196.38,-446.88,-695.45,-281.94,-45.16,221.34,0,503.28,-0.06
dw_cut_4_n1_opt_disp_struct_3.xyz,Nucleus 22O :,3.081545,-4.742432,3.443815,-55.5,203.66,-309.5,-60.65,398.92,417.67,428.88,-213.94,-719.84,-478.16,-309.5,-60.65,203.66,0,513.16,-0.03
dw_cut_4_n1_opt_disp_struct_4.xyz,Nucleus 1H :,0.978144,-0.034569,-1.31988,29.34,35.16,23.74,29.11,39.93,27.79,29.29,-6.53,0.63,-3.09,23.74,29.11,35.16,0,11.42,-0.06
dw_cut_4_n1_opt_disp_struct_4.xyz,Nucleus 2H :,1.688379,0.69099,-1.732939,28.57,34.82,24.25,26.65,45.26,23.92,27.45,-12.0,1.8,-0.7,24.25,26.65,34.82,0,10.57,-0.54
dw_cut_4_n1_opt_disp_struct_4.xyz,Nucleus 6H :,1.3088,-1.037945,-1.629003,24.6,16.82,25.44,31.55,49.18,16.69,31.29,-18.27,0.59,-5.68,16.82,25.44,31.55,0,14.73,0.17
dw_cut_4_n1_opt_disp_struct_4.xyz,Nucleus 10H :,0.894737,0.083977,0.158821,23.78,28.56,19.48,23.29,49.6,34.67,31.97,-3.55,-14.26,-27.1,19.48,23.29,28.56,0,9.08,-0.16
dw_cut_4_n1_opt_disp_struct_4.xyz,Nucleus 12H :,1.678677,0.894554,0.956207,24.19,20.59,24.7,27.27,48.26,13.95,31.62,-23.77,6.9,-4.39,20.59,24.7,27.27,0,6.68,0.23
dw_cut_4_n1_opt_disp_struct_4.xyz,Nucleus 14H :,1.29179,0.722999,2.257678,23.99,20.72,26.93,24.33,3.96,34.56,44.2,16.83,-7.71,-19.87,20.72,24.33,26.93,0,6.21,0.16
dw_cut_4_n1_opt_disp_struct_4.xyz,Nucleus 16H :,1.650136,1.238017,3.039669,24.23,19.98,27.98,24.72,10.32,32.39,48.16,-23.6,9.86,-4.43,19.98,24.72,27.98,0,8.0,0.18
dw_cut_4_n1_opt_disp_struct_4.xyz,Nucleus 17H :,0.262233,-0.185252,2.332584,24.66,21.29,25.61,27.08,45.27,29.06,31.23,-19.69,-7.64,-4.26,21.29,25.61,27.08,0,5.79,0.49
dw_cut_4_n1_opt_disp_struct_4.xyz,Nucleus 18H :,-0.011169,-0.603066,1.029663,29.1,35.52,27.64,24.14,43.2,27.09,33.36,-11.3,-0.03,-5.02,24.14,27.64,35.52,0,11.38,-0.38
dw_cut_4_n1_opt_disp_struct_4.xyz,Nucleus 23H :,-1.04211,-1.544829,0.830653,30.08,33.69,29.09,27.45,38.23,21.03,17.93,-4.81,10.26,7.58,27.45,29.09,33.69,0,6.24,-0.48
dw_cut_4_n1_opt_disp_struct_4.xyz,Nucleus 24H :,-1.243635,-1.918283,-0.170144,30.62,35.04,26.02,30.79,38.28,14.13,27.24,-3.41,11.92,3.69,26.02,30.79,35.04,0,9.02,0.06
dw_cut_4_n1_opt_disp_struct_4.xyz,Nucleus 25H :,-1.754567,-2.032708,1.932552,30.28,34.32,29.8,26.71,39.51,19.36,15.65,-5.3,10.04,11.57,26.71,29.8,34.32,0,7.61,-0.19
dw_cut_4_n1_opt_disp_struct_4.xyz,Nucleus 0C :,-2.51362,-2.796131,1.784722,171.5,159.85,166.5,188.15,236.46,243.62,254.7,-63.98,-78.93,-77.36,159.85,166.5,188.15,0,28.3,-0.53
dw_cut_4_n1_opt_disp_struct_4.xyz,Nucleus 3C :,-1.455646,-1.596003,3.220569,62.37,149.41,52.72,-15.01,242.95,262.42,277.46,-93.66,-221.71,-280.35,-15.01,52.72,149.41,0,164.42,-0.18
dw_cut_4_n1_opt_disp_struct_4.xyz,Nucleus 4C :,-1.979262,-2.022088,4.070344,60.93,-23.27,126.65,79.42,256.75,264.59,273.55,-289.65,-132.66,-189.78,-23.27,79.42,126.65,0,149.92,0.37
dw_cut_4_n1_opt_disp_struct_4.xyz,Nucleus 7C :,-0.440416,-0.662021,3.446074,39.44,143.1,-43.56,18.77,260.01,283.54,275.31,-133.32,-318.42,-248.8,-43.56,18.77,143.1,0,186.66,-0.33
dw_cut_4_n1_opt_disp_struct_4.xyz,Nucleus 8C :,-0.158307,-0.378329,4.456402,45.44,171.72,-4.34,-31.05,226.06,266.35,257.46,-54.62,-269.53,-289.4,-31.05,-4.34,171.72,0,202.77,-0.74
dw_cut_4_n1_opt_disp_struct_4.xyz,Nucleus 9C :,2.480066,1.569137,0.685866,54.77,175.21,40.44,-51.34,251.68,271.95,269.88,-78.64,-229.59,-320.98,-51.34,40.44,175.21,0,226.55,-0.19
dw_cut_4_n1_opt_disp_struct_4.xyz,Nucleus 11C :,0.005073,0.140766,-1.797348,56.16,173.76,-56.52,51.23,227.33,265.4,272.04,-54.59,-321.94,-219.76,-56.52,51.23,173.76,0,230.28,-0.06
dw_cut_4_n1_opt_disp_struct_4.xyz,Nucleus 13C :,2.918538,-4.799243,2.431272,50.86,174.59,41.68,-63.69,215.84,275.18,257.85,-42.54,-233.48,-320.26,-63.69,41.68,174.59,0,238.28,-0.12
dw_cut_4_n1_opt_disp_struct_4.xyz,Nucleus 15C :,1.843493,-3.729659,2.351011,66.01,169.6,54.53,-26.11,244.09,273.43,268.9,-76.67,-217.43,-294.31,-26.11,54.53,169.6,0,195.71,-0.18
dw_cut_4_n1_opt_disp_struct_4.xyz,Nucleus 19C :,0.931513,-3.831023,3.221339,159.83,121.93,192.74,164.81,253.95,224.84,219.62,-97.76,-52.24,-68.92,121.93,164.81,192.74,0,70.81,0.21
dw_cut_4_n1_opt_disp_struct_4.xyz,Nucleus 20C :,1.994142,-2.867387,1.441481,3.56,-82.95,68.23,25.41,203.95,257.2,264.26,-135.74,-342.4,-236.58,-82.95,25.41,68.23,0,151.18,0.43
dw_cut_4_n1_opt_disp_struct_4.xyz,Nucleus 5N :,2.488317,-5.757629,2.11378,123.43,64.55,167.2,138.53,299.41,337.97,329.89,-132.71,-198.95,-265.34,64.55,138.53,167.2,0,102.65,0.44
dw_cut_4_n1_opt_disp_struct_4.xyz,Nucleus 21O :,3.783584,-4.579986,1.795043,-26.37,226.09,-38.96,-266.23,399.31,410.74,418.22,-187.38,-441.54,-678.46,-266.23,-38.96,226.09,0,492.32,-0.08
dw_cut_4_n1_opt_disp_struct_4.xyz,Nucleus 22O :,3.246867,-4.928303,3.468728,-46.3,207.74,-291.84,-54.81,399.35,419.25,427.59,-211.67,-700.98,-472.45,-291.84,-54.81,207.74,0,499.58,-0.05
dw_cut_4_n1_opt_disp_struct_5.xyz,Nucleus 1H :,0.978144,-0.034569,-1.31988,29.32,35.14,23.72,29.1,39.93,27.91,29.28,-6.54,0.44,-3.05,23.72,29.1,35.14,0,11.42,-0.06
dw_cut_4_n1_opt_disp_struct_5.xyz,Nucleus 2H :,1.688379,0.69099,-1.732939,28.58,34.87,24.25,26.61,45.32,24.05,27.46,-11.95,1.75,-0.91,24.25,26.61,34.87,0,10.62,-0.56
dw_cut_4_n1_opt_disp_struct_5.xyz,Nucleus 6H :,1.3088,-1.037945,-1.629003,24.53,16.76,25.39,31.44,49.33,16.49,31.19,-18.5,0.72,-5.64,16.76,25.39,31.44,0,14.68,0.18
dw_cut_4_n1_opt_disp_struct_5.xyz,Nucleus 10H :,0.894737,0.083977,0.158821,23.72,28.55,19.43,23.17,49.42,34.29,32.07,-3.54,-14.16,-26.93,19.43,23.17,28.55,0,9.12,-0.18
dw_cut_4_n1_opt_disp_struct_5.xyz,Nucleus 12H :,1.678677,0.894554,0.956207,24.13,20.53,24.58,27.27,48.13,14.13,31.2,-23.71,6.6,-3.97,20.53,24.58,27.27,0,6.74,0.2
dw_cut_4_n1_opt_disp_struct_5.xyz,Nucleus 14H :,1.29179,0.722999,2.257678,23.99,20.63,27.0,24.35,4.16,33.86,44.29,16.53,-6.93,-19.92,20.63,24.35,27.0,0,6.37,0.17
dw_cut_4_n1_opt_disp_struct_5.xyz,Nucleus 16H :,1.650136,1.238017,3.039669,24.17,19.92,27.96,24.63,10.23,31.98,48.03,-23.53,9.85,-4.04,19.92,24.63,27.96,0,8.04,0.17
dw_cut_4_n1_opt_disp_struct_5.xyz,Nucleus 17H :,0.262233,-0.185252,2.332584,24.61,21.23,25.53,27.07,45.3,28.96,31.2,-19.77,-7.58,-4.28,21.23,25.53,27.07,0,5.84,0.47
dw_cut_4_n1_opt_disp_struct_5.xyz,Nucleus 18H :,-0.011169,-0.603066,1.029663,29.11,35.52,27.65,24.17,43.31,27.16,33.4,-11.26,-0.06,-5.22,24.17,27.65,35.52,0,11.35,-0.39
dw_cut_4_n1_opt_disp_struct_5.xyz,Nucleus 23H :,-1.04211,-1.544829,0.830653,30.04,33.53,29.11,27.47,38.08,21.24,17.41,-4.8,10.84,7.35,27.47,29.11,33.53,0,6.06,-0.46
dw_cut_4_n1_opt_disp_struct_5.xyz,Nucleus 24H :,-1.243635,-1.918283,-0.170144,30.57,34.93,26.07,30.72,38.3,13.94,26.91,-3.54,12.15,3.96,26.07,30.72,34.93,0,8.86,0.05
dw_cut_4_n1_opt_disp_struct_5.xyz,Nucleus 25H :,-1.754567,-2.032708,1.932552,30.24,34.17,29.81,26.73,39.34,19.41,15.12,-5.26,10.07,12.04,26.73,29.81,34.17,0,7.44,-0.17
dw_cut_4_n1_opt_disp_struct_5.xyz,Nucleus 0C :,-2.51362,-2.796131,1.784722,171.62,160.0,166.7,188.15,236.53,243.81,254.9,-64.26,-78.95,-77.19,160.0,166.7,188.15,0,28.15,-0.52
dw_cut_4_n1_opt_disp_struct_5.xyz,Nucleus 3C :,-1.455646,-1.596003,3.220569,62.54,149.35,52.9,-14.62,242.98,262.65,277.32,-93.71,-221.88,-279.74,-14.62,52.9,149.35,0,163.97,-0.18
dw_cut_4_n1_opt_disp_struct_5.xyz,Nucleus 4C :,-1.979262,-2.022088,4.070344,60.35,-24.13,126.78,78.39,256.87,264.47,273.46,-290.49,-132.49,-190.79,-24.13,78.39,126.78,0,150.91,0.36
dw_cut_4_n1_opt_disp_struct_5.xyz,Nucleus 7C :,-0.440416,-0.662021,3.446074,39.53,143.1,-43.27,18.76,260.66,282.07,275.2,-132.41,-318.02,-248.92,-43.27,18.76,143.1,0,186.37,-0.33
dw_cut_4_n1_opt_disp_struct_5.xyz,Nucleus 8C :,-0.158307,-0.378329,4.456402,46.47,171.6,-2.72,-29.46,226.24,266.88,258.2,-54.84,-268.55,-288.51,-29.46,-2.72,171.6,0,201.06,-0.73
dw_cut_4_n1_opt_disp_struct_5.xyz,Nucleus 9C :,2.480066,1.569137,0.685866,54.59,175.35,39.88,-51.46,252.59,271.27,268.65,-78.36,-230.09,-320.29,-51.46,39.88,175.35,0,226.81,-0.19
dw_cut_4_n1_opt_disp_struct_5.xyz,Nucleus 11C :,0.005073,0.140766,-1.797348,56.02,174.0,-56.66,50.72,227.75,265.33,271.26,-54.59,-321.81,-219.88,-56.66,50.72,174.0,0,230.66,-0.07
dw_cut_4_n1_opt_disp_struct_5.xyz,Nucleus 13C :,3.08386,-4.985114,2.456185,51.42,174.74,42.23,-62.7,216.08,274.75,258.14,-42.57,-232.5,-319.63,-62.7,42.23,174.74,0,237.44,-0.12
dw_cut_4_n1_opt_disp_struct_5.xyz,Nucleus 15C :,2.008815,-3.915529,2.375924,65.9,169.78,54.2,-26.27,244.76,272.54,268.54,-76.55,-217.33,-294.25,-26.27,54.2,169.78,0,196.05,-0.18
dw_cut_4_n1_opt_disp_struct_5.xyz,Nucleus 19C :,1.096835,-4.016894,3.246252,159.83,122.06,192.48,164.96,253.56,224.06,218.64,-96.67,-51.76,-68.33,122.06,164.96,192.48,0,70.42,0.22
dw_cut_4_n1_opt_disp_struct_5.xyz,Nucleus 20C :,2.159464,-3.053257,1.466394,3.34,-83.73,67.52,26.24,204.81,257.38,264.25,-137.29,-342.41,-236.7,-83.73,26.24,67.52,0,151.25,0.45
dw_cut_4_n1_opt_disp_struct_5.xyz,Nucleus 5N :,2.653639,-5.9435,2.138693,122.74,63.4,167.4,137.41,299.22,338.2,329.97,-132.41,-200.22,-266.54,63.4,137.41,167.4,0,104.0,0.42
dw_cut_4_n1_opt_disp_struct_5.xyz,Nucleus 21O :,3.948906,-4.765856,1.819956,-21.56,228.3,-34.64,-258.34,399.02,409.86,418.52,-183.97,-438.28,-669.83,-258.34,-34.64,228.3,0,486.64,-0.08
dw_cut_4_n1_opt_disp_struct_5.xyz,Nucleus 22O :,3.41219,-5.114174,3.493642,-42.09,208.76,-283.35,-51.67,399.93,421.93,427.27,-213.57,-692.98,-468.84,-283.35,-51.67,208.76,0,492.11,-0.06
dw_cut_4_n1_opt_disp_struct_6.xyz,Nucleus 1H :,0.978144,-0.034569,-1.31988,29.3,35.11,23.71,29.09,39.9,27.94,29.24,-6.47,0.32,-3.02,23.71,29.09,35.11,0,11.4,-0.06
dw_cut_4_n1_opt_disp_struct_6.xyz,Nucleus 2H :,1.688379,0.69099,-1.732939,28.57,34.91,24.25,26.56,45.3,24.07,27.46,-11.84,1.77,-1.06,24.25,26.56,34.91,0,10.66,-0.57
dw_cut_4_n1_opt_disp_struct_6.xyz,Nucleus 6H :,1.3088,-1.037945,-1.629003,24.47,16.71,25.37,31.34,49.4,16.3,31.11,-18.62,0.81,-5.58,16.71,25.37,31.34,0,14.63,0.18
dw_cut_4_n1_opt_disp_struct_6.xyz,Nucleus 10H :,0.894737,0.083977,0.158821,23.67,28.55,19.37,23.1,49.19,31.84,34.12,-3.36,-14.09,-26.68,19.37,23.1,28.55,0,9.18,-0.19
dw_cut_4_n1_opt_disp_struct_6.xyz,Nucleus 12H :,1.678677,0.894554,0.956207,24.08,20.48,24.5,27.27,47.98,14.36,30.85,-23.59,6.26,-3.6,20.48,24.5,27.27,0,6.79,0.19
dw_cut_4_n1_opt_disp_struct_6.xyz,Nucleus 14H :,1.29179,0.722999,2.257678,23.99,20.55,27.06,24.35,4.48,33.39,44.29,16.12,-6.41,-19.92,20.55,24.35,27.06,0,6.51,0.17
dw_cut_4_n1_opt_disp_struct_6.xyz,Nucleus 16H :,1.650136,1.238017,3.039669,24.13,19.86,27.96,24.57,10.23,31.7,47.83,-23.37,9.77,-3.77,19.86,24.57,27.96,0,8.1,0.16
dw_cut_4_n1_opt_disp_struct_6.xyz,Nucleus 17H :,0.262233,-0.185252,2.332584,24.57,21.18,25.45,27.07,45.28,28.83,31.15,-19.81,-7.52,-4.23,21.18,25.45,27.07,0,5.89,0.45
dw_cut_4_n1_opt_disp_struct_6.xyz,Nucleus 18H :,-0.011169,-0.603066,1.029663,29.11,35.51,27.65,24.17,43.34,27.18,33.34,-11.16,-0.07,-5.31,24.17,27.65,35.51,0,11.34,-0.39
dw_cut_4_n1_opt_disp_struct_6.xyz,Nucleus 23H :,-1.04211,-1.544829,0.830653,30.0,33.39,29.13,27.49,37.95,21.47,16.89,11.4,7.12,-4.81,27.49,29.13,33.39,0,5.9,-0.44
dw_cut_4_n1_opt_disp_struct_6.xyz,Nucleus 24H :,-1.243635,-1.918283,-0.170144,30.54,34.83,26.12,30.66,38.36,13.76,26.62,-3.7,12.38,4.19,26.12,30.66,34.83,0,8.71,0.04
dw_cut_4_n1_opt_disp_struct_6.xyz,Nucleus 25H :,-1.754567,-2.032708,1.932552,30.2,34.04,29.81,26.76,39.19,19.5,14.62,-5.24,10.01,12.52,26.76,29.81,34.04,0,7.28,-0.16
dw_cut_4_n1_opt_disp_struct_6.xyz,Nucleus 0C :,-2.51362,-2.796131,1.784722,171.71,160.11,166.88,188.14,236.57,243.84,255.04,-64.52,-78.91,-76.89,160.11,166.88,188.14,0,28.03,-0.52
dw_cut_4_n1_opt_disp_struct_6.xyz,Nucleus 3C :,-1.455646,-1.596003,3.220569,62.68,149.32,53.01,-14.28,242.7,262.75,276.68,-93.45,-221.67,-278.97,-14.28,53.01,149.32,0,163.6,-0.18
dw_cut_4_n1_opt_disp_struct_6.xyz,Nucleus 4C :,-1.979262,-2.022088,4.070344,59.79,-24.92,126.85,77.45,256.71,264.55,273.28,-291.23,-132.33,-191.6,-24.92,77.45,126.85,0,151.77,0.35
dw_cut_4_n1_opt_disp_struct_6.xyz,Nucleus 7C :,-0.440416,-0.662021,3.446074,39.67,143.07,-42.9,18.85,261.28,274.88,280.16,-131.31,-317.37,-248.62,-42.9,18.85,143.07,0,185.97,-0.34
dw_cut_4_n1_opt_disp_struct_6.xyz,Nucleus 8C :,-0.158307,-0.378329,4.456402,47.22,171.57,-1.58,-28.33,226.4,266.9,258.68,-54.98,-267.64,-287.7,-28.33,-1.58,171.57,0,199.9,-0.73
dw_cut_4_n1_opt_disp_struct_6.xyz,Nucleus 9C :,2.480066,1.569137,0.685866,54.55,175.46,39.57,-51.37,252.87,270.99,267.06,-77.89,-230.09,-319.27,-51.37,39.57,175.46,0,226.83,-0.2
dw_cut_4_n1_opt_disp_struct_6.xyz,Nucleus 11C :,0.005073,0.140766,-1.797348,55.93,174.19,-56.7,50.31,228.27,265.01,270.53,-54.76,-321.45,-219.81,-56.7,50.31,174.19,0,230.89,-0.07
dw_cut_4_n1_opt_disp_struct_6.xyz,Nucleus 13C :,3.249182,-5.170984,2.481098,51.84,174.87,42.63,-61.98,216.89,274.4,258.05,-43.07,-231.73,-319.02,-61.98,42.63,174.87,0,236.85,-0.12
dw_cut_4_n1_opt_disp_struct_6.xyz,Nucleus 15C :,2.174137,-4.1014,2.400837,65.87,169.92,53.97,-26.29,245.1,271.82,267.94,-76.28,-217.23,-293.75,-26.29,53.97,169.92,0,196.21,-0.18
dw_cut_4_n1_opt_disp_struct_6.xyz,Nucleus 19C :,1.262157,-4.202764,3.271166,159.81,122.13,192.26,165.03,253.23,223.58,217.84,-95.81,-51.53,-67.89,122.13,165.03,192.26,0,70.13,0.22
dw_cut_4_n1_opt_disp_struct_6.xyz,Nucleus 20C :,2.324786,-3.239128,1.491307,3.25,-84.38,67.3,26.84,205.16,257.33,264.54,-137.87,-342.41,-236.99,-84.38,26.84,67.3,0,151.68,0.47
dw_cut_4_n1_opt_disp_struct_6.xyz,Nucleus 5N :,2.818962,-6.12937,2.163606,122.1,62.4,167.53,136.36,299.11,338.28,330.05,-132.24,-201.29,-267.61,62.4,136.36,167.53,0,105.13,0.41
dw_cut_4_n1_opt_disp_struct_6.xyz,Nucleus 21O :,4.114228,-4.951727,1.844869,-19.04,229.29,-32.09,-254.31,398.62,410.27,419.55,-183.38,-436.75,-665.41,-254.31,-32.09,229.29,0,483.6,-0.08
dw_cut_4_n1_opt_disp_struct_6.xyz,Nucleus 22O :,3.577512,-5.300045,3.518555,-40.53,208.39,-279.4,-50.57,400.37,424.38,427.82,-217.0,-690.05,-467.12,-279.4,-50.57,208.39,0,487.79,-0.06
dw_cut_4_n1_opt_disp_struct_7.xyz,Nucleus 1H :,0.978144,-0.034569,-1.31988,29.28,35.09,23.68,29.08,39.86,27.92,29.21,-6.39,0.25,-3.0,23.68,29.08,35.09,0,11.41,-0.05
dw_cut_4_n1_opt_disp_struct_7.xyz,Nucleus 2H :,1.688379,0.69099,-1.732939,28.57,34.96,24.25,26.51,45.26,24.06,27.45,-11.71,1.82,-1.16,24.25,26.51,34.96,0,10.71,-0.58
dw_cut_4_n1_opt_disp_struct_7.xyz,Nucleus 6H :,1.3088,-1.037945,-1.629003,24.42,16.65,25.33,31.28,49.42,16.15,31.02,-18.66,0.86,-5.53,16.65,25.33,31.28,0,14.63,0.19
dw_cut_4_n1_opt_disp_struct_7.xyz,Nucleus 10H :,0.894737,0.083977,0.158821,23.64,28.57,19.31,23.05,48.95,31.42,34.12,-3.1,-14.05,-26.41,19.31,23.05,28.57,0,9.26,-0.19
dw_cut_4_n1_opt_disp_struct_7.xyz,Nucleus 12H :,1.678677,0.894554,0.956207,24.05,20.41,24.45,27.28,47.81,14.57,30.57,-23.46,5.95,-3.31,20.41,24.45,27.28,0,6.87,0.17
dw_cut_4_n1_opt_disp_struct_7.xyz,Nucleus 14H :,1.29179,0.722999,2.257678,23.97,20.47,27.1,24.35,4.83,33.07,44.26,15.68,-6.05,-19.88,20.47,24.35,27.1,0,6.63,0.17
dw_cut_4_n1_opt_disp_struct_7.xyz,Nucleus 16H :,1.650136,1.238017,3.039669,24.1,19.8,27.96,24.53,10.28,31.52,47.61,-23.17,9.64,-3.59,19.8,24.53,27.96,0,8.16,0.16
dw_cut_4_n1_opt_disp_struct_7.xyz,Nucleus 17H :,0.262233,-0.185252,2.332584,24.53,21.13,25.39,27.07,45.24,28.72,31.1,-19.8,-7.49,-4.18,21.13,25.39,27.07,0,5.94,0.43
dw_cut_4_n1_opt_disp_struct_7.xyz,Nucleus 18H :,-0.011169,-0.603066,1.029663,29.11,35.5,27.65,24.18,43.33,27.16,33.25,-0.05,-11.02,-5.33,24.18,27.65,35.5,0,11.32,-0.39
dw_cut_4_n1_opt_disp_struct_7.xyz,Nucleus 23H :,-1.04211,-1.544829,0.830653,29.98,33.27,29.15,27.51,37.85,21.7,16.4,11.92,6.9,-4.84,27.51,29.15,33.27,0,5.76,-0.43
dw_cut_4_n1_opt_disp_struct_7.xyz,Nucleus 24H :,-1.243635,-1.918283,-0.170144,30.5,34.75,26.15,30.61,38.46,13.6,26.41,-3.88,12.57,4.35,26.15,30.61,34.75,0,8.6,0.04
dw_cut_4_n1_opt_disp_struct_7.xyz,Nucleus 25H :,-1.754567,-2.032708,1.932552,30.17,33.92,29.82,26.77,39.07,19.63,14.16,-5.24,9.92,12.98,26.77,29.82,33.92,0,7.15,-0.15
dw_cut_4_n1_opt_disp_struct_7.xyz,Nucleus 0C :,-2.51362,-2.796131,1.784722,171.79,160.21,167.04,188.11,236.56,243.78,255.14,-64.75,-78.82,-76.55,160.21,167.04,188.11,0,27.9,-0.51
dw_cut_4_n1_opt_disp_struct_7.xyz,Nucleus 3C :,-1.455646,-1.596003,3.220569,62.77,149.25,53.09,-14.04,242.31,262.77,275.86,-93.14,-221.22,-278.26,-14.04,53.09,149.25,0,163.29,-0.18
dw_cut_4_n1_opt_disp_struct_7.xyz,Nucleus 4C :,-1.979262,-2.022088,4.070344,59.34,-25.55,126.94,76.64,256.36,264.78,273.06,-291.82,-132.11,-192.23,-25.55,76.64,126.94,0,152.49,0.34
dw_cut_4_n1_opt_disp_struct_7.xyz,Nucleus 7C :,-0.440416,-0.662021,3.446074,39.83,143.06,-42.51,18.93,261.75,274.37,278.48,-130.19,-316.61,-248.3,-42.51,18.93,143.06,0,185.57,-0.34
dw_cut_4_n1_opt_disp_struct_7.xyz,Nucleus 8C :,-0.158307,-0.378329,4.456402,47.66,171.44,-0.88,-27.57,226.59,266.6,259.1,-55.25,-266.88,-287.16,-27.57,-0.88,171.44,0,199.01,-0.73
dw_cut_4_n1_opt_disp_struct_7.xyz,Nucleus 9C :,2.480066,1.569137,0.685866,54.57,175.55,39.36,-51.19,252.59,270.93,265.58,-77.31,-229.89,-318.19,-51.19,39.36,175.55,0,226.74,-0.2
dw_cut_4_n1_opt_disp_struct_7.xyz,Nucleus 11C :,0.005073,0.140766,-1.797348,55.89,174.37,-56.69,49.98,228.68,264.63,269.91,-54.88,-321.01,-219.67,-56.69,49.98,174.37,0,231.06,-0.08
dw_cut_4_n1_opt_disp_struct_7.xyz,Nucleus 13C :,3.414505,-5.356855,2.506012,52.16,174.98,42.94,-61.43,217.89,274.06,257.7,-43.68,-231.06,-318.42,-61.43,42.94,174.98,0,236.41,-0.12
dw_cut_4_n1_opt_disp_struct_7.xyz,Nucleus 15C :,2.339459,-4.287271,2.42575,65.85,170.04,53.78,-26.27,245.01,271.44,267.25,-75.86,-217.17,-293.13,-26.27,53.78,170.04,0,196.31,-0.18
dw_cut_4_n1_opt_disp_struct_7.xyz,Nucleus 19C :,1.427479,-4.388635,3.296079,159.77,122.18,192.07,165.06,252.95,223.55,217.36,-95.29,-51.65,-67.61,122.18,165.06,192.07,0,69.89,0.23
dw_cut_4_n1_opt_disp_struct_7.xyz,Nucleus 20C :,2.490108,-3.424999,1.51622,3.19,-84.92,67.24,27.26,205.18,257.1,264.92,-137.95,-342.38,-237.28,-84.92,27.26,67.24,0,152.16,0.47
dw_cut_4_n1_opt_disp_struct_7.xyz,Nucleus 5N :,2.984284,-6.315241,2.18852,121.67,61.72,167.7,135.6,299.05,338.22,330.12,-132.01,-201.98,-268.38,61.72,135.6,167.7,0,105.98,0.39
dw_cut_4_n1_opt_disp_struct_7.xyz,Nucleus 21O :,4.27955,-5.137598,1.869782,-17.76,229.74,-30.7,-252.32,398.25,411.08,420.76,-183.77,-436.25,-663.35,-252.32,-30.7,229.74,0,482.06,-0.08
dw_cut_4_n1_opt_disp_struct_7.xyz,Nucleus 22O :,3.742834,-5.485915,3.543468,-40.17,207.62,-277.58,-50.56,400.68,429.58,425.76,-220.72,-689.31,-466.52,-277.58,-50.56,207.62,0,485.2,-0.06
dw_cut_4_n1_opt_disp_struct_8.xyz,Nucleus 1H :,0.978144,-0.034569,-1.31988,29.27,35.07,23.66,29.07,39.81,27.87,29.17,-6.3,0.23,-2.98,23.66,29.07,35.07,0,11.41,-0.05
dw_cut_4_n1_opt_disp_struct_8.xyz,Nucleus 2H :,1.688379,0.69099,-1.732939,28.58,35.0,24.26,26.47,45.22,24.03,27.41,-11.58,1.88,-1.22,24.26,26.47,35.0,0,10.74,-0.59
dw_cut_4_n1_opt_disp_struct_8.xyz,Nucleus 6H :,1.3088,-1.037945,-1.629003,24.38,16.61,25.3,31.23,49.41,16.03,30.95,-18.66,0.88,-5.47,16.61,25.3,31.23,0,14.62,0.19
dw_cut_4_n1_opt_disp_struct_8.xyz,Nucleus 10H :,0.894737,0.083977,0.158821,23.62,28.59,19.26,23.02,48.72,30.97,34.17,-2.82,-14.02,-26.16,19.26,23.02,28.59,0,9.33,-0.19
dw_cut_4_n1_opt_disp_struct_8.xyz,Nucleus 12H :,1.678677,0.894554,0.956207,24.02,20.35,24.41,27.29,47.65,14.75,30.35,-23.31,5.71,-3.09,20.35,24.41,27.29,0,6.94,0.17
dw_cut_4_n1_opt_disp_struct_8.xyz,Nucleus 14H :,1.29179,0.722999,2.257678,23.96,20.41,27.13,24.35,5.11,32.84,44.21,15.33,-5.79,-19.83,20.41,24.35,27.13,0,6.72,0.17
dw_cut_4_n1_opt_disp_struct_8.xyz,Nucleus 16H :,1.650136,1.238017,3.039669,24.07,19.74,27.97,24.51,10.35,31.4,47.39,-22.96,9.5,-3.47,19.74,24.51,27.97,0,8.23,0.16
dw_cut_4_n1_opt_disp_struct_8.xyz,Nucleus 17H :,0.262233,-0.185252,2.332584,24.5,21.08,25.34,27.07,45.18,28.63,31.05,-19.77,-7.47,-4.13,21.08,25.34,27.07,0,5.99,0.42
dw_cut_4_n1_opt_disp_struct_8.xyz,Nucleus 18H :,-0.011169,-0.603066,1.029663,29.11,35.49,27.65,24.18,43.29,27.12,33.14,-0.02,-10.89,-5.33,24.18,27.65,35.49,0,11.31,-0.39
dw_cut_4_n1_opt_disp_struct_8.xyz,Nucleus 23H :,-1.04211,-1.544829,0.830653,29.95,33.16,29.16,27.53,15.97,21.95,37.79,12.37,6.67,-4.9,27.53,29.16,33.16,0,5.63,-0.42
dw_cut_4_n1_opt_disp_struct_8.xyz,Nucleus 24H :,-1.243635,-1.918283,-0.170144,30.48,34.69,26.19,30.55,38.59,13.49,26.25,-4.07,12.72,4.45,26.19,30.55,34.69,0,8.5,0.02
dw_cut_4_n1_opt_disp_struct_8.xyz,Nucleus 25H :,-1.754567,-2.032708,1.932552,30.14,33.82,29.82,26.79,38.99,19.78,13.77,-5.27,9.79,13.37,26.79,29.82,33.82,0,7.03,-0.14
dw_cut_4_n1_opt_disp_struct_8.xyz,Nucleus 0C :,-2.51362,-2.796131,1.784722,171.85,160.29,167.18,188.09,236.52,243.65,255.23,-64.95,-78.67,-76.23,160.29,167.18,188.09,0,27.8,-0.5
dw_cut_4_n1_opt_disp_struct_8.xyz,Nucleus 3C :,-1.455646,-1.596003,3.220569,62.82,149.19,53.12,-13.85,241.91,262.71,275.01,-92.83,-220.68,-277.66,-13.85,53.12,149.19,0,163.04,-0.18
dw_cut_4_n1_opt_disp_struct_8.xyz,Nucleus 4C :,-1.979262,-2.022088,4.070344,58.95,-26.1,127.03,75.93,255.93,265.07,272.86,-292.33,-131.91,-192.76,-26.1,75.93,127.03,0,153.13,0.33
dw_cut_4_n1_opt_disp_struct_8.xyz,Nucleus 7C :,-0.440416,-0.662021,3.446074,39.96,143.05,-42.17,19.01,261.97,273.84,277.2,-129.18,-315.86,-248.08,-42.17,19.01,143.05,0,185.22,-0.34
dw_cut_4_n1_opt_disp_struct_8.xyz,Nucleus 8C :,-0.158307,-0.378329,4.456402,47.99,171.35,-0.37,-27.0,226.83,266.04,259.4,-55.54,-266.03,-286.71,-27.0,-0.37,171.35,0,198.35,-0.73
dw_cut_4_n1_opt_disp_struct_8.xyz,Nucleus 9C :,2.480066,1.569137,0.685866,54.6,175.61,39.19,-51.01,251.99,270.99,264.38,-76.73,-229.63,-317.21,-51.01,39.19,175.61,0,226.62,-0.2
dw_cut_4_n1_opt_disp_struct_8.xyz,Nucleus 11C :,0.005073,0.140766,-1.797348,55.85,174.51,-56.66,49.69,228.99,264.17,269.44,-54.97,-320.54,-219.55,-56.66,49.69,174.51,0,231.17,-0.08
dw_cut_4_n1_opt_disp_struct_8.xyz,Nucleus 13C :,3.579827,-5.542726,2.530925,52.38,175.06,43.13,-61.05,218.69,273.71,257.37,-44.19,-230.51,-317.95,-61.05,43.13,175.06,0,236.11,-0.12
dw_cut_4_n1_opt_disp_struct_8.xyz,Nucleus 15C :,2.504781,-4.473141,2.450663,65.84,170.14,53.6,-26.21,244.71,271.33,266.53,-75.38,-217.16,-292.48,-26.21,53.6,170.14,0,196.35,-0.19
dw_cut_4_n1_opt_disp_struct_8.xyz,Nucleus 19C :,1.592802,-4.574506,3.320992,159.75,122.23,191.91,165.1,252.73,223.99,217.34,-95.24,-52.12,-67.46,122.23,165.1,191.91,0,69.68,0.23
dw_cut_4_n1_opt_disp_struct_8.xyz,Nucleus 20C :,2.65543,-3.610869,1.541134,3.14,-85.37,67.24,27.56,204.97,256.79,265.25,-137.74,-342.35,-237.5,-85.37,27.56,67.24,0,152.61,0.48
dw_cut_4_n1_opt_disp_struct_8.xyz,Nucleus 5N :,3.149606,-6.501112,2.213433,121.3,61.13,167.85,134.93,299.01,338.05,330.19,-131.78,-202.5,-269.06,61.13,134.93,167.85,0,106.72,0.38
dw_cut_4_n1_opt_disp_struct_8.xyz,Nucleus 21O :,4.444872,-5.323468,1.894696,-17.17,229.99,-30.06,-251.43,397.92,411.65,421.91,-184.03,-436.3,-662.65,-251.43,-30.06,229.99,0,481.42,-0.08
dw_cut_4_n1_opt_disp_struct_8.xyz,Nucleus 22O :,3.908156,-5.671786,3.568381,-40.4,206.83,-276.96,-51.08,400.9,432.24,426.49,-224.54,-689.79,-466.52,-276.96,-51.08,206.83,0,483.79,-0.07
dw_cut_4_n1_opt_disp_struct_9.xyz,Nucleus 1H :,0.978144,-0.034569,-1.31988,29.25,35.04,23.64,29.06,39.76,27.79,29.14,-6.22,0.23,-2.97,23.64,29.06,35.04,0,11.4,-0.05
dw_cut_4_n1_opt_disp_struct_9.xyz,Nucleus 2H :,1.688379,0.69099,-1.732939,28.59,35.05,24.27,26.44,45.17,23.98,27.35,-11.46,1.95,-1.23,24.27,26.44,35.05,0,10.78,-0.6
dw_cut_4_n1_opt_disp_struct_9.xyz,Nucleus 6H :,1.3088,-1.037945,-1.629003,24.34,16.57,25.27,31.19,49.37,15.93,30.88,-18.62,0.88,-5.41,16.57,25.27,31.19,0,14.62,0.19
dw_cut_4_n1_opt_disp_struct_9.xyz,Nucleus 10H :,0.894737,0.083977,0.158821,23.6,28.6,19.21,23.0,48.5,30.6,34.19,-2.58,-14.0,-25.91,19.21,23.0,28.6,0,9.39,-0.19
dw_cut_4_n1_opt_disp_struct_9.xyz,Nucleus 12H :,1.678677,0.894554,0.956207,23.99,20.3,24.38,27.3,47.5,14.88,30.19,-23.17,5.53,-2.94,20.3,24.38,27.3,0,7.0,0.17
dw_cut_4_n1_opt_disp_struct_9.xyz,Nucleus 14H :,1.29179,0.722999,2.257678,23.95,20.35,27.16,24.35,5.35,32.65,44.16,15.04,-5.57,-19.78,20.35,24.35,27.16,0,6.81,0.18
dw_cut_4_n1_opt_disp_struct_9.xyz,Nucleus 16H :,1.650136,1.238017,3.039669,24.05,19.68,27.97,24.49,10.44,31.32,47.2,-22.77,9.35,-3.38,19.68,24.49,27.97,0,8.29,0.16
dw_cut_4_n1_opt_disp_struct_9.xyz,Nucleus 17H :,0.262233,-0.185252,2.332584,24.47,21.04,25.3,27.07,45.11,28.57,31.0,-19.73,-7.47,-4.08,21.04,25.3,27.07,0,6.03,0.41
dw_cut_4_n1_opt_disp_struct_9.xyz,Nucleus 18H :,-0.011169,-0.603066,1.029663,29.1,35.47,27.64,24.19,43.24,27.07,33.03,0.03,-10.76,-5.3,24.19,27.64,35.47,0,11.28,-0.39
dw_cut_4_n1_opt_disp_struct_9.xyz,Nucleus 23H :,-1.04211,-1.544829,0.830653,29.93,33.06,29.17,27.55,15.62,22.21,37.75,12.74,6.43,-4.97,27.55,29.17,33.06,0,5.51,-0.41
dw_cut_4_n1_opt_disp_struct_9.xyz,Nucleus 24H :,-1.243635,-1.918283,-0.170144,30.45,34.63,26.22,30.5,38.73,13.43,26.15,-4.27,12.81,4.5,26.22,30.5,34.63,0,8.41,0.02
dw_cut_4_n1_opt_disp_struct_9.xyz,Nucleus 25H :,-1.754567,-2.032708,1.932552,30.12,33.73,29.82,26.8,38.94,19.94,13.46,-5.31,9.65,13.68,26.8,29.82,33.73,0,6.93,-0.13
dw_cut_4_n1_opt_disp_struct_9.xyz,Nucleus 0C :,-2.51362,-2.796131,1.784722,171.9,160.35,167.3,188.06,236.45,243.47,255.3,-65.1,-78.48,-75.94,160.35,167.3,188.06,0,27.71,-0.5
dw_cut_4_n1_opt_disp_struct_9.xyz,Nucleus 3C :,-1.455646,-1.596003,3.220569,62.85,149.14,53.12,-13.7,241.61,262.64,274.28,-92.6,-220.15,-277.21,-13.7,53.12,149.14,0,162.84,-0.18
dw_cut_4_n1_opt_disp_struct_9.xyz,Nucleus 4C :,-1.979262,-2.022088,4.070344,58.6,-26.59,127.1,75.29,255.51,265.32,272.69,-292.77,-131.73,-193.22,-26.59,75.29,127.1,0,153.69,0.33
dw_cut_4_n1_opt_disp_struct_9.xyz,Nucleus 7C :,-0.440416,-0.662021,3.446074,40.09,143.04,-41.86,19.09,262.01,273.42,276.22,-128.34,-315.1,-247.94,-41.86,19.09,143.04,0,184.9,-0.34
dw_cut_4_n1_opt_disp_struct_9.xyz,Nucleus 8C :,-0.158307,-0.378329,4.456402,48.23,171.28,-0.02,-26.58,227.04,265.36,259.67,-55.79,-265.15,-286.44,-26.58,-0.02,171.28,0,197.86,-0.73
dw_cut_4_n1_opt_disp_struct_9.xyz,Nucleus 9C :,2.480066,1.569137,0.685866,54.63,175.67,39.06,-50.84,251.28,271.04,263.45,-76.17,-229.4,-316.32,-50.84,39.06,175.67,0,226.51,-0.21
dw_cut_4_n1_opt_disp_struct_9.xyz,Nucleus 11C :,0.005073,0.140766,-1.797348,55.82,174.63,-56.62,49.44,229.18,263.72,269.09,-54.97,-320.1,-219.46,-56.62,49.44,174.63,0,231.25,-0.08
dw_cut_4_n1_opt_disp_struct_9.xyz,Nucleus 13C :,3.745149,-5.728596,2.555838,52.54,175.12,43.26,-60.75,219.31,273.35,257.02,-44.55,-230.0,-317.51,-60.75,43.26,175.12,0,235.87,-0.12
dw_cut_4_n1_opt_disp_struct_9.xyz,Nucleus 15C :,2.670104,-4.659012,2.475577,65.84,170.23,53.43,-26.15,244.34,271.32,265.86,-74.93,-217.18,-291.91,-26.15,53.43,170.23,0,196.38,-0.19
dw_cut_4_n1_opt_disp_struct_9.xyz,Nucleus 19C :,1.758124,-4.760376,3.345905,159.72,122.26,191.77,165.14,252.55,224.75,217.76,-95.66,-52.83,-67.41,122.26,165.14,191.77,0,69.51,0.23
dw_cut_4_n1_opt_disp_struct_9.xyz,Nucleus 20C :,2.820753,-3.79674,1.566047,3.1,-85.74,67.25,27.78,204.59,256.45,265.52,-137.34,-342.27,-237.65,-85.74,27.78,67.25,0,152.99,0.48
dw_cut_4_n1_opt_disp_struct_9.xyz,Nucleus 5N :,3.314928,-6.686982,2.238346,120.98,60.63,167.96,134.36,298.96,337.82,330.24,-131.56,-202.9,-269.62,60.63,134.36,167.96,0,107.33,0.37
dw_cut_4_n1_opt_disp_struct_9.xyz,Nucleus 21O :,4.610194,-5.509339,1.919609,-16.97,230.18,-29.85,-251.24,397.62,411.61,422.92,-183.58,-436.61,-662.87,-251.24,-29.85,230.18,0,481.42,-0.08
dw_cut_4_n1_opt_disp_struct_9.xyz,Nucleus 22O :,4.073478,-5.857657,3.593294,-40.84,206.17,-276.94,-51.74,401.1,434.99,427.14,-228.06,-690.98,-466.7,-276.94,-51.74,206.17,0,483.11,-0.07
dy_cut_4_n1_opt.xyz,Nucleus 1H :,1.214923,0.353932,0.077992,28.73,33.12,28.19,24.89,25.71,37.32,33.57,1.27,-7.57,-4.1,24.89,28.19,33.12,0,8.23,-0.2
dy_cut_4_n1_opt.xyz,Nucleus 2H :,1.55736,-0.457352,0.728851,28.71,34.64,26.23,25.26,44.66,24.97,22.02,-11.7,2.84,3.34,25.26,26.23,34.64,0,9.38,-0.79
dy_cut_4_n1_opt.xyz,Nucleus 5H :,1.823419,1.243652,0.293813,25.98,29.45,26.64,21.86,46.45,30.5,29.12,-20.1,-1.18,-6.83,21.86,26.64,29.45,0,7.59,0.26
dy_cut_4_n1_opt.xyz,Nucleus 7H :,-0.242443,0.613981,0.279948,25.55,21.88,28.52,26.26,49.49,32.44,20.29,-24.52,-4.2,3.15,21.88,26.26,28.52,0,6.64,0.32
dy_cut_4_n1_opt.xyz,Nucleus 10H :,-1.009987,1.117947,-0.774111,26.2,22.37,28.71,27.51,49.56,32.13,17.89,-22.95,-3.61,5.57,22.37,27.51,28.71,0,6.34,0.62
dy_cut_4_n1_opt.xyz,Nucleus 12H :,-0.540898,1.251916,-1.746749,25.67,28.92,26.23,21.85,46.05,30.81,28.18,-20.11,-1.93,-6.0,21.85,26.23,28.92,0,7.07,0.24
dy_cut_4_n1_opt.xyz,Nucleus 14H :,-2.362407,1.374171,-0.606069,27.24,39.09,23.44,19.18,24.71,38.38,40.87,6.11,-6.96,-21.4,19.18,23.44,39.09,0,19.91,-0.57
dy_cut_4_n1_opt.xyz,Nucleus 15H :,-2.994305,1.712602,-1.420967,28.78,33.27,28.14,24.94,25.39,33.95,37.67,1.5,-7.69,-4.47,24.94,28.14,33.27,0,8.33,-0.23
dy_cut_4_n1_opt.xyz,Nucleus 20H :,-2.953949,1.118982,0.639514,29.56,25.77,29.61,33.31,24.01,27.97,39.23,-6.0,1.59,1.91,25.77,29.61,33.31,0,7.54,0.02
dy_cut_4_n1_opt.xyz,Nucleus 21H :,-2.19613,0.614052,1.703422,29.5,25.2,29.99,33.32,39.42,28.15,23.3,-6.2,1.51,2.32,25.2,29.99,33.32,0,8.12,0.18
dy_cut_4_n1_opt.xyz,Nucleus 22H :,-2.697062,0.37513,2.637713,30.23,36.08,29.33,25.29,42.51,23.3,19.51,-6.64,6.35,5.66,25.29,29.33,36.08,0,10.79,-0.25
dy_cut_4_n1_opt.xyz,Nucleus 0C :,-0.842389,0.36482,1.513776,154.64,184.18,134.75,144.99,253.02,239.85,230.85,-62.64,-111.3,-85.87,134.75,144.99,184.18,0,49.43,-0.59
dy_cut_4_n1_opt.xyz,Nucleus 3C :,-0.25064,-0.079215,2.310715,44.33,172.03,-59.38,20.33,235.78,256.13,257.27,-64.71,-314.78,-236.7,-59.38,20.33,172.03,0,231.41,-0.31
dy_cut_4_n1_opt.xyz,Nucleus 4C :,-4.290332,1.394221,0.739457,65.77,-30.05,74.41,152.96,267.59,259.64,241.8,-289.77,-191.73,-90.21,-30.05,74.41,152.96,0,183.01,0.14
dy_cut_4_n1_opt.xyz,Nucleus 6C :,-4.731343,0.563428,0.50569,60.86,-36.91,69.96,149.53,237.37,263.7,271.46,-301.99,-199.27,-88.7,-36.91,69.96,149.53,0,186.44,0.15
dy_cut_4_n1_opt.xyz,Nucleus 8C :,1.412151,0.05062,-0.95534,14.54,-86.53,112.5,17.66,220.67,254.6,287.87,-108.66,-340.81,-270.04,-86.53,17.66,112.5,0,199.03,0.05
dy_cut_4_n1_opt.xyz,Nucleus 9C :,-2.371462,-3.015441,-0.772538,68.74,-18.45,69.13,155.53,232.96,264.33,270.75,-284.61,-199.1,-78.12,-18.45,69.13,155.53,0,173.98,0.01
dy_cut_4_n1_opt.xyz,Nucleus 11C :,-2.191776,-1.586303,-0.323273,67.03,-28.44,75.76,153.77,267.35,258.79,240.33,-286.7,-190.33,-88.33,-28.44,75.76,153.77,0,182.21,0.14
dy_cut_4_n1_opt.xyz,Nucleus 16C :,-3.04136,-0.749616,-0.074178,159.51,192.86,154.9,130.76,254.45,233.52,228.52,-59.42,-80.73,-97.82,130.76,154.9,192.86,0,62.1,-0.22
dy_cut_4_n1_opt.xyz,Nucleus 17C :,-0.906636,-1.177962,-0.217598,-0.43,-109.72,7.45,100.98,267.07,265.52,242.03,-258.81,-375.99,-141.11,-109.72,7.45,100.98,0,210.7,0.11
dy_cut_4_n1_opt.xyz,Nucleus 13O :,-1.946295,-3.128491,-1.774623,244.11,288.66,268.89,174.77,405.22,373.6,368.05,-123.4,-96.29,-194.86,174.77,268.89,288.66,0,113.89,0.65
dy_cut_4_n1_opt.xyz,Nucleus 18O :,-1.811389,-3.676854,-0.105504,-157.25,-530.86,-145.22,204.32,442.81,402.27,408.42,-969.47,-551.85,-203.94,-530.86,-145.22,204.32,0,735.18,0.05
dy_cut_4_n1_opt.xyz,Nucleus 19O :,-3.425522,-3.322821,-0.792752,-294.67,-726.09,-167.47,9.54,441.5,402.13,424.23,-1164.21,-572.96,-414.71,-726.09,-167.47,9.54,0,735.63,0.52
dy_cut_4_n1_opt_disp_struct_0.xyz,Nucleus 1H :,1.214923,0.353932,0.077992,28.9,33.35,28.36,24.99,26.47,33.72,37.92,0.75,-7.57,-4.6,24.99,28.36,33.35,0,8.36,-0.19
dy_cut_4_n1_opt_disp_struct_0.xyz,Nucleus 2H :,1.55736,-0.457352,0.728851,28.98,34.93,26.21,25.81,44.95,25.79,22.73,-11.94,2.28,3.14,25.81,26.21,34.93,0,9.12,-0.91
dy_cut_4_n1_opt_disp_struct_0.xyz,Nucleus 5H :,1.823419,1.243652,0.293813,25.23,28.99,24.94,21.76,46.31,30.57,29.51,-21.64,-1.51,-7.56,21.76,24.94,28.99,0,7.23,-0.12
dy_cut_4_n1_opt_disp_struct_0.xyz,Nucleus 7H :,-0.242443,0.613981,0.279948,24.98,21.78,28.16,25.0,49.46,31.86,19.33,-25.36,-4.08,3.72,21.78,25.0,28.16,0,6.38,0.01
dy_cut_4_n1_opt_disp_struct_0.xyz,Nucleus 10H :,-1.009987,1.117947,-0.774111,25.45,22.2,28.15,26.01,49.57,31.52,16.74,-24.13,-3.63,6.29,22.2,26.01,28.15,0,5.95,0.28
dy_cut_4_n1_opt_disp_struct_0.xyz,Nucleus 12H :,-0.540898,1.251916,-1.746749,25.04,28.62,24.7,21.8,45.92,30.88,28.76,-21.44,-2.25,-6.76,21.8,24.7,28.62,0,6.82,-0.15
dy_cut_4_n1_opt_disp_struct_0.xyz,Nucleus 14H :,-2.362407,1.374171,-0.606069,27.37,38.94,23.92,19.26,23.9,38.78,36.33,6.53,-6.18,-17.23,19.26,23.92,38.94,0,19.68,-0.53
dy_cut_4_n1_opt_disp_struct_0.xyz,Nucleus 15H :,-2.994305,1.712602,-1.420967,28.9,33.41,28.28,25.02,26.2,34.0,38.37,0.93,-4.85,-7.93,25.02,28.28,33.41,0,8.39,-0.22
dy_cut_4_n1_opt_disp_struct_0.xyz,Nucleus 20H :,-2.953949,1.118982,0.639514,29.63,26.1,29.55,33.24,23.96,27.27,39.18,-6.02,1.9,2.59,26.1,29.55,33.24,0,7.14,-0.03
dy_cut_4_n1_opt_disp_struct_0.xyz,Nucleus 21H :,-2.19613,0.614052,1.703422,29.61,25.67,29.91,33.26,39.36,27.44,23.27,-6.18,1.95,2.99,25.67,29.91,33.26,0,7.59,0.12
dy_cut_4_n1_opt_disp_struct_0.xyz,Nucleus 22H :,-2.697062,0.37513,2.637713,30.48,36.19,29.41,25.83,42.42,22.62,18.7,-6.44,6.81,7.31,25.83,29.41,36.19,0,10.36,-0.31
dy_cut_4_n1_opt_disp_struct_0.xyz,Nucleus 0C :,-0.842389,0.36482,1.513776,156.78,185.15,136.08,149.12,253.1,241.47,231.76,-112.2,-61.13,-82.65,136.08,149.12,185.15,0,49.07,-0.47
dy_cut_4_n1_opt_disp_struct_0.xyz,Nucleus 3C :,-0.25064,-0.079215,2.310715,39.21,173.93,-70.21,13.91,236.53,258.22,259.48,-63.26,-327.97,-245.37,-70.21,13.91,173.93,0,244.14,-0.31
dy_cut_4_n1_opt_disp_struct_0.xyz,Nucleus 4C :,-4.290332,1.394221,0.739457,54.05,-48.34,56.77,153.72,242.94,259.06,266.14,-307.14,-208.18,-90.67,-48.34,56.77,153.72,0,202.06,0.04
dy_cut_4_n1_opt_disp_struct_0.xyz,Nucleus 6C :,-4.731343,0.563428,0.50569,53.74,-46.79,57.55,150.45,236.4,263.57,270.41,-311.47,-210.68,-87.01,-46.79,57.55,150.45,0,197.24,0.06
dy_cut_4_n1_opt_disp_struct_0.xyz,Nucleus 8C :,1.412151,0.05062,-0.95534,12.72,-91.39,113.35,16.2,220.53,256.87,282.47,-108.18,-347.38,-266.14,-91.39,16.2,113.35,0,204.74,0.05
dy_cut_4_n1_opt_disp_struct_0.xyz,Nucleus 9C :,-2.42455,-3.248629,-0.845372,61.17,-30.61,57.71,156.4,232.38,263.93,270.03,-296.12,-209.89,-76.83,-30.61,57.71,156.4,0,187.01,-0.06
dy_cut_4_n1_opt_disp_struct_0.xyz,Nucleus 11C :,-2.244864,-1.819491,-0.396107,55.63,-46.38,58.58,154.68,266.19,258.42,241.72,-304.31,-206.5,-88.64,-46.38,58.58,154.68,0,201.06,0.04
dy_cut_4_n1_opt_disp_struct_0.xyz,Nucleus 16C :,-3.094448,-0.982804,-0.147012,161.15,192.98,157.59,132.89,254.14,231.51,227.4,-58.56,-76.45,-94.58,132.89,157.59,192.98,0,60.09,-0.18
dy_cut_4_n1_opt_disp_struct_0.xyz,Nucleus 17C :,-0.959724,-1.411151,-0.290433,-2.42,-93.76,2.25,84.25,265.65,263.69,244.24,-358.28,-262.53,-160.04,-93.76,2.25,84.25,0,178.01,0.08
dy_cut_4_n1_opt_disp_struct_0.xyz,Nucleus 13O :,-1.999383,-3.36168,-1.847458,247.15,285.96,268.58,186.9,404.9,374.69,367.92,-96.55,-127.69,-181.82,186.9,268.58,285.96,0,99.06,0.65
dy_cut_4_n1_opt_disp_struct_0.xyz,Nucleus 18O :,-1.864477,-3.910042,-0.178338,-117.45,-429.33,-150.82,227.8,432.4,403.1,413.05,-859.48,-556.22,-185.19,-429.33,-150.82,227.8,0,657.13,-0.15
dy_cut_4_n1_opt_disp_struct_0.xyz,Nucleus 19O :,-3.47861,-3.556009,-0.865586,-223.14,-560.04,-177.18,67.81,401.52,434.28,424.9,-986.93,-586.12,-357.08,-560.04,-177.18,67.81,0,627.85,0.22
dy_cut_4_n1_opt_disp_struct_1.xyz,Nucleus 1H :,1.214923,0.353932,0.077992,29.01,33.54,28.46,25.02,27.23,33.66,38.61,0.2,-4.94,-7.72,25.02,28.46,33.54,0,8.52,-0.19
dy_cut_4_n1_opt_disp_struct_1.xyz,Nucleus 2H :,1.55736,-0.457352,0.728851,29.14,35.14,26.23,26.05,45.22,26.38,23.44,-12.23,1.89,2.72,26.05,26.23,35.14,0,9.09,-0.96
dy_cut_4_n1_opt_disp_struct_1.xyz,Nucleus 5H :,1.823419,1.243652,0.293813,24.8,28.72,23.99,21.68,46.41,30.9,29.67,-22.63,-1.95,-7.99,21.68,23.99,28.72,0,7.04,-0.35
dy_cut_4_n1_opt_disp_struct_1.xyz,Nucleus 7H :,-0.242443,0.613981,0.279948,24.64,27.93,21.69,24.29,49.53,31.15,18.65,-25.95,-3.55,4.09,21.69,24.29,27.93,0,6.24,-0.17
dy_cut_4_n1_opt_disp_struct_1.xyz,Nucleus 10H :,-1.009987,1.117947,-0.774111,25.01,22.09,27.81,25.14,49.69,30.81,16.09,-24.96,-3.22,6.64,22.09,25.14,27.81,0,5.72,0.07
dy_cut_4_n1_opt_disp_struct_1.xyz,Nucleus 12H :,-0.540898,1.251916,-1.746749,24.69,28.45,23.9,21.73,46.01,31.13,29.07,-22.26,-2.61,-7.26,21.73,23.9,28.45,0,6.72,-0.35
dy_cut_4_n1_opt_disp_struct_1.xyz,Nucleus 14H :,-2.362407,1.374171,-0.606069,27.53,38.97,24.21,19.42,23.34,38.67,32.87,6.84,-5.64,-13.49,19.42,24.21,38.97,0,19.55,-0.51
dy_cut_4_n1_opt_disp_struct_1.xyz,Nucleus 15H :,-2.994305,1.712602,-1.420967,28.99,33.54,28.38,25.04,27.0,33.88,39.09,0.32,-5.12,-8.21,25.04,28.38,33.54,0,8.5,-0.22
dy_cut_4_n1_opt_disp_struct_1.xyz,Nucleus 20H :,-2.953949,1.118982,0.639514,29.61,26.19,29.51,33.14,23.97,26.6,39.14,3.17,2.04,-6.08,26.19,29.51,33.14,0,6.95,-0.04
dy_cut_4_n1_opt_disp_struct_1.xyz,Nucleus 21H :,-2.19613,0.614052,1.703422,29.61,25.83,29.84,33.16,39.3,26.77,23.29,-6.21,2.22,3.47,25.83,29.84,33.16,0,7.33,0.09
dy_cut_4_n1_opt_disp_struct_1.xyz,Nucleus 22H :,-2.697062,0.37513,2.637713,30.55,36.19,29.39,26.08,42.26,22.05,17.84,-6.24,7.46,8.3,26.08,29.39,36.19,0,10.11,-0.34
dy_cut_4_n1_opt_disp_struct_1.xyz,Nucleus 0C :,-0.842389,0.36482,1.513776,158.21,185.99,136.97,151.67,253.54,242.51,233.19,-113.04,-60.05,-81.53,136.97,151.67,185.99,0,49.02,-0.4
dy_cut_4_n1_opt_disp_struct_1.xyz,Nucleus 3C :,-0.25064,-0.079215,2.310715,38.73,174.79,-71.41,12.81,236.74,258.93,259.98,-62.58,-329.95,-246.93,-71.41,12.81,174.79,0,246.2,-0.32
dy_cut_4_n1_opt_disp_struct_1.xyz,Nucleus 4C :,-4.290332,1.394221,0.739457,48.58,-57.27,48.44,154.57,243.48,259.29,265.77,-316.51,-215.85,-90.44,-57.27,48.44,154.57,0,211.84,-0.0
dy_cut_4_n1_opt_disp_struct_1.xyz,Nucleus 6C :,-4.731343,0.563428,0.50569,50.53,-51.12,51.49,151.22,234.76,263.95,269.43,-316.06,-215.63,-84.86,-51.12,51.49,151.22,0,202.34,0.01
dy_cut_4_n1_opt_disp_struct_1.xyz,Nucleus 8C :,1.412151,0.05062,-0.95534,13.44,-90.39,113.58,17.12,220.37,258.78,278.72,-108.59,-347.51,-261.46,-90.39,17.12,113.58,0,203.97,0.05
dy_cut_4_n1_opt_disp_struct_1.xyz,Nucleus 9C :,-2.477638,-3.481817,-0.918206,57.55,-36.45,51.96,157.13,231.35,264.11,269.34,-302.23,-214.7,-75.23,-36.45,51.96,157.13,0,193.58,-0.09
dy_cut_4_n1_opt_disp_struct_1.xyz,Nucleus 11C :,-2.297952,-2.052679,-0.468941,50.31,-54.99,50.36,155.57,242.49,258.68,265.85,-313.49,-214.12,-88.46,-54.99,50.36,155.57,0,210.56,0.0
dy_cut_4_n1_opt_disp_struct_1.xyz,Nucleus 16C :,-3.147536,-1.215992,-0.219846,161.88,192.79,159.11,133.75,253.74,229.86,226.33,-92.66,-73.55,-58.06,133.75,159.11,192.79,0,59.04,-0.14
dy_cut_4_n1_opt_disp_struct_1.xyz,Nucleus 17C :,-1.012812,-1.644339,-0.363267,-4.82,-90.44,1.06,74.92,264.55,262.59,247.01,-353.76,-262.7,-172.14,-90.44,1.06,74.92,0,165.36,0.11
dy_cut_4_n1_opt_disp_struct_1.xyz,Nucleus 13O :,-2.052471,-3.594868,-1.920292,249.07,285.06,267.71,194.45,404.18,375.94,366.9,-97.16,-129.59,-173.05,194.45,267.71,285.06,0,90.61,0.62
dy_cut_4_n1_opt_disp_struct_1.xyz,Nucleus 18O :,-1.917565,-4.14323,-0.251172,-88.47,-350.23,-156.73,241.56,426.06,403.11,411.38,-774.5,-561.68,-169.77,-350.23,-156.73,241.56,0,591.79,-0.35
dy_cut_4_n1_opt_disp_struct_1.xyz,Nucleus 19O :,-3.531699,-3.789198,-0.93842,-167.36,-443.39,-166.1,107.41,400.28,428.45,424.61,-857.88,-580.33,-317.22,-443.39,-166.1,107.41,0,550.8,0.01
dy_cut_4_n1_opt_disp_struct_10.xyz,Nucleus 1H :,1.214923,0.353932,0.077992,29.04,33.98,28.59,24.56,40.19,32.12,28.12,-0.35,-5.45,-7.48,24.56,28.59,33.98,0,9.42,-0.14
dy_cut_4_n1_opt_disp_struct_10.xyz,Nucleus 2H :,1.55736,-0.457352,0.728851,29.1,35.04,25.88,26.37,44.77,26.37,24.15,-11.61,1.38,2.23,25.88,26.37,35.04,0,9.16,-0.89
dy_cut_4_n1_opt_disp_struct_10.xyz,Nucleus 5H :,1.823419,1.243652,0.293813,24.08,28.49,22.56,21.19,46.38,31.62,29.46,-23.82,-3.14,-8.26,21.19,22.56,28.49,0,7.3,-0.62
dy_cut_4_n1_opt_disp_struct_10.xyz,Nucleus 7H :,-0.242443,0.613981,0.279948,23.99,27.77,22.65,21.56,48.72,30.0,18.48,-26.15,-2.27,3.22,21.56,22.65,27.77,0,6.21,-0.65
dy_cut_4_n1_opt_disp_struct_10.xyz,Nucleus 10H :,-1.009987,1.117947,-0.774111,24.24,27.5,23.48,21.73,49.0,29.72,16.04,-25.51,-2.28,5.74,21.73,23.48,27.5,0,5.77,-0.4
dy_cut_4_n1_opt_disp_struct_10.xyz,Nucleus 12H :,-0.540898,1.251916,-1.746749,24.09,28.36,22.73,21.18,46.0,31.81,28.92,-23.26,-3.47,-7.74,21.18,22.73,28.36,0,7.18,-0.57
dy_cut_4_n1_opt_disp_struct_10.xyz,Nucleus 14H :,-2.362407,1.374171,-0.606069,28.04,39.62,23.94,20.56,39.99,22.05,27.06,6.42,-4.86,-6.53,20.56,23.94,39.62,0,19.06,-0.65
dy_cut_4_n1_opt_disp_struct_10.xyz,Nucleus 15H :,-2.994305,1.712602,-1.420967,28.99,33.92,28.5,24.54,40.61,32.27,28.05,-0.36,-5.62,-7.99,24.54,28.5,33.92,0,9.38,-0.16
dy_cut_4_n1_opt_disp_struct_10.xyz,Nucleus 20H :,-2.953949,1.118982,0.639514,29.44,26.38,29.36,32.58,22.32,25.79,39.22,6.99,0.9,-6.9,26.38,29.36,32.58,0,6.2,-0.04
dy_cut_4_n1_opt_disp_struct_10.xyz,Nucleus 21H :,-2.19613,0.614052,1.703422,29.43,26.09,29.6,32.61,39.29,25.11,22.4,6.88,1.54,-6.92,26.09,29.6,32.61,0,6.52,0.08
dy_cut_4_n1_opt_disp_struct_10.xyz,Nucleus 22H :,-2.697062,0.37513,2.637713,30.5,35.62,29.26,26.61,41.69,20.54,11.98,-6.08,8.73,14.63,26.61,29.26,35.62,0,9.01,-0.41
dy_cut_4_n1_opt_disp_struct_10.xyz,Nucleus 0C :,-0.842389,0.36482,1.513776,160.61,187.43,138.71,155.68,252.43,244.8,236.56,-109.29,-61.8,-80.89,138.71,155.68,187.43,0,48.72,-0.3
dy_cut_4_n1_opt_disp_struct_10.xyz,Nucleus 3C :,-0.25064,-0.079215,2.310715,41.78,175.61,-64.56,14.29,236.28,260.68,264.7,-61.1,-324.83,-250.38,-64.56,14.29,175.61,0,240.17,-0.34
dy_cut_4_n1_opt_disp_struct_10.xyz,Nucleus 4C :,-4.290332,1.394221,0.739457,44.32,-63.39,39.41,156.95,243.95,269.13,260.91,-324.54,-229.29,-87.18,-63.39,39.41,156.95,0,220.34,-0.07
dy_cut_4_n1_opt_disp_struct_10.xyz,Nucleus 6C :,-4.731343,0.563428,0.50569,48.02,-52.83,43.32,153.56,232.93,265.14,269.46,-318.33,-225.62,-79.53,-52.83,43.32,153.56,0,206.39,-0.07
dy_cut_4_n1_opt_disp_struct_10.xyz,Nucleus 8C :,1.412151,0.05062,-0.95534,17.12,-83.56,113.53,21.39,221.76,261.53,273.78,-109.37,-344.02,-252.31,-83.56,21.39,113.53,0,197.09,0.06
dy_cut_4_n1_opt_disp_struct_10.xyz,Nucleus 9C :,-2.955433,-5.580513,-1.573714,53.93,-40.65,42.94,159.49,229.76,265.61,269.23,-306.88,-225.57,-70.36,-40.65,42.94,159.49,0,200.14,-0.16
dy_cut_4_n1_opt_disp_struct_10.xyz,Nucleus 11C :,-2.775747,-4.151375,-1.124449,46.2,-60.51,41.27,157.84,269.05,260.25,243.4,-320.89,-227.46,-85.77,-60.51,41.27,157.84,0,218.35,-0.07
dy_cut_4_n1_opt_disp_struct_10.xyz,Nucleus 16C :,-3.62533,-3.314688,-0.875354,162.6,191.15,161.77,134.88,252.17,227.42,224.92,-69.44,-57.11,-90.15,134.88,161.77,191.15,0,56.27,-0.04
dy_cut_4_n1_opt_disp_struct_10.xyz,Nucleus 17C :,-1.490607,-3.743035,-1.018775,-6.88,-95.06,7.29,67.14,257.59,264.66,268.46,-352.95,-257.26,-201.12,-95.06,7.29,67.14,0,162.2,0.26
dy_cut_4_n1_opt_disp_struct_10.xyz,Nucleus 13O :,-2.530266,-5.693563,-2.5758,247.63,282.75,259.94,200.2,403.84,375.58,363.31,-96.41,-139.22,-164.2,200.2,259.94,282.75,0,82.55,0.45
dy_cut_4_n1_opt_disp_struct_10.xyz,Nucleus 18O :,-2.39536,-6.241926,-0.90668,-61.19,-234.96,-186.46,237.84,428.04,398.85,398.08,-660.42,-587.89,-160.25,-234.96,-186.46,237.84,0,472.8,-0.79
dy_cut_4_n1_opt_disp_struct_10.xyz,Nucleus 19O :,-4.009493,-5.887893,-1.593928,-81.32,-327.8,-60.93,144.76,399.96,422.81,438.5,-730.95,-480.59,-293.7,-327.8,-60.93,144.76,0,472.56,0.13
dy_cut_4_n1_opt_disp_struct_11.xyz,Nucleus 1H :,1.214923,0.353932,0.077992,29.04,34.0,28.6,24.52,40.19,32.03,28.07,-0.31,-5.43,-7.42,24.52,28.6,34.0,0,9.48,-0.14
dy_cut_4_n1_opt_disp_struct_11.xyz,Nucleus 2H :,1.55736,-0.457352,0.728851,29.08,35.01,25.86,26.37,44.68,26.3,24.08,-11.51,1.39,2.29,25.86,26.37,35.01,0,9.15,-0.89
dy_cut_4_n1_opt_disp_struct_11.xyz,Nucleus 5H :,1.823419,1.243652,0.293813,24.07,28.5,22.56,21.14,46.31,31.61,29.39,-23.75,-3.12,-8.24,21.14,22.56,28.5,0,7.36,-0.62
dy_cut_4_n1_opt_disp_struct_11.xyz,Nucleus 7H :,-0.242443,0.613981,0.279948,23.98,27.78,22.62,21.54,48.62,30.01,18.51,-26.06,-2.28,3.14,21.54,22.62,27.78,0,6.24,-0.65
dy_cut_4_n1_opt_disp_struct_11.xyz,Nucleus 10H :,-1.009987,1.117947,-0.774111,24.22,27.5,23.47,21.7,48.89,29.73,16.06,-25.41,-2.29,5.67,21.7,23.47,27.5,0,5.8,-0.39
dy_cut_4_n1_opt_disp_struct_11.xyz,Nucleus 12H :,-0.540898,1.251916,-1.746749,24.07,28.36,22.73,21.13,45.94,31.8,28.85,-23.2,-3.44,-7.72,21.13,22.73,28.36,0,7.23,-0.56
dy_cut_4_n1_opt_disp_struct_11.xyz,Nucleus 14H :,-2.362407,1.374171,-0.606069,28.08,39.67,23.92,20.64,40.08,21.92,27.04,6.48,-4.86,-6.44,20.64,23.92,39.67,0,19.03,-0.66
dy_cut_4_n1_opt_disp_struct_11.xyz,Nucleus 15H :,-2.994305,1.712602,-1.420967,28.99,33.95,28.51,24.5,40.6,32.18,28.01,-0.31,-5.6,-7.92,24.5,28.51,33.95,0,9.45,-0.15
dy_cut_4_n1_opt_disp_struct_11.xyz,Nucleus 20H :,-2.953949,1.118982,0.639514,29.42,26.39,29.34,32.54,22.04,25.95,39.29,7.27,0.74,-7.02,26.39,29.34,32.54,0,6.15,-0.04
dy_cut_4_n1_opt_disp_struct_11.xyz,Nucleus 21H :,-2.19613,0.614052,1.703422,29.42,26.1,29.59,32.58,39.34,25.21,22.18,7.14,1.42,-7.02,26.1,29.59,32.58,0,6.48,0.08
dy_cut_4_n1_opt_disp_struct_11.xyz,Nucleus 22H :,-2.697062,0.37513,2.637713,30.49,35.58,29.26,26.63,41.72,20.46,11.52,-6.15,8.8,15.11,26.63,29.26,35.58,0,8.95,-0.41
dy_cut_4_n1_opt_disp_struct_11.xyz,Nucleus 0C :,-0.842389,0.36482,1.513776,160.64,187.47,138.71,155.75,252.46,244.7,236.62,-108.85,-62.12,-80.88,138.71,155.75,187.47,0,48.76,-0.3
dy_cut_4_n1_opt_disp_struct_11.xyz,Nucleus 3C :,-0.25064,-0.079215,2.310715,41.78,175.64,-64.42,14.11,236.3,260.87,265.12,-61.07,-324.91,-250.99,-64.42,14.11,175.64,0,240.06,-0.35
dy_cut_4_n1_opt_disp_struct_11.xyz,Nucleus 4C :,-4.290332,1.394221,0.739457,44.33,-63.33,39.29,157.03,269.43,260.86,243.82,-324.42,-229.74,-86.95,-63.33,39.29,157.03,0,220.36,-0.07
dy_cut_4_n1_opt_disp_struct_11.xyz,Nucleus 6C :,-4.731343,0.563428,0.50569,48.0,-52.78,43.12,153.65,232.92,265.09,269.63,-318.18,-226.08,-79.39,-52.78,43.12,153.65,0,206.43,-0.07
dy_cut_4_n1_opt_disp_struct_11.xyz,Nucleus 8C :,1.412151,0.05062,-0.95534,17.14,-83.49,113.51,21.41,221.91,261.57,273.91,-109.39,-344.14,-252.43,-83.49,21.41,113.51,0,197.0,0.07
dy_cut_4_n1_opt_disp_struct_11.xyz,Nucleus 9C :,-3.008521,-5.813701,-1.646548,53.88,-40.63,42.7,159.58,229.68,265.58,269.36,-306.74,-226.06,-70.16,-40.63,42.7,159.58,0,200.21,-0.17
dy_cut_4_n1_opt_disp_struct_11.xyz,Nucleus 11C :,-2.828835,-4.384563,-1.197283,46.2,-60.45,41.15,157.91,269.35,260.21,243.24,-320.78,-227.89,-85.52,-60.45,41.15,157.91,0,218.36,-0.07
dy_cut_4_n1_opt_disp_struct_11.xyz,Nucleus 16C :,-3.678419,-3.547876,-0.948188,162.59,191.08,161.86,134.83,252.22,227.72,225.46,-69.82,-57.06,-90.75,134.83,161.86,191.08,0,56.25,-0.04
dy_cut_4_n1_opt_disp_struct_11.xyz,Nucleus 17C :,-1.543695,-3.976223,-1.091609,-6.86,-95.25,7.51,67.16,257.3,264.74,270.46,-352.85,-257.08,-203.14,-95.25,7.51,67.16,0,162.41,0.27
dy_cut_4_n1_opt_disp_struct_11.xyz,Nucleus 13O :,-2.583354,-5.926752,-2.648634,247.26,282.72,259.29,199.78,403.92,375.08,363.24,-95.9,-139.94,-164.6,199.78,259.29,282.72,0,82.94,0.44
dy_cut_4_n1_opt_disp_struct_11.xyz,Nucleus 18O :,-2.448448,-6.475114,-0.979514,-61.8,-235.82,-187.44,237.87,428.79,398.81,397.58,-662.08,-588.78,-159.71,-235.82,-187.44,237.87,0,473.69,-0.8
dy_cut_4_n1_opt_disp_struct_11.xyz,Nucleus 19O :,-4.062581,-6.121081,-1.666762,-81.34,-328.36,-60.75,145.09,400.07,423.21,440.59,-732.09,-480.34,-295.46,-328.36,-60.75,145.09,0,473.45,0.13
dy_cut_4_n1_opt_disp_struct_12.xyz,Nucleus 1H :,1.214923,0.353932,0.077992,29.04,34.03,28.61,24.49,40.19,31.95,28.02,-0.26,-5.41,-7.37,24.49,28.61,34.03,0,9.54,-0.14
dy_cut_4_n1_opt_disp_struct_12.xyz,Nucleus 2H :,1.55736,-0.457352,0.728851,29.06,34.98,25.84,26.36,44.59,26.24,24.01,-11.41,1.4,2.35,25.84,26.36,34.98,0,9.14,-0.89
dy_cut_4_n1_opt_disp_struct_12.xyz,Nucleus 5H :,1.823419,1.243652,0.293813,24.05,28.5,22.56,21.09,46.25,31.59,29.33,-23.7,-3.09,-8.22,21.09,22.56,28.5,0,7.41,-0.6
dy_cut_4_n1_opt_disp_struct_12.xyz,Nucleus 7H :,-0.242443,0.613981,0.279948,23.97,27.78,22.6,21.52,48.54,30.0,18.53,-25.98,-2.27,3.08,21.52,22.6,27.78,0,6.26,-0.66
dy_cut_4_n1_opt_disp_struct_12.xyz,Nucleus 10H :,-1.009987,1.117947,-0.774111,24.2,27.5,23.45,21.66,48.8,29.73,16.08,-25.32,-2.28,5.61,21.66,23.45,27.5,0,5.84,-0.39
dy_cut_4_n1_opt_disp_struct_12.xyz,Nucleus 12H :,-0.540898,1.251916,-1.746749,24.06,28.37,22.73,21.08,45.88,31.77,28.79,-23.16,-3.41,-7.7,21.08,22.73,28.37,0,7.29,-0.55
dy_cut_4_n1_opt_disp_struct_12.xyz,Nucleus 14H :,-2.362407,1.374171,-0.606069,28.1,39.7,23.91,20.7,40.16,21.81,27.02,6.54,-4.86,-6.36,20.7,23.91,39.7,0,19.0,-0.66
dy_cut_4_n1_opt_disp_struct_12.xyz,Nucleus 15H :,-2.994305,1.712602,-1.420967,28.99,33.97,28.53,24.46,40.58,32.1,27.97,-0.27,-5.57,-7.85,24.46,28.53,33.97,0,9.51,-0.15
dy_cut_4_n1_opt_disp_struct_12.xyz,Nucleus 20H :,-2.953949,1.118982,0.639514,29.41,26.4,29.33,32.51,21.74,26.06,39.34,7.58,0.64,-7.12,26.4,29.33,32.51,0,6.11,-0.04
dy_cut_4_n1_opt_disp_struct_12.xyz,Nucleus 21H :,-2.19613,0.614052,1.703422,29.41,26.11,29.57,32.55,39.38,25.27,21.92,7.42,1.35,-7.11,26.11,29.57,32.55,0,6.44,0.07
dy_cut_4_n1_opt_disp_struct_12.xyz,Nucleus 22H :,-2.697062,0.37513,2.637713,30.48,35.54,29.25,26.64,41.74,20.36,11.06,-6.21,8.9,15.59,26.64,29.25,35.54,0,8.9,-0.41
dy_cut_4_n1_opt_disp_struct_12.xyz,Nucleus 0C :,-0.842389,0.36482,1.513776,160.67,187.5,138.71,155.8,252.52,244.56,236.66,-108.45,-62.41,-80.87,138.71,155.8,187.5,0,48.79,-0.3
dy_cut_4_n1_opt_disp_struct_12.xyz,Nucleus 3C :,-0.25064,-0.079215,2.310715,41.74,175.65,-64.33,13.91,236.32,261.01,265.47,-61.06,-324.98,-251.54,-64.33,13.91,175.65,0,239.98,-0.35
dy_cut_4_n1_opt_disp_struct_12.xyz,Nucleus 4C :,-4.290332,1.394221,0.739457,44.33,-63.28,39.19,157.09,269.68,260.81,243.7,-324.32,-230.1,-86.76,-63.28,39.19,157.09,0,220.37,-0.07
dy_cut_4_n1_opt_disp_struct_12.xyz,Nucleus 6C :,-4.731343,0.563428,0.50569,47.98,-52.75,42.95,153.73,232.91,265.04,269.77,-318.05,-226.45,-79.28,-52.75,42.95,153.73,0,206.48,-0.07
dy_cut_4_n1_opt_disp_struct_12.xyz,Nucleus 8C :,1.412151,0.05062,-0.95534,17.15,-83.44,113.51,21.39,222.02,261.62,274.01,-109.39,-344.25,-252.55,-83.44,21.39,113.51,0,196.95,0.06
dy_cut_4_n1_opt_disp_struct_12.xyz,Nucleus 9C :,-3.061609,-6.04689,-1.719382,53.85,-40.61,42.5,159.66,229.62,265.54,269.47,-306.61,-226.47,-70.01,-40.61,42.5,159.66,0,200.27,-0.17
dy_cut_4_n1_opt_disp_struct_12.xyz,Nucleus 11C :,-2.881923,-4.617752,-1.270118,46.2,-60.4,41.04,157.97,269.58,260.18,243.1,-320.69,-228.25,-85.31,-60.4,41.04,157.97,0,218.37,-0.07
dy_cut_4_n1_opt_disp_struct_12.xyz,Nucleus 16C :,-3.731507,-3.781064,-1.021022,162.59,191.01,161.95,134.8,252.27,227.81,225.76,-70.0,-57.0,-91.08,134.8,161.95,191.01,0,56.21,-0.03
dy_cut_4_n1_opt_disp_struct_12.xyz,Nucleus 17C :,-1.596783,-4.209411,-1.164443,-6.88,-95.44,7.67,67.12,257.06,264.87,272.62,-352.8,-257.03,-205.37,-95.44,7.67,67.12,0,162.56,0.27
dy_cut_4_n1_opt_disp_struct_12.xyz,Nucleus 13O :,-2.636442,-6.15994,-2.721468,246.95,282.62,258.77,199.46,404.0,374.64,363.19,-95.47,-140.58,-164.93,199.46,258.77,282.62,0,83.16,0.43
dy_cut_4_n1_opt_disp_struct_12.xyz,Nucleus 18O :,-2.501536,-6.708302,-1.052348,-62.34,-236.81,-188.24,238.04,429.44,398.78,397.21,-663.78,-589.48,-159.18,-236.81,-188.24,238.04,0,474.85,-0.8
dy_cut_4_n1_opt_disp_struct_12.xyz,Nucleus 19O :,-4.115669,-6.35427,-1.739597,-81.41,-328.93,-60.92,145.63,400.1,423.5,442.6,-733.1,-480.4,-296.92,-328.93,-60.92,145.63,0,474.56,0.13
dy_cut_4_n1_opt_disp_struct_13.xyz,Nucleus 1H :,1.214923,0.353932,0.077992,29.06,34.05,28.64,24.48,40.17,31.89,27.99,-0.2,-5.36,-7.31,24.48,28.64,34.05,0,9.57,-0.13
dy_cut_4_n1_opt_disp_struct_13.xyz,Nucleus 2H :,1.55736,-0.457352,0.728851,29.06,34.95,25.87,26.36,44.53,26.21,23.96,-11.3,1.39,2.4,25.87,26.36,34.95,0,9.08,-0.89
dy_cut_4_n1_opt_disp_struct_13.xyz,Nucleus 5H :,1.823419,1.243652,0.293813,24.05,28.51,22.57,21.07,46.19,31.57,29.28,-23.65,-3.07,-8.18,21.07,22.57,28.51,0,7.44,-0.6
dy_cut_4_n1_opt_disp_struct_13.xyz,Nucleus 7H :,-0.242443,0.613981,0.279948,23.95,27.8,22.58,21.47,48.47,30.01,18.51,-25.9,-2.26,3.01,21.47,22.58,27.8,0,6.33,-0.65
dy_cut_4_n1_opt_disp_struct_13.xyz,Nucleus 10H :,-1.009987,1.117947,-0.774111,24.19,27.52,23.45,21.6,48.72,29.75,16.07,-25.23,-2.28,5.55,21.6,23.45,27.52,0,5.92,-0.38
dy_cut_4_n1_opt_disp_struct_13.xyz,Nucleus 12H :,-0.540898,1.251916,-1.746749,24.06,28.38,22.73,21.07,45.83,31.74,28.74,-23.11,-3.37,-7.65,21.07,22.73,28.38,0,7.31,-0.55
dy_cut_4_n1_opt_disp_struct_13.xyz,Nucleus 14H :,-2.362407,1.374171,-0.606069,28.16,39.75,23.94,20.78,40.22,21.71,27.03,6.64,-4.86,-6.28,20.78,23.94,39.75,0,18.97,-0.67
dy_cut_4_n1_opt_disp_struct_13.xyz,Nucleus 15H :,-2.994305,1.712602,-1.420967,29.0,34.0,28.55,24.46,40.56,32.04,27.94,-0.22,-5.53,-7.78,24.46,28.55,34.0,0,9.54,-0.14
dy_cut_4_n1_opt_disp_struct_13.xyz,Nucleus 20H :,-2.953949,1.118982,0.639514,29.36,26.34,29.28,32.45,21.35,26.07,39.35,7.91,0.59,-7.2,26.34,29.28,32.45,0,6.11,-0.04
dy_cut_4_n1_opt_disp_struct_13.xyz,Nucleus 21H :,-2.19613,0.614052,1.703422,29.36,26.05,29.53,32.49,39.38,25.24,21.58,7.72,1.32,-7.18,26.05,29.53,32.49,0,6.44,0.08
dy_cut_4_n1_opt_disp_struct_13.xyz,Nucleus 22H :,-2.697062,0.37513,2.637713,30.44,35.49,29.2,26.62,41.73,20.2,10.55,-6.25,9.01,16.07,26.62,29.2,35.49,0,8.87,-0.42
dy_cut_4_n1_opt_disp_struct_13.xyz,Nucleus 0C :,-0.842389,0.36482,1.513776,160.71,187.37,138.93,155.82,252.53,244.47,236.65,-108.03,-62.66,-80.83,138.93,155.82,187.37,0,48.44,-0.3
dy_cut_4_n1_opt_disp_struct_13.xyz,Nucleus 3C :,-0.25064,-0.079215,2.310715,41.55,175.53,-64.31,13.43,236.29,261.07,265.58,-61.14,-325.03,-252.13,-64.31,13.43,175.53,0,239.84,-0.35
dy_cut_4_n1_opt_disp_struct_13.xyz,Nucleus 4C :,-4.290332,1.394221,0.739457,44.26,-63.27,38.87,157.19,269.77,260.78,243.62,-324.28,-230.52,-86.58,-63.27,38.87,157.19,0,220.46,-0.07
dy_cut_4_n1_opt_disp_struct_13.xyz,Nucleus 6C :,-4.731343,0.563428,0.50569,47.91,-52.71,42.63,153.81,232.87,265.01,269.81,-317.96,-226.86,-79.14,-52.71,42.63,153.81,0,206.52,-0.08
dy_cut_4_n1_opt_disp_struct_13.xyz,Nucleus 8C :,1.412151,0.05062,-0.95534,17.11,-83.44,113.54,21.22,222.03,261.64,274.01,-109.32,-344.33,-252.72,-83.44,21.22,113.54,0,196.98,0.06
dy_cut_4_n1_opt_disp_struct_13.xyz,Nucleus 9C :,-3.114697,-6.280078,-1.792216,53.79,-40.59,42.15,159.8,229.55,265.5,269.51,-306.51,-226.9,-69.79,-40.59,42.15,159.8,0,200.39,-0.17
dy_cut_4_n1_opt_disp_struct_13.xyz,Nucleus 11C :,-2.935011,-4.85094,-1.342952,46.14,-60.4,40.73,158.1,269.66,260.16,243.0,-320.67,-228.65,-85.08,-60.4,40.73,158.1,0,218.5,-0.07
dy_cut_4_n1_opt_disp_struct_13.xyz,Nucleus 16C :,-3.784595,-4.014253,-1.093857,162.35,190.9,161.74,134.4,252.26,227.5,225.46,-70.04,-56.96,-91.18,134.4,161.74,190.9,0,56.5,-0.03
dy_cut_4_n1_opt_disp_struct_13.xyz,Nucleus 17C :,-1.649871,-4.4426,-1.237277,-6.87,-95.59,7.88,67.11,256.88,265.15,274.93,-352.78,-257.08,-207.7,-95.59,7.88,67.11,0,162.7,0.27
dy_cut_4_n1_opt_disp_struct_13.xyz,Nucleus 13O :,-2.68953,-6.393128,-2.794302,246.68,282.55,258.14,199.35,404.04,374.41,363.15,-95.18,-141.32,-165.06,199.35,258.14,282.55,0,83.2,0.41
dy_cut_4_n1_opt_disp_struct_13.xyz,Nucleus 18O :,-2.554624,-6.941491,-1.125182,-62.78,-238.0,-189.01,238.67,429.87,398.71,397.71,-665.45,-590.14,-159.06,-238.0,-189.01,238.67,0,476.67,-0.79
dy_cut_4_n1_opt_disp_struct_13.xyz,Nucleus 19O :,-4.168758,-6.587458,-1.812431,-81.47,-329.24,-61.09,145.91,400.04,423.55,444.34,-733.6,-480.37,-298.37,-329.24,-61.09,145.91,0,475.15,0.13
dy_cut_4_n1_opt_disp_struct_14.xyz,Nucleus 1H :,1.214923,0.353932,0.077992,29.05,34.07,28.64,24.43,40.17,31.82,27.93,-0.17,-5.35,-7.26,24.43,28.64,34.07,0,9.64,-0.13
dy_cut_4_n1_opt_disp_struct_14.xyz,Nucleus 2H :,1.55736,-0.457352,0.728851,29.02,34.92,25.81,26.34,44.43,26.14,23.89,-11.24,1.4,2.45,25.81,26.34,34.92,0,9.11,-0.88
dy_cut_4_n1_opt_disp_struct_14.xyz,Nucleus 5H :,1.823419,1.243652,0.293813,24.03,28.52,22.57,21.01,46.14,31.55,29.23,-23.6,-3.04,-8.18,21.01,22.57,28.52,0,7.51,-0.58
dy_cut_4_n1_opt_disp_struct_14.xyz,Nucleus 7H :,-0.242443,0.613981,0.279948,23.94,27.79,22.57,21.47,48.4,29.99,18.55,-25.84,-2.25,2.98,21.47,22.57,27.79,0,6.32,-0.65
dy_cut_4_n1_opt_disp_struct_14.xyz,Nucleus 10H :,-1.009987,1.117947,-0.774111,24.18,27.51,23.44,21.59,48.64,29.73,16.11,-25.17,-2.28,5.51,21.59,23.44,27.51,0,5.92,-0.37
dy_cut_4_n1_opt_disp_struct_14.xyz,Nucleus 12H :,-0.540898,1.251916,-1.746749,24.04,28.39,22.73,21.0,45.78,31.72,28.69,-23.07,-3.34,-7.66,21.0,22.73,28.39,0,7.39,-0.53
dy_cut_4_n1_opt_disp_struct_14.xyz,Nucleus 14H :,-2.362407,1.374171,-0.606069,28.15,39.74,23.91,20.8,40.28,21.6,26.98,6.67,-4.86,-6.22,20.8,23.91,39.74,0,18.94,-0.67
dy_cut_4_n1_opt_disp_struct_14.xyz,Nucleus 15H :,-2.994305,1.712602,-1.420967,28.99,34.02,28.55,24.41,40.54,31.97,27.89,-0.18,-5.51,-7.72,24.41,28.55,34.02,0,9.61,-0.14
dy_cut_4_n1_opt_disp_struct_14.xyz,Nucleus 20H :,-2.953949,1.118982,0.639514,29.4,26.43,29.3,32.47,21.04,26.16,39.4,8.29,0.58,-7.27,26.43,29.3,32.47,0,6.04,-0.05
dy_cut_4_n1_opt_disp_struct_14.xyz,Nucleus 21H :,-2.19613,0.614052,1.703422,29.39,26.13,29.54,32.5,39.42,25.28,21.3,8.06,1.35,-7.24,26.13,29.54,32.5,0,6.37,0.07
dy_cut_4_n1_opt_disp_struct_14.xyz,Nucleus 22H :,-2.697062,0.37513,2.637713,30.46,35.48,29.23,26.67,41.75,20.08,10.07,-6.27,9.16,16.61,26.67,29.23,35.48,0,8.81,-0.42
dy_cut_4_n1_opt_disp_struct_14.xyz,Nucleus 0C :,-0.842389,0.36482,1.513776,160.7,187.54,138.7,155.86,252.68,244.22,236.69,-107.74,-62.92,-80.84,138.7,155.86,187.54,0,48.84,-0.3
dy_cut_4_n1_opt_disp_struct_14.xyz,Nucleus 3C :,-0.25064,-0.079215,2.310715,41.66,175.64,-64.21,13.56,236.33,261.15,266.03,-61.04,-325.03,-252.45,-64.21,13.56,175.64,0,239.85,-0.35
dy_cut_4_n1_opt_disp_struct_14.xyz,Nucleus 4C :,-4.290332,1.394221,0.739457,44.34,-63.2,39.03,157.19,270.06,260.75,243.51,-324.17,-230.66,-86.46,-63.2,39.03,157.19,0,220.39,-0.07
dy_cut_4_n1_opt_disp_struct_14.xyz,Nucleus 6C :,-4.731343,0.563428,0.50569,47.95,-52.69,42.7,153.85,232.91,264.95,269.99,-317.84,-227.03,-79.12,-52.69,42.7,153.85,0,206.54,-0.08
dy_cut_4_n1_opt_disp_struct_14.xyz,Nucleus 8C :,1.412151,0.05062,-0.95534,17.15,-83.37,113.51,21.31,222.14,261.68,274.11,-109.37,-344.38,-252.74,-83.37,21.31,113.51,0,196.88,0.06
dy_cut_4_n1_opt_disp_struct_14.xyz,Nucleus 9C :,-3.167786,-6.513266,-1.86505,53.8,-40.58,42.19,159.78,229.53,265.46,269.67,-306.4,-227.09,-69.77,-40.58,42.19,159.78,0,200.36,-0.17
dy_cut_4_n1_opt_disp_struct_14.xyz,Nucleus 11C :,-2.9881,-5.084128,-1.415786,46.21,-60.33,40.88,158.07,269.93,260.14,242.86,-320.57,-228.78,-84.96,-60.33,40.88,158.07,0,218.4,-0.07
dy_cut_4_n1_opt_disp_struct_14.xyz,Nucleus 16C :,-3.837683,-4.247441,-1.166691,162.57,190.89,162.07,134.74,252.32,227.41,225.57,-69.84,-56.8,-90.96,134.74,162.07,190.89,0,56.15,-0.03
dy_cut_4_n1_opt_disp_struct_14.xyz,Nucleus 17C :,-1.70296,-4.675788,-1.310111,-6.94,-95.73,7.87,67.03,256.71,265.31,277.26,-352.75,-257.23,-210.12,-95.73,7.87,67.03,0,162.76,0.27
dy_cut_4_n1_opt_disp_struct_14.xyz,Nucleus 13O :,-2.742619,-6.626317,-2.867136,246.4,282.39,257.92,198.88,404.17,373.87,363.12,-94.77,-141.68,-165.52,198.88,257.92,282.39,0,83.51,0.41
dy_cut_4_n1_opt_disp_struct_14.xyz,Nucleus 18O :,-2.607713,-7.174679,-1.198017,-63.25,-238.72,-189.45,238.43,430.44,398.71,397.28,-666.81,-590.51,-158.86,-238.72,-189.45,238.43,0,477.15,-0.79
dy_cut_4_n1_opt_disp_struct_14.xyz,Nucleus 19O :,-4.221846,-6.820647,-1.885265,-81.32,-329.46,-61.2,146.71,400.06,423.74,446.26,-734.13,-480.38,-299.49,-329.46,-61.2,146.71,0,476.17,0.13
dy_cut_4_n1_opt_disp_struct_15.xyz,Nucleus 1H :,1.214923,0.353932,0.077992,29.05,34.09,28.65,24.4,40.16,31.76,27.89,-0.12,-5.33,-7.22,24.4,28.65,34.09,0,9.69,-0.12
dy_cut_4_n1_opt_disp_struct_15.xyz,Nucleus 2H :,1.55736,-0.457352,0.728851,29.01,34.9,25.79,26.33,44.36,26.1,23.83,-11.16,1.4,2.5,25.79,26.33,34.9,0,9.11,-0.88
dy_cut_4_n1_opt_disp_struct_15.xyz,Nucleus 5H :,1.823419,1.243652,0.293813,24.02,28.52,22.58,20.97,46.09,31.53,29.19,-23.55,-3.02,-8.16,20.97,22.58,28.52,0,7.55,-0.57
dy_cut_4_n1_opt_disp_struct_15.xyz,Nucleus 7H :,-0.242443,0.613981,0.279948,23.94,27.8,22.57,21.46,48.34,29.99,18.56,-25.78,-2.24,2.95,21.46,22.57,27.8,0,6.34,-0.65
dy_cut_4_n1_opt_disp_struct_15.xyz,Nucleus 10H :,-1.009987,1.117947,-0.774111,24.18,27.52,23.44,21.57,48.58,29.73,16.12,-25.1,-2.27,5.47,21.57,23.44,27.52,0,5.95,-0.37
dy_cut_4_n1_opt_disp_struct_15.xyz,Nucleus 12H :,-0.540898,1.251916,-1.746749,24.03,28.39,22.74,20.97,45.74,31.69,28.65,-23.03,-3.31,-7.65,20.97,22.74,28.39,0,7.42,-0.52
dy_cut_4_n1_opt_disp_struct_15.xyz,Nucleus 14H :,-2.362407,1.374171,-0.606069,28.17,39.76,23.91,20.84,40.33,21.51,26.96,6.73,-4.86,-6.15,20.84,23.91,39.76,0,18.92,-0.68
dy_cut_4_n1_opt_disp_struct_15.xyz,Nucleus 15H :,-2.994305,1.712602,-1.420967,28.99,34.04,28.56,24.38,40.52,31.91,27.85,-0.14,-5.48,-7.66,24.38,28.56,34.04,0,9.66,-0.13
dy_cut_4_n1_opt_disp_struct_15.xyz,Nucleus 20H :,-2.953949,1.118982,0.639514,29.39,26.43,29.29,32.45,20.65,26.15,39.42,8.68,0.6,-7.33,26.43,29.29,32.45,0,6.02,-0.05
dy_cut_4_n1_opt_disp_struct_15.xyz,Nucleus 21H :,-2.19613,0.614052,1.703422,29.38,26.14,29.52,32.49,39.43,25.24,20.95,8.42,1.41,-7.28,26.14,29.52,32.49,0,6.35,0.07
dy_cut_4_n1_opt_disp_struct_15.xyz,Nucleus 22H :,-2.697062,0.37513,2.637713,30.46,35.46,29.23,26.68,41.73,19.91,9.55,-6.28,9.32,17.14,26.68,29.23,35.46,0,8.78,-0.42
dy_cut_4_n1_opt_disp_struct_15.xyz,Nucleus 0C :,-0.842389,0.36482,1.513776,160.71,187.57,138.68,155.88,252.78,244.05,236.7,-107.45,-63.13,-80.82,138.68,155.88,187.57,0,48.89,-0.3
dy_cut_4_n1_opt_disp_struct_15.xyz,Nucleus 3C :,-0.25064,-0.079215,2.310715,41.64,175.65,-64.16,13.42,236.32,261.18,266.25,-61.02,-325.01,-252.81,-64.16,13.42,175.65,0,239.81,-0.35
dy_cut_4_n1_opt_disp_struct_15.xyz,Nucleus 4C :,-4.290332,1.394221,0.739457,44.35,-63.17,38.98,157.23,270.2,260.73,243.43,-324.12,-230.86,-86.34,-63.17,38.98,157.23,0,220.4,-0.07
dy_cut_4_n1_opt_disp_struct_15.xyz,Nucleus 6C :,-4.731343,0.563428,0.50569,47.95,-52.66,42.6,153.9,232.92,264.91,270.08,-317.76,-227.24,-79.07,-52.66,42.6,153.9,0,206.56,-0.08
dy_cut_4_n1_opt_disp_struct_15.xyz,Nucleus 8C :,1.412151,0.05062,-0.95534,17.14,-83.35,113.5,21.27,222.18,261.71,274.14,-109.38,-344.43,-252.79,-83.35,21.27,113.5,0,196.85,0.06
dy_cut_4_n1_opt_disp_struct_15.xyz,Nucleus 9C :,-3.220874,-6.746455,-1.937885,53.78,-40.57,42.08,159.83,229.49,265.42,269.75,-306.31,-227.34,-69.68,-40.57,42.08,159.83,0,200.4,-0.18
dy_cut_4_n1_opt_disp_struct_15.xyz,Nucleus 11C :,-3.041188,-5.317317,-1.48862,46.21,-60.3,40.83,158.1,270.05,260.13,242.76,-320.52,-228.96,-84.82,-60.3,40.83,158.1,0,218.4,-0.07
dy_cut_4_n1_opt_disp_struct_15.xyz,Nucleus 16C :,-3.890772,-4.48063,-1.239525,162.55,190.84,162.1,134.71,252.3,226.98,225.12,-69.55,-56.66,-90.55,134.71,162.1,190.84,0,56.13,-0.02
dy_cut_4_n1_opt_disp_struct_15.xyz,Nucleus 17C :,-1.756048,-4.908976,-1.382945,-6.96,-95.84,7.93,67.03,256.58,265.61,279.65,-352.74,-257.46,-212.52,-95.84,7.93,67.03,0,162.87,0.27
dy_cut_4_n1_opt_disp_struct_15.xyz,Nucleus 13O :,-2.795707,-6.859505,-2.93997,246.13,282.32,257.53,198.54,404.26,373.54,363.08,-94.48,-142.16,-165.86,198.54,257.53,282.32,0,83.78,0.41
dy_cut_4_n1_opt_disp_struct_15.xyz,Nucleus 18O :,-2.660801,-7.407868,-1.270851,-63.59,-239.49,-189.89,238.62,430.79,398.67,397.92,-667.97,-590.86,-159.32,-239.49,-189.89,238.62,0,478.11,-0.79
dy_cut_4_n1_opt_disp_struct_15.xyz,Nucleus 19O :,-4.274934,-7.053835,-1.958099,-81.17,-329.48,-61.24,147.22,400.0,423.7,447.94,-734.24,-480.25,-300.66,-329.48,-61.24,147.22,0,476.7,0.13
dy_cut_4_n1_opt_disp_struct_16.xyz,Nucleus 1H :,1.214923,0.353932,0.077992,29.05,34.11,28.66,24.38,40.14,31.71,27.85,-0.08,-5.3,-7.17,24.38,28.66,34.11,0,9.73,-0.12
dy_cut_4_n1_opt_disp_struct_16.xyz,Nucleus 2H :,1.55736,-0.457352,0.728851,28.99,34.88,25.78,26.32,44.29,26.06,23.77,-11.09,1.4,2.54,25.78,26.32,34.88,0,9.1,-0.88
dy_cut_4_n1_opt_disp_struct_16.xyz,Nucleus 5H :,1.823419,1.243652,0.293813,24.02,28.53,22.58,20.94,46.05,31.51,29.15,-23.51,-3.0,-8.15,20.94,22.58,28.53,0,7.59,-0.57
dy_cut_4_n1_opt_disp_struct_16.xyz,Nucleus 7H :,-0.242443,0.613981,0.279948,23.93,27.8,22.56,21.44,48.29,29.98,18.56,-25.73,-2.23,2.92,21.44,22.56,27.8,0,6.36,-0.65
dy_cut_4_n1_opt_disp_struct_16.xyz,Nucleus 10H :,-1.009987,1.117947,-0.774111,24.17,27.52,23.44,21.54,48.52,29.73,16.12,-25.04,-2.26,5.44,21.54,23.44,27.52,0,5.98,-0.37
dy_cut_4_n1_opt_disp_struct_16.xyz,Nucleus 12H :,-0.540898,1.251916,-1.746749,24.03,28.4,22.74,20.94,45.71,31.67,28.62,-22.99,-3.29,-7.64,20.94,22.74,28.4,0,7.46,-0.52
dy_cut_4_n1_opt_disp_struct_16.xyz,Nucleus 14H :,-2.362407,1.374171,-0.606069,28.19,39.78,23.92,20.88,40.38,21.43,26.93,6.79,-4.87,-6.09,20.88,23.92,39.78,0,18.9,-0.68
dy_cut_4_n1_opt_disp_struct_16.xyz,Nucleus 15H :,-2.994305,1.712602,-1.420967,29.0,34.06,28.58,24.36,40.5,31.86,27.82,-0.1,-5.46,-7.61,24.36,28.58,34.06,0,9.7,-0.13
dy_cut_4_n1_opt_disp_struct_16.xyz,Nucleus 20H :,-2.953949,1.118982,0.639514,29.38,26.44,29.28,32.43,20.25,26.12,39.43,9.09,0.65,-7.38,26.44,29.28,32.43,0,5.99,-0.05
dy_cut_4_n1_opt_disp_struct_16.xyz,Nucleus 21H :,-2.19613,0.614052,1.703422,29.38,26.15,29.51,32.48,20.58,25.17,39.43,8.78,1.49,-7.32,26.15,29.51,32.48,0,6.33,0.06
dy_cut_4_n1_opt_disp_struct_16.xyz,Nucleus 22H :,-2.697062,0.37513,2.637713,30.45,35.44,29.22,26.7,41.72,19.72,9.02,-6.29,9.49,17.68,26.7,29.22,35.44,0,8.74,-0.42
dy_cut_4_n1_opt_disp_struct_16.xyz,Nucleus 0C :,-0.842389,0.36482,1.513776,160.72,187.59,138.66,155.9,252.87,243.88,236.7,-107.17,-63.32,-80.8,138.66,155.9,187.59,0,48.93,-0.3
dy_cut_4_n1_opt_disp_struct_16.xyz,Nucleus 3C :,-0.25064,-0.079215,2.310715,41.61,175.66,-64.13,13.29,236.31,261.2,266.44,-61.0,-325.0,-253.14,-64.13,13.29,175.66,0,239.79,-0.35
dy_cut_4_n1_opt_disp_struct_16.xyz,Nucleus 4C :,-4.290332,1.394221,0.739457,44.35,-63.14,38.93,157.26,270.32,260.72,243.36,-324.08,-231.03,-86.24,-63.14,38.93,157.26,0,220.4,-0.07
dy_cut_4_n1_opt_disp_struct_16.xyz,Nucleus 6C :,-4.731343,0.563428,0.50569,47.94,-52.64,42.52,153.94,232.92,264.87,270.16,-317.68,-227.43,-79.03,-52.64,42.52,153.94,0,206.58,-0.08
dy_cut_4_n1_opt_disp_struct_16.xyz,Nucleus 8C :,1.412151,0.05062,-0.95534,17.13,-83.34,113.5,21.24,222.2,261.73,274.15,-109.37,-344.47,-252.85,-83.34,21.24,113.5,0,196.84,0.06
dy_cut_4_n1_opt_disp_struct_16.xyz,Nucleus 9C :,-3.273962,-6.979643,-2.010719,53.77,-40.55,41.98,159.87,229.47,265.39,269.83,-306.23,-227.54,-69.61,-40.55,41.98,159.87,0,200.42,-0.18
dy_cut_4_n1_opt_disp_struct_16.xyz,Nucleus 11C :,-3.094276,-5.550505,-1.561454,46.22,-60.27,40.78,158.14,270.17,260.13,242.67,-320.49,-229.13,-84.7,-60.27,40.78,158.14,0,218.41,-0.07
dy_cut_4_n1_opt_disp_struct_16.xyz,Nucleus 16C :,-3.94386,-4.713818,-1.312359,162.54,190.79,162.12,134.7,252.28,226.5,224.59,-56.51,-69.22,-90.03,134.7,162.12,190.79,0,56.09,-0.02
dy_cut_4_n1_opt_disp_struct_16.xyz,Nucleus 17C :,-1.809136,-5.142165,-1.45578,-6.97,-95.94,7.99,67.03,256.49,265.93,282.07,-352.74,-257.72,-214.94,-95.94,7.99,67.03,0,162.97,0.28
dy_cut_4_n1_opt_disp_struct_16.xyz,Nucleus 13O :,-2.848795,-7.092694,-3.012805,245.9,282.23,257.2,198.27,404.34,373.24,363.05,-94.22,-142.58,-166.13,198.27,257.2,282.23,0,83.96,0.4
dy_cut_4_n1_opt_disp_struct_16.xyz,Nucleus 18O :,-2.713889,-7.641056,-1.343685,-63.88,-240.14,-190.27,238.76,431.1,398.57,398.84,-668.97,-591.16,-160.04,-240.14,-190.27,238.76,0,478.9,-0.79
dy_cut_4_n1_opt_disp_struct_16.xyz,Nucleus 19O :,-4.328023,-7.287023,-2.030933,-81.01,-329.41,-61.21,147.59,399.95,423.62,449.57,-734.22,-480.04,-301.92,-329.41,-61.21,147.59,0,477.0,0.12
dy_cut_4_n1_opt_disp_struct_17.xyz,Nucleus 1H :,1.214923,0.353932,0.077992,29.05,34.12,28.67,24.37,40.13,31.67,27.81,-0.04,-5.28,-7.13,24.37,28.67,34.12,0,9.75,-0.12
dy_cut_4_n1_opt_disp_struct_17.xyz,Nucleus 2H :,1.55736,-0.457352,0.728851,28.98,34.86,25.76,26.31,44.23,26.03,23.72,-11.03,1.39,2.58,25.76,26.31,34.86,0,9.1,-0.88
dy_cut_4_n1_opt_disp_struct_17.xyz,Nucleus 5H :,1.823419,1.243652,0.293813,24.01,28.53,22.58,20.92,46.01,31.49,29.12,-23.48,-2.97,-8.14,20.92,22.58,28.53,0,7.61,-0.56
dy_cut_4_n1_opt_disp_struct_17.xyz,Nucleus 7H :,-0.242443,0.613981,0.279948,23.93,27.8,22.56,21.42,48.24,29.97,18.57,-25.68,-2.21,2.89,21.42,22.56,27.8,0,6.38,-0.64
dy_cut_4_n1_opt_disp_struct_17.xyz,Nucleus 10H :,-1.009987,1.117947,-0.774111,24.16,27.52,23.44,21.52,48.46,29.72,16.13,-24.98,-2.26,5.41,21.52,23.44,27.52,0,6.0,-0.36
dy_cut_4_n1_opt_disp_struct_17.xyz,Nucleus 12H :,-0.540898,1.251916,-1.746749,24.02,28.4,22.75,20.91,45.67,31.64,28.59,-22.96,-3.26,-7.63,20.91,22.75,28.4,0,7.49,-0.51
dy_cut_4_n1_opt_disp_struct_17.xyz,Nucleus 14H :,-2.362407,1.374171,-0.606069,28.21,39.79,23.93,20.92,40.42,21.36,26.91,6.85,-4.87,-6.03,20.92,23.93,39.79,0,18.87,-0.68
dy_cut_4_n1_opt_disp_struct_17.xyz,Nucleus 15H :,-2.994305,1.712602,-1.420967,29.0,34.08,28.59,24.34,40.48,31.82,27.79,-0.07,-5.43,-7.56,24.34,28.59,34.08,0,9.74,-0.13
dy_cut_4_n1_opt_disp_struct_17.xyz,Nucleus 20H :,-2.953949,1.118982,0.639514,29.38,26.45,29.27,32.42,19.84,26.08,39.44,9.49,0.7,-7.42,26.45,29.27,32.42,0,5.97,-0.06
dy_cut_4_n1_opt_disp_struct_17.xyz,Nucleus 21H :,-2.19613,0.614052,1.703422,29.37,26.15,29.5,32.46,20.22,25.1,39.43,9.15,1.58,-7.36,26.15,29.5,32.46,0,6.31,0.06
dy_cut_4_n1_opt_disp_struct_17.xyz,Nucleus 22H :,-2.697062,0.37513,2.637713,30.45,35.42,29.21,26.71,41.71,19.54,8.49,-6.29,9.67,18.21,26.71,29.21,35.42,0,8.71,-0.43
dy_cut_4_n1_opt_disp_struct_17.xyz,Nucleus 0C :,-0.842389,0.36482,1.513776,160.72,187.61,138.64,155.92,252.96,243.72,236.69,-106.93,-63.5,-80.78,138.64,155.92,187.61,0,48.97,-0.29
dy_cut_4_n1_opt_disp_struct_17.xyz,Nucleus 3C :,-0.25064,-0.079215,2.310715,41.57,175.66,-64.11,13.16,236.31,261.2,266.61,-60.99,-324.98,-253.43,-64.11,13.16,175.66,0,239.77,-0.36
dy_cut_4_n1_opt_disp_struct_17.xyz,Nucleus 4C :,-4.290332,1.394221,0.739457,44.36,-63.11,38.89,157.29,270.43,260.72,243.3,-324.05,-231.18,-86.15,-63.11,38.89,157.29,0,220.4,-0.07
dy_cut_4_n1_opt_disp_struct_17.xyz,Nucleus 6C :,-4.731343,0.563428,0.50569,47.94,-52.62,42.46,153.97,232.93,264.84,270.23,-317.61,-227.59,-79.0,-52.62,42.46,153.97,0,206.59,-0.08
dy_cut_4_n1_opt_disp_struct_17.xyz,Nucleus 8C :,1.412151,0.05062,-0.95534,17.12,-83.33,113.5,21.2,222.22,261.75,274.16,-109.36,-344.51,-252.89,-83.33,21.2,113.5,0,196.83,0.06
dy_cut_4_n1_opt_disp_struct_17.xyz,Nucleus 9C :,-3.32705,-7.212831,-2.083553,53.75,-40.54,41.9,159.9,229.45,265.35,269.9,-306.16,-227.72,-69.55,-40.54,41.9,159.9,0,200.44,-0.18
dy_cut_4_n1_opt_disp_struct_17.xyz,Nucleus 11C :,-3.147365,-5.783693,-1.634288,46.22,-60.25,40.74,158.16,270.26,260.13,242.59,-320.47,-229.26,-84.59,-60.25,40.74,158.16,0,218.41,-0.08
dy_cut_4_n1_opt_disp_struct_17.xyz,Nucleus 16C :,-3.996948,-4.947006,-1.385193,162.53,190.75,162.14,134.69,252.26,225.99,224.01,-56.35,-68.88,-89.47,134.69,162.14,190.75,0,56.06,-0.02
dy_cut_4_n1_opt_disp_struct_17.xyz,Nucleus 17C :,-1.862224,-5.375353,-1.528614,-6.98,-96.03,8.05,67.03,256.41,266.26,284.5,-352.75,-258.0,-217.37,-96.03,8.05,67.03,0,163.06,0.28
dy_cut_4_n1_opt_disp_struct_17.xyz,Nucleus 13O :,-2.901883,-7.325882,-3.085639,245.69,282.15,256.9,198.01,404.41,372.97,363.0,-93.99,-142.96,-166.37,198.01,256.9,282.15,0,84.14,0.4
dy_cut_4_n1_opt_disp_struct_17.xyz,Nucleus 18O :,-2.766978,-7.874244,-1.416519,-64.14,-240.65,-190.61,238.84,431.39,398.57,399.76,-669.81,-591.42,-160.92,-240.65,-190.61,238.84,0,479.49,-0.79
dy_cut_4_n1_opt_disp_struct_17.xyz,Nucleus 19O :,-4.381111,-7.520212,-2.103767,-80.88,-329.32,-61.14,147.83,399.91,423.54,451.18,-734.18,-479.8,-303.29,-329.32,-61.14,147.83,0,477.15,0.12
dy_cut_4_n1_opt_disp_struct_18.xyz,Nucleus 1H :,1.214923,0.353932,0.077992,29.05,34.13,28.68,24.35,40.11,31.63,27.78,-0.0,-5.26,-7.1,24.35,28.68,34.13,0,9.78,-0.11
dy_cut_4_n1_opt_disp_struct_18.xyz,Nucleus 2H :,1.55736,-0.457352,0.728851,28.96,34.84,25.75,26.3,44.17,26.0,23.67,-10.98,1.39,2.62,25.75,26.3,34.84,0,9.09,-0.88
dy_cut_4_n1_opt_disp_struct_18.xyz,Nucleus 5H :,1.823419,1.243652,0.293813,24.01,28.54,22.59,20.9,45.98,31.48,29.09,-23.44,-2.95,-8.13,20.9,22.59,28.54,0,7.64,-0.56
dy_cut_4_n1_opt_disp_struct_18.xyz,Nucleus 7H :,-0.242443,0.613981,0.279948,23.92,27.8,22.56,21.4,48.19,29.96,18.57,-25.63,-2.2,2.87,21.4,22.56,27.8,0,6.4,-0.64
dy_cut_4_n1_opt_disp_struct_18.xyz,Nucleus 10H :,-1.009987,1.117947,-0.774111,24.15,27.52,23.44,21.5,48.41,29.72,16.13,-24.93,-2.25,5.38,21.5,23.44,27.52,0,6.02,-0.35
dy_cut_4_n1_opt_disp_struct_18.xyz,Nucleus 12H :,-0.540898,1.251916,-1.746749,24.01,28.4,22.75,20.89,45.64,31.62,28.56,-22.93,-3.23,-7.62,20.89,22.75,28.4,0,7.51,-0.5
dy_cut_4_n1_opt_disp_struct_18.xyz,Nucleus 14H :,-2.362407,1.374171,-0.606069,28.23,39.8,23.94,20.95,40.45,21.3,26.88,6.9,-4.87,-5.97,20.95,23.94,39.8,0,18.85,-0.68
dy_cut_4_n1_opt_disp_struct_18.xyz,Nucleus 15H :,-2.994305,1.712602,-1.420967,29.01,34.09,28.6,24.33,40.45,31.78,27.75,-0.03,-5.41,-7.52,24.33,28.6,34.09,0,9.76,-0.13
dy_cut_4_n1_opt_disp_struct_18.xyz,Nucleus 20H :,-2.953949,1.118982,0.639514,29.37,26.45,29.26,32.41,19.43,26.04,39.45,9.91,0.76,-7.47,26.45,29.26,32.41,0,5.96,-0.06
dy_cut_4_n1_opt_disp_struct_18.xyz,Nucleus 21H :,-2.19613,0.614052,1.703422,29.37,26.16,29.49,32.46,19.85,25.03,39.44,9.52,1.67,-7.4,26.16,29.49,32.46,0,6.3,0.06
dy_cut_4_n1_opt_disp_struct_18.xyz,Nucleus 22H :,-2.697062,0.37513,2.637713,30.44,35.4,29.2,26.71,41.7,19.35,7.97,-6.3,9.86,18.75,26.71,29.2,35.4,0,8.69,-0.43
dy_cut_4_n1_opt_disp_struct_18.xyz,Nucleus 0C :,-0.842389,0.36482,1.513776,160.72,187.62,138.62,155.93,253.05,243.56,236.69,-106.7,-63.65,-80.76,138.62,155.93,187.62,0,49.0,-0.29
dy_cut_4_n1_opt_disp_struct_18.xyz,Nucleus 3C :,-0.25064,-0.079215,2.310715,41.54,175.66,-64.09,13.05,236.3,261.2,266.75,-60.98,-324.96,-253.69,-64.09,13.05,175.66,0,239.75,-0.36
dy_cut_4_n1_opt_disp_struct_18.xyz,Nucleus 4C :,-4.290332,1.394221,0.739457,44.36,-63.09,38.86,157.31,270.52,260.71,243.25,-324.02,-231.3,-86.08,-63.09,38.86,157.31,0,220.4,-0.07
dy_cut_4_n1_opt_disp_struct_18.xyz,Nucleus 6C :,-4.731343,0.563428,0.50569,47.93,-52.61,42.4,154.0,232.94,264.81,270.29,-317.55,-227.72,-78.97,-52.61,42.4,154.0,0,206.61,-0.08
dy_cut_4_n1_opt_disp_struct_18.xyz,Nucleus 8C :,1.412151,0.05062,-0.95534,17.11,-83.32,113.49,21.16,222.23,261.77,274.15,-109.35,-344.54,-252.92,-83.32,21.16,113.49,0,196.81,0.06
dy_cut_4_n1_opt_disp_struct_18.xyz,Nucleus 9C :,-3.380139,-7.44602,-2.156387,53.74,-40.53,41.83,159.93,229.43,269.95,265.32,-306.09,-227.87,-69.5,-40.53,41.83,159.93,0,200.46,-0.18
dy_cut_4_n1_opt_disp_struct_18.xyz,Nucleus 11C :,-3.200453,-6.016882,-1.707123,46.22,-60.23,40.71,158.18,270.34,260.13,242.53,-320.44,-229.38,-84.5,-60.23,40.71,158.18,0,218.41,-0.08
dy_cut_4_n1_opt_disp_struct_18.xyz,Nucleus 16C :,-4.050037,-5.180195,-1.458027,162.51,190.71,162.15,134.68,252.25,225.46,223.4,-56.16,-68.54,-88.87,134.68,162.15,190.71,0,56.03,-0.02
dy_cut_4_n1_opt_disp_struct_18.xyz,Nucleus 17C :,-1.915313,-5.608542,-1.601448,-6.99,-96.11,8.1,67.04,256.34,266.6,286.93,-352.76,-258.29,-219.8,-96.11,8.1,67.04,0,163.15,0.28
dy_cut_4_n1_opt_disp_struct_18.xyz,Nucleus 13O :,-2.954972,-7.55907,-3.158473,245.49,282.07,256.63,197.78,404.47,372.72,362.96,-93.78,-143.29,-166.59,197.78,256.63,282.07,0,84.29,0.4
dy_cut_4_n1_opt_disp_struct_18.xyz,Nucleus 18O :,-2.820066,-8.107433,-1.489353,-64.35,-241.04,-190.9,238.89,431.66,398.56,400.78,-670.52,-591.64,-161.89,-241.04,-190.9,238.89,0,479.93,-0.79
dy_cut_4_n1_opt_disp_struct_18.xyz,Nucleus 19O :,-4.434199,-7.7534,-2.176602,-80.77,-329.23,-61.06,147.99,399.87,423.46,452.78,-734.11,-479.57,-304.73,-329.23,-61.06,147.99,0,477.22,0.12
dy_cut_4_n1_opt_disp_struct_19.xyz,Nucleus 1H :,1.214923,0.353932,0.077992,29.06,34.15,28.69,24.34,40.1,31.59,27.74,0.04,-5.24,-7.06,24.34,28.69,34.15,0,9.81,-0.11
dy_cut_4_n1_opt_disp_struct_19.xyz,Nucleus 2H :,1.55736,-0.457352,0.728851,28.95,34.82,25.74,26.29,44.12,25.97,23.62,-10.92,1.39,2.66,25.74,26.29,34.82,0,9.08,-0.88
dy_cut_4_n1_opt_disp_struct_19.xyz,Nucleus 5H :,1.823419,1.243652,0.293813,24.0,28.54,22.59,20.88,45.94,31.46,29.06,-23.4,-2.93,-8.12,20.88,22.59,28.54,0,7.66,-0.55
dy_cut_4_n1_opt_disp_struct_19.xyz,Nucleus 7H :,-0.242443,0.613981,0.279948,23.92,27.81,22.56,21.38,48.15,29.95,18.57,-25.58,-2.19,2.85,21.38,22.56,27.81,0,6.43,-0.63
dy_cut_4_n1_opt_disp_struct_19.xyz,Nucleus 10H :,-1.009987,1.117947,-0.774111,24.15,27.52,23.44,21.48,48.36,29.71,16.14,-24.88,-2.24,5.36,21.48,23.44,27.52,0,6.04,-0.35
dy_cut_4_n1_opt_disp_struct_19.xyz,Nucleus 12H :,-0.540898,1.251916,-1.746749,24.01,28.41,22.75,20.87,45.61,31.59,28.54,-22.9,-3.21,-7.61,20.87,22.75,28.41,0,7.54,-0.5
dy_cut_4_n1_opt_disp_struct_19.xyz,Nucleus 14H :,-2.362407,1.374171,-0.606069,28.25,39.81,23.95,20.98,40.48,21.24,26.84,6.95,-4.87,-5.91,20.98,23.95,39.81,0,18.83,-0.69
dy_cut_4_n1_opt_disp_struct_19.xyz,Nucleus 15H :,-2.994305,1.712602,-1.420967,29.01,34.11,28.61,24.32,40.43,31.74,27.72,0.0,-5.38,-7.48,24.32,28.61,34.11,0,9.79,-0.12
dy_cut_4_n1_opt_disp_struct_19.xyz,Nucleus 20H :,-2.953949,1.118982,0.639514,29.36,26.45,29.24,32.4,19.03,25.99,39.47,10.31,0.82,-7.52,26.45,29.24,32.4,0,5.95,-0.06
dy_cut_4_n1_opt_disp_struct_19.xyz,Nucleus 21H :,-2.19613,0.614052,1.703422,29.36,26.16,29.47,32.45,19.48,24.95,39.45,9.89,1.76,-7.45,26.16,29.47,32.45,0,6.29,0.05
dy_cut_4_n1_opt_disp_struct_19.xyz,Nucleus 22H :,-2.697062,0.37513,2.637713,30.43,35.38,29.2,26.72,41.7,19.15,7.44,-6.32,10.05,19.28,26.72,29.2,35.38,0,8.66,-0.43
dy_cut_4_n1_opt_disp_struct_19.xyz,Nucleus 0C :,-0.842389,0.36482,1.513776,160.72,187.63,138.6,155.94,253.13,243.41,236.68,-106.5,-63.8,-80.74,138.6,155.94,187.63,0,49.03,-0.29
dy_cut_4_n1_opt_disp_struct_19.xyz,Nucleus 3C :,-0.25064,-0.079215,2.310715,41.51,175.66,-64.07,12.95,236.29,261.2,266.88,-60.97,-324.95,-253.92,-64.07,12.95,175.66,0,239.73,-0.36
dy_cut_4_n1_opt_disp_struct_19.xyz,Nucleus 4C :,-4.290332,1.394221,0.739457,44.37,-63.07,38.84,157.33,270.6,260.7,243.2,-323.99,-231.41,-86.01,-63.07,38.84,157.33,0,220.4,-0.08
dy_cut_4_n1_opt_disp_struct_19.xyz,Nucleus 6C :,-4.731343,0.563428,0.50569,47.93,-52.59,42.35,154.03,232.94,264.77,270.34,-317.49,-227.84,-78.95,-52.59,42.35,154.03,0,206.62,-0.08
dy_cut_4_n1_opt_disp_struct_19.xyz,Nucleus 8C :,1.412151,0.05062,-0.95534,17.1,-83.31,113.49,21.13,222.24,261.78,274.15,-109.35,-344.56,-252.95,-83.31,21.13,113.49,0,196.8,0.06
dy_cut_4_n1_opt_disp_struct_19.xyz,Nucleus 9C :,-3.433227,-7.679208,-2.229221,53.74,-40.52,41.78,159.96,229.41,270.01,265.28,-306.03,-228.0,-69.46,-40.52,41.78,159.96,0,200.48,-0.18
dy_cut_4_n1_opt_disp_struct_19.xyz,Nucleus 11C :,-3.253541,-6.25007,-1.779957,46.23,-60.21,40.69,158.2,270.41,260.13,242.47,-320.42,-229.48,-84.42,-60.21,40.69,158.2,0,218.41,-0.08
dy_cut_4_n1_opt_disp_struct_19.xyz,Nucleus 16C :,-4.103125,-5.413383,-1.530862,162.51,190.67,162.17,134.68,252.24,224.94,222.8,-55.97,-68.21,-88.27,134.68,162.17,190.67,0,55.99,-0.02
dy_cut_4_n1_opt_disp_struct_19.xyz,Nucleus 17C :,-1.968401,-5.84173,-1.674282,-7.0,-96.18,8.14,67.05,256.28,266.94,289.37,-352.77,-258.58,-222.23,-96.18,8.14,67.05,0,163.23,0.28
dy_cut_4_n1_opt_disp_struct_19.xyz,Nucleus 13O :,-3.00806,-7.792259,-3.231307,245.32,281.99,256.39,197.57,404.53,372.49,362.91,-93.59,-143.6,-166.79,197.57,256.39,281.99,0,84.42,0.39
dy_cut_4_n1_opt_disp_struct_19.xyz,Nucleus 18O :,-2.873154,-8.340621,-1.562188,-64.52,-241.34,-191.15,238.92,431.93,398.55,401.82,-671.13,-591.84,-162.89,-241.34,-191.15,238.92,0,480.26,-0.79
dy_cut_4_n1_opt_disp_struct_19.xyz,Nucleus 19O :,-4.487287,-7.986588,-2.249436,-80.68,-329.14,-60.99,148.1,399.84,423.39,454.37,-734.06,-479.35,-306.21,-329.14,-60.99,148.1,0,477.24,0.12
dy_cut_4_n1_opt_disp_struct_2.xyz,Nucleus 1H :,1.214923,0.353932,0.077992,29.06,33.67,28.52,25.0,39.18,33.49,27.78,-0.21,-5.19,-7.87,25.0,28.52,33.67,0,8.67,-0.19
dy_cut_4_n1_opt_disp_struct_2.xyz,Nucleus 2H :,1.55736,-0.457352,0.728851,29.21,35.25,26.08,26.3,45.37,26.71,23.96,-12.4,1.65,2.32,26.08,26.3,35.25,0,9.17,-0.95
dy_cut_4_n1_opt_disp_struct_2.xyz,Nucleus 5H :,1.823419,1.243652,0.293813,24.55,28.58,23.44,21.63,46.57,31.16,29.81,-23.27,-2.35,-8.27,21.63,23.44,28.58,0,6.95,-0.48
dy_cut_4_n1_opt_disp_struct_2.xyz,Nucleus 7H :,-0.242443,0.613981,0.279948,24.43,27.82,21.64,23.83,49.56,30.53,18.22,-26.34,-2.98,4.29,21.64,23.83,27.82,0,6.18,-0.29
dy_cut_4_n1_opt_disp_struct_2.xyz,Nucleus 10H :,-1.009987,1.117947,-0.774111,24.75,27.64,22.02,24.6,49.77,30.2,15.78,-25.5,-2.74,6.74,22.02,24.6,27.64,0,5.62,-0.08
dy_cut_4_n1_opt_disp_struct_2.xyz,Nucleus 12H :,-0.540898,1.251916,-1.746749,24.5,28.37,23.46,21.68,46.16,31.35,29.29,-22.79,-2.9,-7.61,21.68,23.46,28.37,0,6.69,-0.47
dy_cut_4_n1_opt_disp_struct_2.xyz,Nucleus 14H :,-2.362407,1.374171,-0.606069,27.65,39.04,24.3,19.61,38.73,22.99,30.28,6.97,-5.32,-10.7,19.61,24.3,39.04,0,19.43,-0.52
dy_cut_4_n1_opt_disp_struct_2.xyz,Nucleus 15H :,-2.994305,1.712602,-1.420967,29.02,33.63,28.43,25.01,27.59,33.7,39.67,-0.12,-5.36,-8.42,25.01,28.43,33.63,0,8.62,-0.21
dy_cut_4_n1_opt_disp_struct_2.xyz,Nucleus 20H :,-2.953949,1.118982,0.639514,29.59,26.22,29.49,33.05,26.04,24.03,39.12,3.71,2.02,-6.16,26.22,29.49,33.05,0,6.83,-0.04
dy_cut_4_n1_opt_disp_struct_2.xyz,Nucleus 21H :,-2.19613,0.614052,1.703422,29.58,25.89,29.79,33.06,39.25,26.22,23.33,3.92,2.3,-6.27,25.89,29.79,33.06,0,7.17,0.09
dy_cut_4_n1_opt_disp_struct_2.xyz,Nucleus 22H :,-2.697062,0.37513,2.637713,30.58,36.14,29.36,26.24,42.1,21.64,17.08,-6.09,7.83,9.19,26.24,29.36,36.14,0,9.9,-0.37
dy_cut_4_n1_opt_disp_struct_2.xyz,Nucleus 0C :,-0.842389,0.36482,1.513776,159.07,186.51,137.55,153.16,253.82,243.15,234.38,-113.39,-59.51,-81.23,137.55,153.16,186.51,0,48.96,-0.36
dy_cut_4_n1_opt_disp_struct_2.xyz,Nucleus 3C :,-0.25064,-0.079215,2.310715,39.46,175.16,-70.1,13.32,236.64,259.09,260.06,-62.13,-328.77,-246.52,-70.1,13.32,175.16,0,245.26,-0.32
dy_cut_4_n1_opt_disp_struct_2.xyz,Nucleus 4C :,-4.290332,1.394221,0.739457,46.13,-61.25,44.42,155.21,243.92,259.83,265.86,-321.2,-219.83,-90.19,-61.25,44.42,155.21,0,216.46,-0.02
dy_cut_4_n1_opt_disp_struct_2.xyz,Nucleus 6C :,-4.731343,0.563428,0.50569,49.12,-52.83,48.4,151.8,233.58,264.35,268.73,-318.07,-217.96,-83.25,-52.83,48.4,151.8,0,204.63,-0.01
dy_cut_4_n1_opt_disp_struct_2.xyz,Nucleus 8C :,1.412151,0.05062,-0.95534,14.55,-88.39,113.62,18.41,220.44,260.13,276.15,-109.24,-346.23,-257.6,-88.39,18.41,113.62,0,202.01,0.06
dy_cut_4_n1_opt_disp_struct_2.xyz,Nucleus 9C :,-2.530727,-3.715006,-0.99104,55.83,-39.09,48.89,157.7,230.67,264.4,268.86,-305.25,-217.12,-74.05,-39.09,48.89,157.7,0,196.79,-0.11
dy_cut_4_n1_opt_disp_struct_2.xyz,Nucleus 11C :,-2.351041,-2.285868,-0.541776,47.92,-58.75,46.32,156.2,243.1,259.18,265.92,-317.95,-218.11,-88.37,-58.75,46.32,156.2,0,214.95,-0.02
dy_cut_4_n1_opt_disp_struct_2.xyz,Nucleus 16C :,-3.200624,-1.449181,-0.292681,162.23,192.55,159.98,134.16,253.37,228.63,225.45,-91.37,-71.69,-57.7,134.16,159.98,192.55,0,58.39,-0.12
dy_cut_4_n1_opt_disp_struct_2.xyz,Nucleus 17C :,-1.065901,-1.877528,-0.436101,-6.1,-90.32,1.67,70.35,250.26,263.76,261.99,-352.68,-261.65,-179.97,-90.32,1.67,70.35,0,160.67,0.15
dy_cut_4_n1_opt_disp_struct_2.xyz,Nucleus 13O :,-2.105559,-3.828056,-1.993126,249.99,284.49,266.89,198.6,403.5,376.86,365.74,-97.75,-130.66,-167.71,198.6,266.89,284.49,0,85.89,0.59
dy_cut_4_n1_opt_disp_struct_2.xyz,Nucleus 18O :,-1.970654,-4.376419,-0.324006,-71.18,-298.24,-162.41,247.12,423.25,402.67,406.28,-719.84,-566.86,-159.04,-298.24,-162.41,247.12,0,545.36,-0.5
dy_cut_4_n1_opt_disp_struct_2.xyz,Nucleus 19O :,-3.584787,-4.022386,-1.011255,-129.73,-380.04,-138.76,129.6,399.31,424.44,425.39,-785.6,-557.39,-295.35,-380.04,-138.76,129.6,0,509.64,-0.05
dy_cut_4_n1_opt_disp_struct_3.xyz,Nucleus 1H :,1.214923,0.353932,0.077992,29.08,33.74,28.54,24.95,39.58,33.29,28.11,-0.44,-5.37,-7.93,24.95,28.54,33.74,0,8.79,-0.18
dy_cut_4_n1_opt_disp_struct_3.xyz,Nucleus 2H :,1.55736,-0.457352,0.728851,29.23,35.28,26.06,26.34,45.4,26.84,24.27,-12.43,1.51,2.08,26.06,26.34,35.28,0,9.22,-0.94
dy_cut_4_n1_opt_disp_struct_3.xyz,Nucleus 5H :,1.823419,1.243652,0.293813,24.4,28.5,23.11,21.59,46.67,31.31,29.91,-23.63,-2.64,-8.41,21.59,23.11,28.5,0,6.91,-0.56
dy_cut_4_n1_opt_disp_struct_3.xyz,Nucleus 7H :,-0.242443,0.613981,0.279948,24.29,27.76,21.61,23.51,49.53,30.11,18.01,-26.53,-2.56,4.32,21.61,23.51,27.76,0,6.15,-0.38
dy_cut_4_n1_opt_disp_struct_3.xyz,Nucleus 10H :,-1.009987,1.117947,-0.774111,24.58,27.54,24.24,21.97,49.78,29.81,15.66,-25.78,-2.4,6.68,21.97,24.24,27.54,0,5.57,-0.18
dy_cut_4_n1_opt_disp_struct_3.xyz,Nucleus 12H :,-0.540898,1.251916,-1.746749,24.38,28.32,23.19,21.62,46.26,31.48,29.39,-23.09,-3.11,-7.79,21.62,23.19,28.32,0,6.7,-0.53
dy_cut_4_n1_opt_disp_struct_3.xyz,Nucleus 14H :,-2.362407,1.374171,-0.606069,27.73,39.13,24.29,19.76,38.86,22.8,28.66,6.91,-5.12,-8.93,19.76,24.29,39.13,0,19.37,-0.53
dy_cut_4_n1_opt_disp_struct_3.xyz,Nucleus 15H :,-2.994305,1.712602,-1.420967,29.03,33.69,28.45,24.95,27.94,33.49,40.08,-0.38,-5.53,-8.52,24.95,28.45,33.69,0,8.74,-0.2
dy_cut_4_n1_opt_disp_struct_3.xyz,Nucleus 20H :,-2.953949,1.118982,0.639514,29.55,26.23,29.47,32.96,25.6,24.08,39.09,4.22,1.92,-6.24,26.23,29.47,32.96,0,6.73,-0.04
dy_cut_4_n1_opt_disp_struct_3.xyz,Nucleus 21H :,-2.19613,0.614052,1.703422,29.55,25.92,29.76,32.97,39.21,25.76,23.38,4.36,2.28,-6.33,25.92,29.76,32.97,0,7.05,0.09
dy_cut_4_n1_opt_disp_struct_3.xyz,Nucleus 22H :,-2.697062,0.37513,2.637713,30.58,36.06,29.34,26.35,41.95,21.37,16.36,-5.99,8.06,10.01,26.35,29.34,36.06,0,9.71,-0.38
dy_cut_4_n1_opt_disp_struct_3.xyz,Nucleus 0C :,-0.842389,0.36482,1.513776,159.6,186.83,137.92,154.05,253.76,243.63,235.16,-113.22,-59.41,-81.11,137.92,154.05,186.83,0,48.91,-0.34
dy_cut_4_n1_opt_disp_struct_3.xyz,Nucleus 3C :,-0.25064,-0.079215,2.310715,40.29,175.33,-68.51,14.05,236.49,259.21,260.26,-61.8,-327.23,-246.06,-68.51,14.05,175.33,0,243.84,-0.32
dy_cut_4_n1_opt_disp_struct_3.xyz,Nucleus 4C :,-4.290332,1.394221,0.739457,45.1,-62.84,42.49,155.66,244.23,260.3,266.13,-323.31,-222.13,-89.9,-62.84,42.49,155.66,0,218.5,-0.04
dy_cut_4_n1_opt_disp_struct_3.xyz,Nucleus 6C :,-4.731343,0.563428,0.50569,48.57,-53.32,46.81,152.21,232.99,264.66,268.34,-318.81,-219.28,-82.22,-53.32,46.81,152.21,0,205.53,-0.03
dy_cut_4_n1_opt_disp_struct_3.xyz,Nucleus 8C :,1.412151,0.05062,-0.95534,15.47,-86.67,113.61,19.46,220.51,260.93,274.57,-109.65,-344.99,-254.98,-86.67,19.46,113.61,0,200.28,0.06
dy_cut_4_n1_opt_disp_struct_3.xyz,Nucleus 9C :,-2.583815,-3.948194,-1.063874,55.04,-40.16,47.18,158.11,230.37,264.65,268.6,-306.62,-218.61,-73.27,-40.16,47.18,158.11,0,198.27,-0.12
dy_cut_4_n1_opt_disp_struct_3.xyz,Nucleus 11C :,-2.404129,-2.519056,-0.61461,46.94,-60.18,44.36,156.63,243.53,259.59,266.16,-319.82,-220.39,-88.25,-60.18,44.36,156.63,0,216.81,-0.04
dy_cut_4_n1_opt_disp_struct_3.xyz,Nucleus 16C :,-3.253713,-1.682369,-0.365515,162.4,192.3,160.49,134.4,253.05,227.74,224.76,-90.45,-70.46,-57.44,134.4,160.49,192.3,0,57.9,-0.1
dy_cut_4_n1_opt_disp_struct_3.xyz,Nucleus 17C :,-1.118989,-2.110716,-0.508935,-6.64,-91.06,2.8,68.34,253.39,263.48,261.47,-352.57,-260.54,-185.16,-91.06,2.8,68.34,0,159.4,0.18
dy_cut_4_n1_opt_disp_struct_3.xyz,Nucleus 13O :,-2.158648,-4.061245,-2.06596,250.31,283.99,266.16,200.78,403.17,377.45,364.89,-98.26,-131.59,-164.72,200.78,266.16,283.99,0,83.21,0.57
dy_cut_4_n1_opt_disp_struct_3.xyz,Nucleus 18O :,-2.023742,-4.609607,-0.396841,-62.5,-267.65,-167.57,247.73,422.73,402.32,400.86,-688.67,-571.34,-153.38,-267.65,-167.57,247.73,0,515.38,-0.61
dy_cut_4_n1_opt_disp_struct_3.xyz,Nucleus 19O :,-3.637875,-4.255574,-1.084089,-107.51,-351.29,-111.29,140.04,398.88,422.93,425.84,-753.05,-531.46,-285.7,-351.29,-111.29,140.04,0,491.33,-0.02
dy_cut_4_n1_opt_disp_struct_4.xyz,Nucleus 1H :,1.214923,0.353932,0.077992,29.08,33.79,28.55,24.89,39.83,33.06,28.26,-0.53,-5.47,-7.92,24.89,28.55,33.79,0,8.9,-0.18
dy_cut_4_n1_opt_disp_struct_4.xyz,Nucleus 2H :,1.55736,-0.457352,0.728851,29.22,35.27,26.03,26.37,45.35,26.86,24.41,-12.35,1.43,1.97,26.03,26.37,35.27,0,9.24,-0.93
dy_cut_4_n1_opt_disp_struct_4.xyz,Nucleus 5H :,1.823419,1.243652,0.293813,24.3,28.47,22.9,21.54,46.69,31.38,29.92,-23.82,-2.82,-8.45,21.54,22.9,28.47,0,6.93,-0.61
dy_cut_4_n1_opt_disp_struct_4.xyz,Nucleus 7H :,-0.242443,0.613981,0.279948,24.21,27.74,21.61,23.27,49.43,29.9,17.98,-26.59,-2.32,4.2,21.61,23.27,27.74,0,6.13,-0.46
dy_cut_4_n1_opt_disp_struct_4.xyz,Nucleus 10H :,-1.009987,1.117947,-0.774111,24.48,27.5,23.99,21.94,49.71,29.61,15.66,-25.89,-2.21,6.56,21.94,23.99,27.5,0,5.56,-0.26
dy_cut_4_n1_opt_disp_struct_4.xyz,Nucleus 12H :,-0.540898,1.251916,-1.746749,24.3,28.31,23.02,21.57,46.28,31.56,29.4,-23.25,-3.24,-7.85,21.57,23.02,28.31,0,6.74,-0.57
dy_cut_4_n1_opt_disp_struct_4.xyz,Nucleus 14H :,-2.362407,1.374171,-0.606069,27.79,39.23,24.24,19.91,39.04,22.7,27.8,6.76,-4.99,-7.92,19.91,24.24,39.23,0,19.32,-0.55
dy_cut_4_n1_opt_disp_struct_4.xyz,Nucleus 15H :,-2.994305,1.712602,-1.420967,29.02,33.72,28.45,24.89,40.32,33.27,28.11,-0.49,-5.63,-8.51,24.89,28.45,33.72,0,8.83,-0.19
dy_cut_4_n1_opt_disp_struct_4.xyz,Nucleus 20H :,-2.953949,1.118982,0.639514,29.53,26.26,29.46,32.88,25.3,24.05,39.06,4.7,1.79,-6.3,26.26,29.46,32.88,0,6.62,-0.03
dy_cut_4_n1_opt_disp_struct_4.xyz,Nucleus 21H :,-2.19613,0.614052,1.703422,29.53,25.96,29.74,32.9,39.17,25.39,23.4,4.8,2.21,-6.38,25.96,29.74,32.9,0,6.94,0.09
dy_cut_4_n1_opt_disp_struct_4.xyz,Nucleus 22H :,-2.697062,0.37513,2.637713,30.57,35.98,29.32,26.41,41.83,21.17,15.64,-5.92,8.22,10.78,26.41,29.32,35.98,0,9.57,-0.39
dy_cut_4_n1_opt_disp_struct_4.xyz,Nucleus 0C :,-0.842389,0.36482,1.513776,159.94,187.03,138.18,154.6,253.5,244.07,235.64,-112.76,-59.59,-81.04,138.18,154.6,187.03,0,48.85,-0.33
dy_cut_4_n1_opt_disp_struct_4.xyz,Nucleus 3C :,-0.25064,-0.079215,2.310715,40.92,175.44,-67.24,14.55,236.35,259.36,260.7,-61.53,-326.07,-246.06,-67.24,14.55,175.44,0,242.68,-0.33
dy_cut_4_n1_opt_disp_struct_4.xyz,Nucleus 4C :,-4.290332,1.394221,0.739457,44.66,-63.44,41.42,155.99,244.41,260.61,266.45,-324.21,-223.78,-89.5,-63.44,41.42,155.99,0,219.43,-0.04
dy_cut_4_n1_opt_disp_struct_4.xyz,Nucleus 6C :,-4.731343,0.563428,0.50569,48.32,-53.38,45.8,152.53,232.82,264.88,268.21,-319.02,-220.43,-81.5,-53.38,45.8,152.53,0,205.91,-0.04
dy_cut_4_n1_opt_disp_struct_4.xyz,Nucleus 8C :,1.412151,0.05062,-0.95534,16.1,-85.51,113.58,20.22,220.62,261.34,273.73,-109.82,-344.19,-253.39,-85.51,20.22,113.58,0,199.09,0.06
dy_cut_4_n1_opt_disp_struct_4.xyz,Nucleus 9C :,-2.636903,-4.181383,-1.136709,54.63,-40.57,46.02,158.44,230.27,264.89,268.51,-307.2,-219.92,-72.66,-40.57,46.02,158.44,0,199.01,-0.13
dy_cut_4_n1_opt_disp_struct_4.xyz,Nucleus 11C :,-2.457217,-2.752245,-0.687444,46.51,-60.69,43.26,156.95,243.77,259.88,266.46,-320.6,-222.01,-87.98,-60.69,43.26,156.95,0,217.64,-0.04
dy_cut_4_n1_opt_disp_struct_4.xyz,Nucleus 16C :,-3.306801,-1.915557,-0.438349,162.49,192.04,160.85,134.59,252.77,227.04,224.22,-69.56,-57.27,-89.73,134.59,160.85,192.04,0,57.45,-0.09
dy_cut_4_n1_opt_disp_struct_4.xyz,Nucleus 17C :,-1.172077,-2.343904,-0.581769,-6.9,-92.01,3.9,67.42,255.97,263.62,260.86,-352.76,-259.65,-188.73,-92.01,3.9,67.42,0,159.43,0.2
dy_cut_4_n1_opt_disp_struct_4.xyz,Nucleus 13O :,-2.211736,-4.294433,-2.138794,250.14,283.65,265.17,201.59,403.11,377.77,364.35,-98.61,-132.77,-163.43,201.59,265.17,283.65,0,82.06,0.55
dy_cut_4_n1_opt_disp_struct_4.xyz,Nucleus 18O :,-2.07683,-4.842795,-0.469675,-58.63,-250.13,-172.06,246.3,423.21,401.24,397.76,-671.44,-575.15,-151.51,-250.13,-172.06,246.3,0,496.43,-0.69
dy_cut_4_n1_opt_disp_struct_4.xyz,Nucleus 19O :,-3.690963,-4.488763,-1.156923,-94.37,-337.78,-90.12,144.78,398.81,422.06,426.96,-738.35,-510.49,-282.12,-337.78,-90.12,144.78,0,482.56,0.03
dy_cut_4_n1_opt_disp_struct_5.xyz,Nucleus 1H :,1.214923,0.353932,0.077992,29.07,33.83,28.55,24.83,39.98,32.85,28.31,-0.55,-5.51,-7.86,24.83,28.55,33.83,0,9.0,-0.17
dy_cut_4_n1_opt_disp_struct_5.xyz,Nucleus 2H :,1.55736,-0.457352,0.728851,29.21,35.25,26.0,26.38,45.26,26.82,24.45,-12.23,1.38,1.95,26.0,26.38,35.25,0,9.25,-0.92
dy_cut_4_n1_opt_disp_struct_5.xyz,Nucleus 5H :,1.823419,1.243652,0.293813,24.24,28.46,22.76,21.49,46.67,31.43,29.89,-23.9,-2.94,-8.43,21.49,22.76,28.46,0,6.97,-0.64
dy_cut_4_n1_opt_disp_struct_5.xyz,Nucleus 7H :,-0.242443,0.613981,0.279948,24.14,27.74,21.61,23.08,49.31,29.83,18.06,-26.57,-2.21,4.0,21.61,23.08,27.74,0,6.13,-0.52
dy_cut_4_n1_opt_disp_struct_5.xyz,Nucleus 10H :,-1.009987,1.117947,-0.774111,24.4,27.48,23.82,21.91,49.6,29.55,15.72,-25.91,-2.14,6.4,21.91,23.82,27.48,0,5.57,-0.31
dy_cut_4_n1_opt_disp_struct_5.xyz,Nucleus 12H :,-0.540898,1.251916,-1.746749,24.24,28.31,22.91,21.5,46.26,31.62,29.34,-23.33,-3.33,-7.85,21.5,22.91,28.31,0,6.81,-0.59
dy_cut_4_n1_opt_disp_struct_5.xyz,Nucleus 14H :,-2.362407,1.374171,-0.606069,27.85,39.32,24.17,20.05,39.24,22.61,27.38,6.6,-4.92,-7.37,20.05,24.17,39.32,0,19.27,-0.57
dy_cut_4_n1_opt_disp_struct_5.xyz,Nucleus 15H :,-2.994305,1.712602,-1.420967,29.01,33.75,28.46,24.82,40.47,33.04,28.17,-0.52,-5.67,-8.45,24.82,28.46,33.75,0,8.93,-0.18
dy_cut_4_n1_opt_disp_struct_5.xyz,Nucleus 20H :,-2.953949,1.118982,0.639514,29.52,26.29,29.44,32.82,39.04,25.17,23.88,5.17,1.66,-6.36,26.29,29.44,32.82,0,6.53,-0.04
dy_cut_4_n1_opt_disp_struct_5.xyz,Nucleus 21H :,-2.19613,0.614052,1.703422,29.51,25.99,29.71,32.83,39.14,25.11,23.36,5.24,2.13,-6.44,25.99,29.71,32.83,0,6.84,0.09
dy_cut_4_n1_opt_disp_struct_5.xyz,Nucleus 22H :,-2.697062,0.37513,2.637713,30.56,35.9,29.31,26.46,41.73,21.01,14.93,-5.88,8.35,11.54,26.46,29.31,35.9,0,9.44,-0.4
dy_cut_4_n1_opt_disp_struct_5.xyz,Nucleus 0C :,-0.842389,0.36482,1.513776,160.16,187.15,138.37,154.95,253.18,244.42,235.93,-112.15,-59.92,-80.99,138.37,154.95,187.15,0,48.78,-0.32
dy_cut_4_n1_opt_disp_struct_5.xyz,Nucleus 3C :,-0.25064,-0.079215,2.310715,41.33,175.51,-66.32,14.79,236.24,259.52,261.37,-61.32,-325.31,-246.51,-66.32,14.79,175.51,0,241.83,-0.33
dy_cut_4_n1_opt_disp_struct_5.xyz,Nucleus 4C :,-4.290332,1.394221,0.739457,44.47,-63.62,40.77,156.25,244.48,266.85,260.79,-324.58,-225.1,-89.04,-63.62,40.77,156.25,0,219.87,-0.05
dy_cut_4_n1_opt_disp_struct_5.xyz,Nucleus 6C :,-4.731343,0.563428,0.50569,48.21,-53.28,45.11,152.79,232.86,265.03,268.28,-319.03,-221.53,-80.99,-53.28,45.11,152.79,0,206.07,-0.05
dy_cut_4_n1_opt_disp_struct_5.xyz,Nucleus 8C :,1.412151,0.05062,-0.95534,16.5,-84.77,113.55,20.73,220.77,261.49,273.38,-109.82,-343.77,-252.54,-84.77,20.73,113.55,0,198.32,0.06
dy_cut_4_n1_opt_disp_struct_5.xyz,Nucleus 9C :,-2.689991,-4.414571,-1.209543,54.39,-40.71,45.18,158.71,230.2,265.12,268.52,-307.39,-221.14,-72.13,-40.71,45.18,158.71,0,199.42,-0.14
dy_cut_4_n1_opt_disp_struct_5.xyz,Nucleus 11C :,-2.510305,-2.985433,-0.760278,46.33,-60.81,42.61,157.19,243.9,260.09,266.84,-320.92,-223.32,-87.59,-60.81,42.61,157.19,0,218.0,-0.05
dy_cut_4_n1_opt_disp_struct_5.xyz,Nucleus 16C :,-3.359889,-2.148746,-0.511183,162.54,191.82,161.09,134.71,252.53,226.51,223.77,-68.89,-57.14,-89.15,134.71,161.09,191.82,0,57.11,-0.08
dy_cut_4_n1_opt_disp_struct_5.xyz,Nucleus 17C :,-1.225165,-2.577093,-0.654604,-6.98,-92.85,4.83,67.09,263.95,258.03,260.41,-352.93,-259.02,-191.37,-92.85,4.83,67.09,0,159.94,0.22
dy_cut_4_n1_opt_disp_struct_5.xyz,Nucleus 13O :,-2.264824,-4.527621,-2.211629,249.75,283.42,264.12,201.7,403.2,377.8,364.0,-98.66,-134.03,-163.06,201.7,264.12,283.42,0,81.72,0.53
dy_cut_4_n1_opt_disp_struct_5.xyz,Nucleus 18O :,-2.129918,-5.075984,-0.542509,-57.48,-240.82,-175.86,244.23,423.99,400.4,396.2,-662.69,-578.36,-151.99,-240.82,-175.86,244.23,0,485.05,-0.73
dy_cut_4_n1_opt_disp_struct_5.xyz,Nucleus 19O :,-3.744052,-4.721951,-1.229757,-87.13,-331.23,-76.51,146.34,398.91,421.67,428.32,-731.64,-496.73,-281.92,-331.23,-76.51,146.34,0,477.57,0.07
dy_cut_4_n1_opt_disp_struct_6.xyz,Nucleus 1H :,1.214923,0.353932,0.077992,29.06,33.86,28.56,24.77,40.08,32.65,28.3,-0.53,-5.52,-7.78,24.77,28.56,33.86,0,9.09,-0.17
dy_cut_4_n1_opt_disp_struct_6.xyz,Nucleus 2H :,1.55736,-0.457352,0.728851,29.19,35.21,25.96,26.39,45.16,26.75,24.43,-12.1,1.35,1.98,25.96,26.39,35.21,0,9.25,-0.91
dy_cut_4_n1_opt_disp_struct_6.xyz,Nucleus 5H :,1.823419,1.243652,0.293813,24.19,28.45,22.68,21.43,46.63,31.49,29.81,-23.93,-3.04,-8.39,21.43,22.68,28.45,0,7.02,-0.65
dy_cut_4_n1_opt_disp_struct_6.xyz,Nucleus 7H :,-0.242443,0.613981,0.279948,24.1,27.74,21.62,22.95,49.18,29.85,18.17,-26.51,-2.19,3.8,21.62,22.95,27.74,0,6.12,-0.56
dy_cut_4_n1_opt_disp_struct_6.xyz,Nucleus 10H :,-1.009987,1.117947,-0.774111,24.36,27.48,23.7,21.89,49.48,29.56,15.81,-25.87,-2.15,6.23,21.89,23.7,27.48,0,5.59,-0.35
dy_cut_4_n1_opt_disp_struct_6.xyz,Nucleus 12H :,-0.540898,1.251916,-1.746749,24.19,28.31,22.84,21.43,46.22,31.69,29.26,-23.35,-3.42,-7.83,21.43,22.84,28.31,0,6.88,-0.59
dy_cut_4_n1_opt_disp_struct_6.xyz,Nucleus 14H :,-2.362407,1.374171,-0.606069,27.9,39.41,24.1,20.18,39.43,22.51,27.19,6.48,-4.88,-7.05,20.18,24.1,39.41,0,19.23,-0.59
dy_cut_4_n1_opt_disp_struct_6.xyz,Nucleus 15H :,-2.994305,1.712602,-1.420967,29.0,33.79,28.47,24.75,40.55,32.84,28.18,-0.51,-5.69,-8.36,24.75,28.47,33.79,0,9.04,-0.18
dy_cut_4_n1_opt_disp_struct_6.xyz,Nucleus 20H :,-2.953949,1.118982,0.639514,29.5,26.3,29.43,32.76,25.19,23.56,39.03,5.63,1.53,-6.44,26.3,29.43,32.76,0,6.46,-0.03
dy_cut_4_n1_opt_disp_struct_6.xyz,Nucleus 21H :,-2.19613,0.614052,1.703422,29.49,26.01,29.69,32.78,39.13,24.93,23.22,5.65,2.05,-6.51,26.01,29.69,32.78,0,6.77,0.09
dy_cut_4_n1_opt_disp_struct_6.xyz,Nucleus 22H :,-2.697062,0.37513,2.637713,30.55,35.84,29.3,26.51,41.65,20.87,14.22,-5.86,8.47,12.3,26.51,29.3,35.84,0,9.33,-0.4
dy_cut_4_n1_opt_disp_struct_6.xyz,Nucleus 0C :,-0.842389,0.36482,1.513776,160.32,187.26,138.49,155.2,252.89,244.68,236.14,-111.52,-60.29,-80.94,138.49,155.2,187.26,0,48.77,-0.31
dy_cut_4_n1_opt_disp_struct_6.xyz,Nucleus 3C :,-0.25064,-0.079215,2.310715,41.6,175.58,-65.66,14.88,236.19,259.73,262.15,-61.16,-324.88,-247.22,-65.66,14.88,175.58,0,241.24,-0.33
dy_cut_4_n1_opt_disp_struct_6.xyz,Nucleus 4C :,-4.290332,1.394221,0.739457,44.39,-63.62,40.35,156.45,244.45,267.33,260.9,-324.71,-226.21,-88.57,-63.62,40.35,156.45,0,220.07,-0.06
dy_cut_4_n1_opt_disp_struct_6.xyz,Nucleus 6C :,-4.731343,0.563428,0.50569,48.15,-53.15,44.6,153.0,232.91,265.13,268.47,-318.92,-222.56,-80.58,-53.15,44.6,153.0,0,206.15,-0.05
dy_cut_4_n1_opt_disp_struct_6.xyz,Nucleus 8C :,1.412151,0.05062,-0.95534,16.76,-84.29,113.52,21.06,220.94,261.52,273.3,-109.71,-343.61,-252.15,-84.29,21.06,113.52,0,197.81,0.07
dy_cut_4_n1_opt_disp_struct_6.xyz,Nucleus 9C :,-2.74308,-4.647759,-1.282377,54.25,-40.72,44.54,158.92,230.14,265.34,268.62,-307.4,-222.28,-71.67,-40.72,44.54,158.92,0,199.64,-0.15
dy_cut_4_n1_opt_disp_struct_6.xyz,Nucleus 11C :,-2.563394,-3.218621,-0.833112,46.26,-60.78,42.19,157.37,243.91,260.19,267.3,-321.02,-224.43,-87.17,-60.78,42.19,157.37,0,218.15,-0.06
dy_cut_4_n1_opt_disp_struct_6.xyz,Nucleus 16C :,-3.412977,-2.381934,-0.584017,162.56,191.66,161.24,134.77,252.34,226.2,223.44,-68.48,-57.05,-88.78,134.77,161.24,191.66,0,56.89,-0.07
dy_cut_4_n1_opt_disp_struct_6.xyz,Nucleus 17C :,-1.278254,-2.810281,-0.727438,-6.93,-93.46,5.56,67.1,264.31,258.92,261.04,-352.99,-258.59,-193.51,-93.46,5.56,67.1,0,160.56,0.23
dy_cut_4_n1_opt_disp_struct_6.xyz,Nucleus 13O :,-2.317912,-4.76081,-2.284463,249.27,283.27,263.06,201.47,403.36,377.57,363.77,-98.46,-135.32,-163.13,201.47,263.06,283.27,0,81.8,0.51
dy_cut_4_n1_opt_disp_struct_6.xyz,Nucleus 18O :,-2.183007,-5.309172,-0.615343,-57.72,-236.31,-178.93,242.09,424.8,399.77,396.02,-658.77,-581.02,-153.95,-236.31,-178.93,242.09,0,478.4,-0.76
dy_cut_4_n1_opt_disp_struct_6.xyz,Nucleus 19O :,-3.79714,-4.95514,-1.302591,-83.47,-328.08,-68.59,146.25,399.11,421.57,429.9,-728.76,-488.62,-283.61,-328.08,-68.59,146.25,0,474.33,0.09
dy_cut_4_n1_opt_disp_struct_7.xyz,Nucleus 1H :,1.214923,0.353932,0.077992,29.05,33.89,28.56,24.71,40.13,32.48,28.26,-0.49,-5.52,-7.7,24.71,28.56,33.89,0,9.18,-0.16
dy_cut_4_n1_opt_disp_struct_7.xyz,Nucleus 2H :,1.55736,-0.457352,0.728851,29.16,35.16,25.94,26.38,45.06,26.65,24.38,-11.97,1.35,2.02,25.94,26.38,35.16,0,9.22,-0.9
dy_cut_4_n1_opt_disp_struct_7.xyz,Nucleus 5H :,1.823419,1.243652,0.293813,24.15,28.46,22.63,21.37,46.58,31.54,29.72,-23.93,-3.1,-8.35,21.37,22.63,28.46,0,7.09,-0.64
dy_cut_4_n1_opt_disp_struct_7.xyz,Nucleus 7H :,-0.242443,0.613981,0.279948,24.07,27.75,22.84,21.61,49.06,29.89,18.28,-26.43,-2.21,3.61,21.61,22.84,27.75,0,6.14,-0.6
dy_cut_4_n1_opt_disp_struct_7.xyz,Nucleus 10H :,-1.009987,1.117947,-0.774111,24.31,27.48,23.61,21.85,49.36,29.61,15.88,-25.79,-2.18,6.08,21.85,23.61,27.48,0,5.63,-0.37
dy_cut_4_n1_opt_disp_struct_7.xyz,Nucleus 12H :,-0.540898,1.251916,-1.746749,24.16,28.32,22.79,21.37,46.18,31.75,29.17,-23.36,-3.46,-7.8,21.37,22.79,28.32,0,6.95,-0.59
dy_cut_4_n1_opt_disp_struct_7.xyz,Nucleus 14H :,-2.362407,1.374171,-0.606069,27.94,39.48,24.05,20.3,39.61,22.41,27.12,6.41,-4.86,-6.86,20.3,24.05,39.48,0,19.18,-0.61
dy_cut_4_n1_opt_disp_struct_7.xyz,Nucleus 15H :,-2.994305,1.712602,-1.420967,28.99,33.82,28.47,24.69,40.6,32.66,28.15,-0.48,-5.68,-8.26,24.69,28.47,33.82,0,9.13,-0.17
dy_cut_4_n1_opt_disp_struct_7.xyz,Nucleus 20H :,-2.953949,1.118982,0.639514,29.48,26.32,29.41,32.71,25.29,23.21,39.05,6.04,1.39,-6.53,26.32,29.41,32.71,0,6.39,-0.03
dy_cut_4_n1_opt_disp_struct_7.xyz,Nucleus 21H :,-2.19613,0.614052,1.703422,29.48,26.03,29.67,32.73,39.14,24.87,23.02,6.03,1.96,-6.59,26.03,29.67,32.73,0,6.7,0.09
dy_cut_4_n1_opt_disp_struct_7.xyz,Nucleus 22H :,-2.697062,0.37513,2.637713,30.54,35.77,29.29,26.55,41.62,20.76,13.55,-5.88,8.56,13.0,26.55,29.29,35.77,0,9.22,-0.41
dy_cut_4_n1_opt_disp_struct_7.xyz,Nucleus 0C :,-0.842389,0.36482,1.513776,160.42,187.31,138.58,155.37,252.66,244.82,236.28,-110.89,-60.69,-80.91,138.58,155.37,187.31,0,48.73,-0.31
dy_cut_4_n1_opt_disp_struct_7.xyz,Nucleus 3C :,-0.25064,-0.079215,2.310715,41.73,175.6,-65.23,14.81,236.19,259.96,262.92,-61.11,-324.71,-248.07,-65.23,14.81,175.6,0,240.83,-0.34
dy_cut_4_n1_opt_disp_struct_7.xyz,Nucleus 4C :,-4.290332,1.394221,0.739457,44.36,-63.57,40.03,156.62,244.35,267.84,260.95,-324.74,-227.19,-88.13,-63.57,40.03,156.62,0,220.19,-0.06
dy_cut_4_n1_opt_disp_struct_7.xyz,Nucleus 6C :,-4.731343,0.563428,0.50569,48.11,-53.04,44.18,153.18,232.94,265.18,268.73,-318.77,-223.51,-80.24,-53.04,44.18,153.18,0,206.22,-0.06
dy_cut_4_n1_opt_disp_struct_7.xyz,Nucleus 8C :,1.412151,0.05062,-0.95534,16.93,-83.98,113.51,21.25,221.17,261.5,273.37,-109.59,-343.63,-252.03,-83.98,21.25,113.51,0,197.49,0.07
dy_cut_4_n1_opt_disp_struct_7.xyz,Nucleus 9C :,-2.796168,-4.880948,-1.355211,54.14,-40.71,44.02,159.1,230.04,265.49,268.76,-307.3,-223.32,-71.26,-40.71,44.02,159.1,0,199.81,-0.15
dy_cut_4_n1_opt_disp_struct_7.xyz,Nucleus 11C :,-2.616482,-3.45181,-0.905947,46.23,-60.71,41.87,157.52,243.84,260.26,267.8,-321.06,-225.4,-86.76,-60.71,41.87,157.52,0,218.23,-0.06
dy_cut_4_n1_opt_disp_struct_7.xyz,Nucleus 16C :,-3.466066,-2.615123,-0.656851,162.57,191.51,161.38,134.81,252.2,226.19,223.38,-68.37,-57.03,-88.67,134.81,161.38,191.51,0,56.7,-0.06
dy_cut_4_n1_opt_disp_struct_7.xyz,Nucleus 17C :,-1.331342,-3.043469,-0.800272,-6.89,-93.98,6.15,67.15,258.68,264.64,262.7,-353.03,-258.22,-195.46,-93.98,6.15,67.15,0,161.13,0.24
dy_cut_4_n1_opt_disp_struct_7.xyz,Nucleus 13O :,-2.371001,-4.993998,-2.357297,248.8,283.13,262.12,201.16,403.53,377.17,363.63,-98.05,-136.5,-163.37,201.16,262.12,283.13,0,81.97,0.49
dy_cut_4_n1_opt_disp_struct_7.xyz,Nucleus 18O :,-2.236095,-5.542361,-0.688177,-58.54,-234.45,-181.5,240.32,425.6,399.34,396.89,-657.55,-583.33,-156.58,-234.45,-181.5,240.32,0,474.77,-0.78
dy_cut_4_n1_opt_disp_struct_7.xyz,Nucleus 19O :,-3.850228,-5.188328,-1.375426,-81.74,-326.74,-64.16,145.67,399.33,421.66,431.8,-727.89,-484.05,-286.09,-326.74,-64.16,145.67,0,472.41,0.11
dy_cut_4_n1_opt_disp_struct_8.xyz,Nucleus 1H :,1.214923,0.353932,0.077992,29.05,33.92,28.57,24.65,40.16,32.34,28.21,-0.45,-5.5,-7.62,24.65,28.57,33.92,0,9.27,-0.16
dy_cut_4_n1_opt_disp_struct_8.xyz,Nucleus 2H :,1.55736,-0.457352,0.728851,29.14,35.12,25.92,26.38,44.96,26.55,24.31,-11.85,1.36,2.09,25.92,26.38,35.12,0,9.2,-0.9
dy_cut_4_n1_opt_disp_struct_8.xyz,Nucleus 5H :,1.823419,1.243652,0.293813,24.12,28.47,22.59,21.3,46.52,31.59,29.63,-23.91,-3.14,-8.33,21.3,22.59,28.47,0,7.17,-0.64
dy_cut_4_n1_opt_disp_struct_8.xyz,Nucleus 7H :,-0.242443,0.613981,0.279948,24.04,27.76,22.76,21.6,48.94,29.94,18.37,-26.34,-2.24,3.45,21.6,22.76,27.76,0,6.16,-0.62
dy_cut_4_n1_opt_disp_struct_8.xyz,Nucleus 10H :,-1.009987,1.117947,-0.774111,24.28,27.49,23.55,21.81,49.23,29.66,15.95,-25.71,-2.23,5.94,21.81,23.55,27.49,0,5.68,-0.39
dy_cut_4_n1_opt_disp_struct_8.xyz,Nucleus 12H :,-0.540898,1.251916,-1.746749,24.13,28.33,22.76,21.3,46.13,31.8,29.08,-23.34,-3.49,-7.78,21.3,22.76,28.33,0,7.03,-0.58
dy_cut_4_n1_opt_disp_struct_8.xyz,Nucleus 14H :,-2.362407,1.374171,-0.606069,27.98,39.54,24.0,20.4,39.76,22.29,27.09,6.38,-4.85,-6.73,20.4,24.0,39.54,0,19.14,-0.62
dy_cut_4_n1_opt_disp_struct_8.xyz,Nucleus 15H :,-2.994305,1.712602,-1.420967,28.99,33.85,28.48,24.63,40.61,32.51,28.12,-0.44,-5.66,-8.17,24.63,28.48,33.85,0,9.22,-0.17
dy_cut_4_n1_opt_disp_struct_8.xyz,Nucleus 20H :,-2.953949,1.118982,0.639514,29.46,26.34,29.39,32.66,25.43,22.88,39.09,6.4,1.24,-6.65,26.34,29.39,32.66,0,6.32,-0.03
dy_cut_4_n1_opt_disp_struct_8.xyz,Nucleus 21H :,-2.19613,0.614052,1.703422,29.46,26.05,29.64,32.69,39.18,24.9,22.8,6.35,1.84,-6.69,26.05,29.64,32.69,0,6.64,0.08
dy_cut_4_n1_opt_disp_struct_8.xyz,Nucleus 22H :,-2.697062,0.37513,2.637713,30.53,35.72,29.28,26.58,41.62,20.67,12.96,-5.93,8.63,13.62,26.58,29.28,35.72,0,9.14,-0.41
dy_cut_4_n1_opt_disp_struct_8.xyz,Nucleus 0C :,-0.842389,0.36482,1.513776,160.5,187.36,138.64,155.5,252.51,244.88,236.39,-110.31,-61.08,-80.9,138.64,155.5,187.36,0,48.72,-0.31
dy_cut_4_n1_opt_disp_struct_8.xyz,Nucleus 3C :,-0.25064,-0.079215,2.310715,41.78,175.61,-64.93,14.67,236.21,260.19,263.6,-61.09,-324.66,-248.9,-64.93,14.67,175.61,0,240.54,-0.34
dy_cut_4_n1_opt_disp_struct_8.xyz,Nucleus 4C :,-4.290332,1.394221,0.739457,44.34,-63.51,39.78,156.75,244.23,268.32,260.98,-324.72,-228.03,-87.76,-63.51,39.78,156.75,0,220.26,-0.06
dy_cut_4_n1_opt_disp_struct_8.xyz,Nucleus 6C :,-4.731343,0.563428,0.50569,48.08,-52.95,43.85,153.33,232.95,265.19,269.0,-318.62,-224.34,-79.96,-52.95,43.85,153.33,0,206.28,-0.06
dy_cut_4_n1_opt_disp_struct_8.xyz,Nucleus 8C :,1.412151,0.05062,-0.95534,17.02,-83.79,113.51,21.34,221.34,261.49,273.47,-109.47,-343.72,-252.04,-83.79,21.34,113.51,0,197.3,0.07
dy_cut_4_n1_opt_disp_struct_8.xyz,Nucleus 9C :,-2.849256,-5.114136,-1.428045,54.06,-40.68,43.6,159.25,229.95,265.59,268.92,-307.18,-224.2,-70.91,-40.68,43.6,159.25,0,199.93,-0.16
dy_cut_4_n1_opt_disp_struct_8.xyz,Nucleus 11C :,-2.66957,-3.684998,-0.978781,46.21,-60.64,41.63,157.65,268.28,260.29,243.72,-321.04,-226.22,-86.39,-60.64,41.63,157.65,0,218.29,-0.06
dy_cut_4_n1_opt_disp_struct_8.xyz,Nucleus 16C :,-3.519154,-2.848311,-0.729686,162.57,191.38,161.5,134.84,252.13,226.46,223.65,-68.55,-57.05,-88.91,134.84,161.5,191.38,0,56.54,-0.06
dy_cut_4_n1_opt_disp_struct_8.xyz,Nucleus 17C :,-1.38443,-3.276658,-0.873106,-6.86,-94.4,6.62,67.19,258.3,265.17,264.14,-353.02,-257.87,-197.3,-94.4,6.62,67.19,0,161.59,0.25
dy_cut_4_n1_opt_disp_struct_8.xyz,Nucleus 13O :,-2.424089,-5.227187,-2.430131,248.37,283.0,261.29,200.82,403.66,376.65,363.5,-97.51,-137.53,-163.65,200.82,261.29,283.0,0,82.18,0.47
dy_cut_4_n1_opt_disp_struct_8.xyz,Nucleus 18O :,-2.289183,-5.775549,-0.761012,-59.5,-233.99,-183.56,239.06,426.38,399.08,397.88,-657.78,-585.21,-158.83,-233.99,-183.56,239.06,0,473.05,-0.79
dy_cut_4_n1_opt_disp_struct_8.xyz,Nucleus 19O :,-3.903316,-5.421516,-1.44826,-81.1,-326.5,-61.94,145.15,399.57,421.92,433.92,-728.25,-481.71,-288.73,-326.5,-61.94,145.15,0,471.65,0.12
dy_cut_4_n1_opt_disp_struct_9.xyz,Nucleus 1H :,1.214923,0.353932,0.077992,29.04,33.95,28.58,24.6,40.18,32.22,28.17,-0.4,-5.48,-7.55,24.6,28.58,33.95,0,9.35,-0.15
dy_cut_4_n1_opt_disp_struct_9.xyz,Nucleus 2H :,1.55736,-0.457352,0.728851,29.12,35.08,25.9,26.38,44.87,26.46,24.23,-11.73,1.37,2.16,25.9,26.38,35.08,0,9.18,-0.9
dy_cut_4_n1_opt_disp_struct_9.xyz,Nucleus 5H :,1.823419,1.243652,0.293813,24.1,28.48,22.58,21.24,46.45,31.61,29.54,-23.87,-3.15,-8.29,21.24,22.58,28.48,0,7.24,-0.63
dy_cut_4_n1_opt_disp_struct_9.xyz,Nucleus 7H :,-0.242443,0.613981,0.279948,24.01,27.76,22.7,21.58,48.82,29.98,18.43,-26.24,-2.26,3.32,21.58,22.7,27.76,0,6.18,-0.64
dy_cut_4_n1_opt_disp_struct_9.xyz,Nucleus 10H :,-1.009987,1.117947,-0.774111,24.26,27.49,23.51,21.77,49.11,29.7,16.0,-25.6,-2.26,5.83,21.77,23.51,27.49,0,5.72,-0.39
dy_cut_4_n1_opt_disp_struct_9.xyz,Nucleus 12H :,-0.540898,1.251916,-1.746749,24.11,28.34,22.74,21.24,46.07,31.82,28.99,-23.3,-3.49,-7.76,21.24,22.74,28.34,0,7.1,-0.58
dy_cut_4_n1_opt_disp_struct_9.xyz,Nucleus 14H :,-2.362407,1.374171,-0.606069,28.02,39.59,23.97,20.49,39.89,22.17,27.08,6.39,-4.85,-6.62,20.49,23.97,39.59,0,19.1,-0.64
dy_cut_4_n1_opt_disp_struct_9.xyz,Nucleus 15H :,-2.994305,1.712602,-1.420967,28.99,33.89,28.49,24.58,40.61,32.38,28.09,-0.4,-5.64,-8.08,24.58,28.49,33.89,0,9.31,-0.16
dy_cut_4_n1_opt_disp_struct_9.xyz,Nucleus 20H :,-2.953949,1.118982,0.639514,29.45,26.36,29.37,32.62,22.59,25.61,39.15,6.71,1.07,-6.77,26.36,29.37,32.62,0,6.26,-0.04
dy_cut_4_n1_opt_disp_struct_9.xyz,Nucleus 21H :,-2.19613,0.614052,1.703422,29.45,26.07,29.62,32.65,39.23,24.99,22.6,6.63,1.69,-6.8,26.07,29.62,32.65,0,6.58,0.08
dy_cut_4_n1_opt_disp_struct_9.xyz,Nucleus 22H :,-2.697062,0.37513,2.637713,30.51,35.66,29.27,26.6,41.65,20.61,12.44,-6.0,8.68,14.16,26.6,29.27,35.66,0,9.06,-0.41
dy_cut_4_n1_opt_disp_struct_9.xyz,Nucleus 0C :,-0.842389,0.36482,1.513776,160.56,187.4,138.67,155.6,252.44,244.87,236.49,-109.78,-61.45,-80.89,138.67,155.6,187.4,0,48.73,-0.31
dy_cut_4_n1_opt_disp_struct_9.xyz,Nucleus 3C :,-0.25064,-0.079215,2.310715,41.8,175.63,-64.71,14.49,236.25,260.44,264.2,-61.08,-324.71,-249.68,-64.71,14.49,175.63,0,240.34,-0.34
dy_cut_4_n1_opt_disp_struct_9.xyz,Nucleus 4C :,-4.290332,1.394221,0.739457,44.34,-63.44,39.59,156.86,244.08,268.76,260.96,-324.64,-228.72,-87.44,-63.44,39.59,156.86,0,220.3,-0.06
dy_cut_4_n1_opt_disp_struct_9.xyz,Nucleus 6C :,-4.731343,0.563428,0.50569,48.04,-52.88,43.56,153.45,232.94,265.17,269.25,-318.47,-225.03,-79.72,-52.88,43.56,153.45,0,206.33,-0.07
dy_cut_4_n1_opt_disp_struct_9.xyz,Nucleus 8C :,1.412151,0.05062,-0.95534,17.08,-83.65,113.51,21.39,221.56,261.5,273.63,-109.41,-343.87,-252.15,-83.65,21.39,113.51,0,197.16,0.07
dy_cut_4_n1_opt_disp_struct_9.xyz,Nucleus 9C :,-2.902344,-5.347324,-1.50088,53.99,-40.66,43.24,159.38,229.85,265.62,269.08,-307.02,-224.95,-70.61,-40.66,43.24,159.38,0,200.04,-0.16
dy_cut_4_n1_opt_disp_struct_9.xyz,Nucleus 11C :,-2.722658,-3.918186,-1.051615,46.21,-60.56,41.44,157.75,268.7,260.29,243.56,-320.98,-226.89,-86.06,-60.56,41.44,157.75,0,218.31,-0.07
dy_cut_4_n1_opt_disp_struct_9.xyz,Nucleus 16C :,-3.572242,-3.081499,-0.80252,162.58,191.26,161.63,134.86,252.12,226.93,224.23,-68.97,-57.08,-89.48,134.86,161.63,191.26,0,56.4,-0.05
dy_cut_4_n1_opt_disp_struct_9.xyz,Nucleus 17C :,-1.437518,-3.509846,-0.94594,-6.85,-94.74,6.99,67.21,257.93,264.56,266.62,-352.98,-257.54,-199.12,-94.74,6.99,67.21,0,161.95,0.26
dy_cut_4_n1_opt_disp_struct_9.xyz,Nucleus 13O :,-2.477177,-5.460375,-2.502965,247.97,282.9,260.55,200.47,403.76,376.1,363.4,-96.95,-138.44,-163.96,200.47,260.55,282.9,0,82.43,0.46
dy_cut_4_n1_opt_disp_struct_9.xyz,Nucleus 18O :,-2.342271,-6.008737,-0.833846,-60.4,-234.26,-185.16,238.23,427.21,398.93,398.3,-658.85,-586.7,-160.08,-234.26,-185.16,238.23,0,472.49,-0.79
dy_cut_4_n1_opt_disp_struct_9.xyz,Nucleus 19O :,-3.956405,-5.654705,-1.521094,-81.04,-326.93,-60.95,144.76,399.8,422.33,436.21,-729.38,-480.66,-291.41,-326.93,-60.95,144.76,0,471.69,0.13
f_cut_0_0_opt.xyz,Nucleus 7H :,0.976037,0.443504,0.390131,29.07,34.34,28.69,24.17,41.07,27.4,25.32,-8.89,-0.84,3.15,24.17,28.69,34.34,0,10.17,-0.11
f_cut_0_0_opt.xyz,Nucleus 8H :,-0.517543,0.579091,0.374436,29.16,34.4,28.84,24.23,40.33,25.73,27.55,-8.09,3.07,-1.1,24.23,28.84,34.4,0,10.17,-0.09
f_cut_0_0_opt.xyz,Nucleus 9H :,-1.161147,1.122589,-0.744539,23.84,28.66,22.24,20.61,43.19,30.25,29.76,-20.95,-1.49,-9.25,20.61,22.24,28.66,0,8.05,-0.6
f_cut_0_0_opt.xyz,Nucleus 10H :,-2.552407,1.230715,-0.777344,23.82,27.26,23.44,20.75,43.1,29.0,16.23,-19.68,-1.75,4.54,20.75,23.44,27.26,0,6.51,-0.18
f_cut_0_0_opt.xyz,Nucleus 11H :,-3.312172,0.790142,0.304684,23.96,20.89,23.84,27.15,43.11,8.7,28.96,-19.26,12.19,-1.81,20.89,23.84,27.15,0,6.26,-0.06
f_cut_0_0_opt.xyz,Nucleus 12H :,-2.681466,0.238163,1.4181,23.82,27.27,23.45,20.75,43.1,28.96,14.79,-19.66,-1.7,5.99,20.75,23.45,27.27,0,6.52,-0.17
f_cut_0_0_opt.xyz,Nucleus 13H :,-1.290077,0.128795,1.451867,23.86,28.57,22.36,20.66,42.99,30.18,28.67,-20.63,-1.6,-8.02,20.66,22.36,28.57,0,7.91,-0.57
f_cut_0_0_opt.xyz,Nucleus 14H :,1.456083,1.259541,-0.157193,28.76,34.5,25.51,26.27,41.89,30.19,23.77,-10.03,-2.01,2.45,25.51,26.27,34.5,0,8.99,-0.83
f_cut_0_0_opt.xyz,Nucleus 0C :,1.366795,0.440262,1.411306,161.07,188.27,138.19,156.75,254.23,235.28,242.23,-104.27,-65.7,-78.56,138.19,156.75,188.27,0,50.08,-0.26
f_cut_0_0_opt.xyz,Nucleus 1C :,-0.568625,1.470876,-1.58587,34.8,174.57,-73.79,3.62,235.82,259.92,264.05,-61.29,-333.73,-260.37,-73.79,3.62,174.57,0,248.36,-0.38
f_cut_0_0_opt.xyz,Nucleus 2C :,-3.041493,1.661032,-1.645667,45.24,-65.81,39.82,161.72,268.34,257.44,242.66,-323.24,-228.48,-81.0,-65.81,39.82,161.72,0,227.53,-0.07
f_cut_0_0_opt.xyz,Nucleus 3C :,-4.393614,0.878624,0.281268,46.06,-69.87,33.97,174.08,268.54,256.13,231.29,-325.93,-234.56,-57.29,-69.87,33.97,174.08,0,243.95,-0.15
f_cut_0_0_opt.xyz,Nucleus 4C :,-3.27142,-0.105633,2.261972,49.96,-63.54,176.67,36.75,226.35,256.85,268.36,-49.74,-320.32,-231.61,-63.54,36.75,176.67,0,240.21,-0.16
f_cut_0_0_opt.xyz,Nucleus 5C :,-0.798633,-0.297132,2.321988,46.05,-69.68,33.82,174.01,268.45,256.08,230.29,-325.69,-234.63,-56.35,-69.68,33.82,174.01,0,243.69,-0.15
f_cut_0_0_opt.xyz,Nucleus 6C :,1.287533,-0.495431,-0.08325,45.68,-64.87,40.79,161.11,268.4,257.37,242.24,-322.24,-227.54,-81.2,-64.87,40.79,161.11,0,225.98,-0.06
n_cut_0_0_opt.xyz,Nucleus 1H :,0.000561,0.604148,0.618593,29.57,34.36,27.95,26.4,40.78,26.14,23.84,-7.08,1.21,3.82,26.4,27.95,34.36,0,7.96,-0.61
n_cut_0_0_opt.xyz,Nucleus 2H :,0.387413,0.376049,1.613685,29.92,34.09,29.71,25.96,40.18,27.32,29.76,-7.6,2.37,-2.28,25.96,29.71,34.09,0,8.13,-0.08
n_cut_0_0_opt.xyz,Nucleus 6H :,0.561102,1.439686,0.192174,26.45,31.63,25.43,22.3,43.97,28.59,22.13,-13.72,-1.83,0.23,22.3,25.43,31.63,0,9.33,-0.33
n_cut_0_0_opt.xyz,Nucleus 7H :,-1.477504,0.850897,0.718817,26.81,34.2,22.67,23.57,43.76,26.7,15.54,8.21,-10.53,-3.25,22.67,23.57,34.2,0,11.53,-0.84
n_cut_0_0_opt.xyz,Nucleus 8H :,-2.233103,0.149131,1.380003,29.44,34.06,27.33,26.92,40.33,30.42,25.36,1.7,-2.12,-7.38,26.92,27.33,34.06,0,7.14,-0.89
n_cut_0_0_opt.xyz,Nucleus 0C :,-1.942853,1.909892,0.000867,163.33,190.87,143.86,155.26,254.13,244.22,241.07,-62.32,-101.12,-86.0,143.86,155.26,190.87,0,47.01,-0.51
n_cut_0_0_opt.xyz,Nucleus 3C :,-1.346844,2.474902,-0.577091,6.58,-88.58,14.05,94.26,222.81,256.77,262.41,-346.27,-247.35,-128.64,-88.58,14.05,94.26,0,182.84,0.12
n_cut_0_0_opt.xyz,Nucleus 5N :,-2.934727,2.081714,-0.005434,144.76,47.86,241.05,145.37,296.53,325.76,332.27,-278.74,-90.27,-151.25,47.86,145.37,241.05,0,193.19,0.01
n_cut_0_0_opt.xyz,Nucleus 4O :,0.162185,-0.281619,-0.003805,-95.99,322.68,-221.71,-388.95,422.39,386.87,371.12,-48.92,-611.42,-808.03,-388.95,-221.71,322.68,0,711.63,-0.53
nf_cut_3_0_opt.xyz,Nucleus 7H :,0.966333,0.411993,0.28816,29.05,34.6,28.52,24.04,42.06,27.36,28.11,-8.89,1.01,-2.49,24.04,28.52,34.6,0,10.56,-0.15
nf_cut_3_0_opt.xyz,Nucleus 8H :,-0.515261,0.645699,0.295952,28.97,34.63,28.34,23.94,42.81,26.83,27.86,-9.54,1.51,-2.56,23.94,28.34,34.63,0,10.69,-0.18
nf_cut_3_0_opt.xyz,Nucleus 9H :,-1.115666,1.418057,-0.706058,23.68,28.27,22.5,20.26,46.0,32.24,29.6,-24.09,-3.77,-8.96,20.26,22.5,28.27,0,8.01,-0.44
nf_cut_3_0_opt.xyz,Nucleus 10H :,-2.497705,1.613895,-0.71512,23.61,26.93,22.99,20.92,47.35,30.5,16.19,-24.59,-3.61,5.0,20.92,22.99,26.93,0,6.01,-0.31
nf_cut_3_0_opt.xyz,Nucleus 11H :,-3.291989,1.030616,0.270234,23.79,21.21,23.6,26.55,10.21,44.61,33.63,-21.28,11.27,-7.09,21.21,23.6,26.55,0,5.34,-0.11
nf_cut_3_0_opt.xyz,Nucleus 12H :,-2.705475,0.247332,1.262597,23.48,26.91,22.68,20.84,46.74,30.2,16.05,-24.22,-3.53,5.19,20.84,22.68,26.91,0,6.07,-0.4
nf_cut_3_0_opt.xyz,Nucleus 13H :,-1.323386,0.050639,1.272692,23.55,28.36,22.17,20.13,46.44,30.76,30.27,-24.82,-2.43,-9.56,20.13,22.17,28.36,0,8.23,-0.5
nf_cut_3_0_opt.xyz,Nucleus 14H :,1.497342,1.235147,-0.196276,28.47,33.64,26.16,25.6,42.35,31.57,27.13,-10.81,-3.4,-1.44,25.6,26.16,33.64,0,8.04,-0.86
nf_cut_3_0_opt.xyz,Nucleus 16H :,1.355175,0.297863,1.303343,30.02,34.66,27.14,28.25,39.29,19.44,16.86,-5.15,7.96,11.65,27.14,28.25,34.66,0,7.52,-0.71
nf_cut_3_0_opt.xyz,Nucleus 17H :,-0.498345,1.87096,-1.476437,30.43,25.8,33.28,32.21,40.98,15.35,25.71,-7.86,10.65,6.46,25.8,32.21,33.28,0,7.48,0.71
nf_cut_3_0_opt.xyz,Nucleus 21H :,-2.952317,2.218191,-1.493952,26.29,43.65,21.51,13.71,32.72,39.27,44.54,1.0,-15.98,-22.69,13.71,21.51,43.65,0,29.94,-0.48
nf_cut_3_0_opt.xyz,Nucleus 22H :,-4.366284,1.191897,0.268462,27.23,44.18,21.24,16.26,54.15,26.83,34.0,3.11,-19.05,-17.36,16.26,21.24,44.18,0,27.92,-0.64
nf_cut_3_0_opt.xyz,Nucleus 23H :,-3.322881,-0.22012,2.022858,30.13,35.74,27.97,26.68,39.16,20.76,13.01,-4.1,7.69,13.88,26.68,27.97,35.74,0,9.06,-0.72
nf_cut_3_0_opt.xyz,Nucleus 0C :,-0.868363,-0.568334,2.039886,160.98,187.42,139.12,156.39,256.32,239.15,242.64,-68.28,-104.1,-82.79,139.12,156.39,187.42,0,48.3,-0.29
nf_cut_3_0_opt.xyz,Nucleus 1C :,1.212562,-0.506909,-0.259772,31.03,176.57,-77.27,-6.21,238.27,260.61,271.73,-61.77,-338.06,-277.69,-77.27,-6.21,176.57,0,253.84,-0.44
nf_cut_3_0_opt.xyz,Nucleus 2C :,-3.804023,-2.692052,-2.305417,41.88,-70.6,32.86,163.38,274.03,260.64,245.29,-331.82,-240.3,-82.22,-70.6,32.86,163.38,0,233.98,-0.12
nf_cut_3_0_opt.xyz,Nucleus 3C :,-4.024071,-2.338699,-3.318434,41.33,-76.95,24.55,176.38,273.18,261.47,234.86,-338.95,-247.99,-58.58,-76.95,24.55,176.38,0,253.33,-0.2
nf_cut_3_0_opt.xyz,Nucleus 4C :,-4.555176,-2.284278,-1.62312,49.03,-64.06,179.3,31.85,259.12,277.85,229.94,-50.89,-322.93,-246.0,-64.06,31.85,179.3,0,243.36,-0.21
nf_cut_3_0_opt.xyz,Nucleus 5C :,-2.399415,-2.290381,-1.955574,39.13,-79.97,20.93,176.42,272.54,259.2,234.7,-340.04,-250.63,-58.39,-79.97,20.93,176.42,0,256.39,-0.21
nf_cut_3_0_opt.xyz,Nucleus 6C :,-1.409632,-2.879428,-2.372893,38.91,-75.0,27.28,164.46,270.62,260.12,245.83,-335.28,-243.05,-81.5,-75.0,27.28,164.46,0,239.46,-0.15
nf_cut_3_0_opt.xyz,Nucleus 15C :,-2.288145,-1.200153,-1.147574,164.33,191.69,157.72,143.58,257.25,233.29,226.2,-63.97,-75.11,-84.68,143.58,157.72,191.69,0,48.11,-0.41
nf_cut_3_0_opt.xyz,Nucleus 18C :,-3.083627,-0.615996,-0.998541,5.74,-83.23,5.45,95.01,259.87,268.11,220.96,-345.27,-260.33,-126.12,-83.23,5.45,95.01,0,178.24,-0.0
nf_cut_3_0_opt.xyz,Nucleus 20N :,-1.376264,-0.793287,-1.084087,135.54,2.84,237.13,166.65,310.01,328.07,338.65,-324.57,-98.97,-146.57,2.84,166.65,237.13,0,234.29,0.4
nf_cut_3_0_opt.xyz,Nucleus 19O :,-3.876288,-3.781253,-2.317979,-84.72,-365.4,-206.82,318.05,425.69,392.09,403.16,-789.63,-600.38,-85.11,-365.4,-206.82,318.05,0,683.45,-0.54
nf_cut_3_0_opt_disp_struct_0.xyz,Nucleus 7H :,0.966333,0.411993,0.28816,29.07,34.6,28.54,24.08,42.14,27.67,28.47,-8.87,0.7,-2.88,24.08,28.54,34.6,0,10.52,-0.15
nf_cut_3_0_opt_disp_struct_0.xyz,Nucleus 8H :,-0.515261,0.645699,0.295952,28.99,34.64,28.36,23.97,42.85,27.2,28.15,-9.49,1.17,-2.91,23.97,28.36,34.64,0,10.67,-0.18
nf_cut_3_0_opt_disp_struct_0.xyz,Nucleus 9H :,-1.115666,1.418057,-0.706058,23.77,28.16,22.74,20.4,46.25,32.51,29.81,-24.05,-4.21,-9.01,20.4,22.74,28.16,0,7.76,-0.4
nf_cut_3_0_opt_disp_struct_0.xyz,Nucleus 10H :,-2.497705,1.613895,-0.71512,23.74,26.84,23.38,20.99,47.48,30.34,16.42,-24.31,-3.54,4.82,20.99,23.38,26.84,0,5.85,-0.18
nf_cut_3_0_opt_disp_struct_0.xyz,Nucleus 11H :,-3.291989,1.030616,0.270234,23.89,21.26,23.91,26.5,10.36,44.72,33.23,-21.06,11.15,-6.74,21.26,23.91,26.5,0,5.24,0.01
nf_cut_3_0_opt_disp_struct_0.xyz,Nucleus 12H :,-2.705475,0.247332,1.262597,23.61,26.82,23.11,20.91,46.9,30.12,16.14,-23.94,-3.5,5.14,20.91,23.11,26.82,0,5.91,-0.25
nf_cut_3_0_opt_disp_struct_0.xyz,Nucleus 13H :,-1.323386,0.050639,1.272692,23.65,28.24,22.45,20.27,46.7,31.17,30.32,-24.73,-2.97,-9.51,20.27,22.45,28.24,0,7.97,-0.45
nf_cut_3_0_opt_disp_struct_0.xyz,Nucleus 14H :,1.497342,1.235147,-0.196276,28.54,33.78,26.32,25.51,42.61,31.55,27.84,-2.14,-3.38,-10.86,25.51,26.32,33.78,0,8.27,-0.81
nf_cut_3_0_opt_disp_struct_0.xyz,Nucleus 16H :,1.355175,0.297863,1.303343,29.92,34.56,27.07,28.12,39.02,19.08,15.78,-5.02,8.19,12.68,27.07,28.12,34.56,0,7.49,-0.72
nf_cut_3_0_opt_disp_struct_0.xyz,Nucleus 17H :,-0.498345,1.87096,-1.476437,30.32,25.67,33.32,31.97,40.96,14.11,25.6,-7.84,11.8,6.32,25.67,31.97,33.32,0,7.65,0.65
nf_cut_3_0_opt_disp_struct_0.xyz,Nucleus 21H :,-2.952317,2.218191,-1.493952,27.52,41.32,23.93,17.31,31.31,44.42,38.58,1.44,-20.21,-12.98,17.31,23.93,41.32,0,24.01,-0.45
nf_cut_3_0_opt_disp_struct_0.xyz,Nucleus 22H :,-4.366284,1.191897,0.268462,28.27,41.86,23.64,19.3,52.37,29.71,37.89,0.08,-16.62,-18.63,19.3,23.64,41.86,0,22.56,-0.62
nf_cut_3_0_opt_disp_struct_0.xyz,Nucleus 23H :,-3.322881,-0.22012,2.022858,30.03,35.6,27.9,26.59,38.94,20.31,11.76,-4.02,8.03,15.07,26.59,27.9,35.6,0,9.01,-0.71
nf_cut_3_0_opt_disp_struct_0.xyz,Nucleus 0C :,-0.868363,-0.568334,2.039886,161.09,187.79,139.17,156.32,256.41,240.03,243.01,-68.07,-104.34,-83.75,139.17,156.32,187.79,0,48.62,-0.29
nf_cut_3_0_opt_disp_struct_0.xyz,Nucleus 1C :,1.212562,-0.506909,-0.259772,32.35,176.41,-75.39,-3.97,237.63,261.03,272.19,-61.3,-336.54,-275.96,-75.39,-3.97,176.41,0,251.8,-0.43
nf_cut_3_0_opt_disp_struct_0.xyz,Nucleus 2C :,-3.831049,-2.896464,-2.446786,43.69,-67.57,35.41,163.23,274.17,260.61,244.31,-328.95,-237.73,-81.34,-67.57,35.41,163.23,0,230.8,-0.11
nf_cut_3_0_opt_disp_struct_0.xyz,Nucleus 3C :,-4.051098,-2.543112,-3.459803,43.78,-73.16,28.26,176.25,272.74,261.55,233.43,-335.14,-243.98,-57.27,-73.16,28.26,176.25,0,249.41,-0.19
nf_cut_3_0_opt_disp_struct_0.xyz,Nucleus 4C :,-4.582203,-2.48869,-1.764488,50.45,-62.44,178.88,34.9,259.26,277.18,229.04,-50.34,-321.52,-242.27,-62.44,34.9,178.88,0,241.32,-0.19
nf_cut_3_0_opt_disp_struct_0.xyz,Nucleus 5C :,-2.426442,-2.494793,-2.096942,41.84,-75.79,24.97,176.35,272.17,259.62,233.47,-336.12,-246.42,-57.18,-75.79,24.97,176.35,0,252.14,-0.2
nf_cut_3_0_opt_disp_struct_0.xyz,Nucleus 6C :,-1.436659,-3.083841,-2.514261,41.18,-71.25,30.38,164.42,271.26,260.21,245.02,-331.88,-240.4,-80.65,-71.25,30.38,164.42,0,235.67,-0.14
nf_cut_3_0_opt_disp_struct_0.xyz,Nucleus 15C :,-2.315172,-1.404566,-1.288942,164.02,191.66,157.22,143.19,257.32,232.75,224.74,-63.99,-75.07,-83.68,143.19,157.22,191.66,0,48.47,-0.42
nf_cut_3_0_opt_disp_struct_0.xyz,Nucleus 18C :,-3.110654,-0.820409,-1.13991,4.93,-85.4,5.53,94.65,259.54,268.18,219.48,-346.93,-260.46,-125.02,-85.4,5.53,94.65,0,180.05,0.01
nf_cut_3_0_opt_disp_struct_0.xyz,Nucleus 20N :,-1.40329,-0.997699,-1.225456,140.35,21.37,241.59,158.08,311.12,327.04,336.56,-305.13,-92.86,-155.69,21.37,158.08,241.59,0,220.22,0.24
nf_cut_3_0_opt_disp_struct_0.xyz,Nucleus 19O :,-3.903315,-3.985665,-2.459348,-91.78,-378.5,-214.85,318.0,425.74,391.18,401.55,-802.93,-607.35,-83.54,-378.5,-214.85,318.0,0,696.5,-0.53
nf_cut_3_0_opt_disp_struct_1.xyz,Nucleus 7H :,0.966333,0.411993,0.28816,29.08,34.57,28.57,24.11,42.18,27.88,28.66,-8.89,0.53,-3.11,24.11,28.57,34.57,0,10.46,-0.15
nf_cut_3_0_opt_disp_struct_1.xyz,Nucleus 8H :,-0.515261,0.645699,0.295952,29.0,34.62,28.39,24.0,42.84,27.43,28.36,-9.47,0.98,-3.14,24.0,28.39,34.62,0,10.62,-0.17
nf_cut_3_0_opt_disp_struct_1.xyz,Nucleus 9H :,-1.115666,1.418057,-0.706058,23.8,28.13,22.78,20.49,46.42,32.56,29.94,-24.12,-4.39,-9.01,20.49,22.78,28.13,0,7.64,-0.4
nf_cut_3_0_opt_disp_struct_1.xyz,Nucleus 10H :,-2.497705,1.613895,-0.71512,23.79,26.83,23.51,21.04,47.51,30.21,16.42,-24.18,-3.43,4.85,21.04,23.51,26.83,0,5.79,-0.15
nf_cut_3_0_opt_disp_struct_1.xyz,Nucleus 11H :,-3.291989,1.030616,0.270234,23.94,21.3,24.0,26.51,10.3,44.77,32.98,-20.98,11.22,-6.47,21.3,24.0,26.51,0,5.21,0.03
nf_cut_3_0_opt_disp_struct_1.xyz,Nucleus 12H :,-2.705475,0.247332,1.262597,23.69,26.81,23.29,20.97,46.95,30.1,16.25,-23.8,-3.49,5.04,20.97,23.29,26.81,0,5.84,-0.21
nf_cut_3_0_opt_disp_struct_1.xyz,Nucleus 13H :,-1.323386,0.050639,1.272692,23.7,28.2,22.53,20.38,46.86,31.41,30.36,-24.76,-3.24,-9.51,20.38,22.53,28.2,0,7.82,-0.45
nf_cut_3_0_opt_disp_struct_1.xyz,Nucleus 14H :,1.497342,1.235147,-0.196276,28.58,33.86,26.38,25.49,42.8,31.51,28.27,-2.45,-3.48,-10.91,25.49,26.38,33.86,0,8.37,-0.79
nf_cut_3_0_opt_disp_struct_1.xyz,Nucleus 16H :,1.355175,0.297863,1.303343,29.84,34.47,27.03,28.01,38.82,18.86,14.86,-4.95,8.35,13.58,27.03,28.01,34.47,0,7.44,-0.74
nf_cut_3_0_opt_disp_struct_1.xyz,Nucleus 17H :,-0.498345,1.87096,-1.476437,30.24,25.62,33.37,31.73,41.01,13.29,25.51,-7.88,12.6,6.2,25.62,31.73,33.37,0,7.75,0.58
nf_cut_3_0_opt_disp_struct_1.xyz,Nucleus 21H :,-2.952317,2.218191,-1.493952,27.99,39.42,25.23,19.31,45.24,30.98,37.29,1.43,-19.77,-11.2,19.31,25.23,39.42,0,20.11,-0.41
nf_cut_3_0_opt_disp_struct_1.xyz,Nucleus 22H :,-4.366284,1.191897,0.268462,28.59,40.11,24.69,20.97,51.09,31.17,40.15,-1.96,-15.5,-19.17,20.97,24.69,40.11,0,19.14,-0.61
nf_cut_3_0_opt_disp_struct_1.xyz,Nucleus 23H :,-3.322881,-0.22012,2.022858,29.95,35.47,27.86,26.53,38.76,19.91,10.71,-3.97,8.35,16.09,26.53,27.86,35.47,0,8.94,-0.7
nf_cut_3_0_opt_disp_struct_1.xyz,Nucleus 0C :,-0.868363,-0.568334,2.039886,161.13,187.96,139.16,156.26,256.42,240.55,243.25,-67.99,-104.52,-84.33,139.16,156.26,187.96,0,48.8,-0.3
nf_cut_3_0_opt_disp_struct_1.xyz,Nucleus 1C :,1.212562,-0.506909,-0.259772,33.08,176.19,-74.59,-2.35,237.32,261.31,272.27,-61.2,-335.99,-274.46,-74.59,-2.35,176.19,0,250.78,-0.42
nf_cut_3_0_opt_disp_struct_1.xyz,Nucleus 2C :,-3.858076,-3.100877,-2.588154,44.69,-66.15,37.25,162.96,273.97,260.65,243.71,-327.69,-235.64,-80.95,-66.15,37.25,162.96,0,229.11,-0.1
nf_cut_3_0_opt_disp_struct_1.xyz,Nucleus 3C :,-4.078125,-2.747524,-3.601171,45.14,-71.22,30.69,175.96,272.2,261.42,232.39,-333.02,-241.09,-56.46,-71.22,30.69,175.96,0,247.18,-0.18
nf_cut_3_0_opt_disp_struct_1.xyz,Nucleus 4C :,-4.60923,-2.693103,-1.905856,51.07,-61.87,178.48,36.61,259.39,276.42,228.22,-49.86,-321.14,-239.8,-61.87,36.61,178.48,0,240.35,-0.18
nf_cut_3_0_opt_disp_struct_1.xyz,Nucleus 5C :,-2.453469,-2.699206,-2.238311,43.51,-73.42,27.82,176.13,271.78,259.76,232.43,-333.8,-243.27,-56.37,-73.42,27.82,176.13,0,249.55,-0.19
nf_cut_3_0_opt_disp_struct_1.xyz,Nucleus 6C :,-1.463686,-3.288254,-2.65563,42.63,-69.12,32.79,164.23,271.52,260.27,244.28,-330.02,-238.07,-80.07,-69.12,32.79,164.23,0,233.35,-0.13
nf_cut_3_0_opt_disp_struct_1.xyz,Nucleus 15C :,-2.342198,-1.608978,-1.430311,163.82,191.6,156.87,142.99,257.43,232.29,223.6,-64.07,-74.89,-82.88,142.99,156.87,191.6,0,48.61,-0.43
nf_cut_3_0_opt_disp_struct_1.xyz,Nucleus 18C :,-3.137681,-1.024821,-1.281278,4.58,-86.73,6.02,94.45,268.46,259.43,218.32,-347.96,-260.43,-124.08,-86.73,6.02,94.45,0,181.18,0.02
nf_cut_3_0_opt_disp_struct_1.xyz,Nucleus 20N :,-1.430317,-1.202112,-1.366824,142.86,31.78,243.76,153.04,311.41,325.97,335.56,-293.83,-89.55,-160.98,31.78,153.04,243.76,0,211.98,0.14
nf_cut_3_0_opt_disp_struct_1.xyz,Nucleus 19O :,-3.930341,-4.190078,-2.600716,-96.21,-386.68,-219.94,318.0,425.82,390.47,399.91,-811.25,-611.66,-81.91,-386.68,-219.94,318.0,0,704.68,-0.53
nf_cut_3_0_opt_disp_struct_10.xyz,Nucleus 7H :,0.966333,0.411993,0.28816,29.13,34.41,28.72,24.25,41.79,28.17,28.6,-8.77,0.55,-2.97,24.25,28.72,34.41,0,10.16,-0.12
nf_cut_3_0_opt_disp_struct_10.xyz,Nucleus 8H :,-0.515261,0.645699,0.295952,29.05,34.41,28.56,24.17,42.37,27.56,28.54,-9.28,1.01,-3.05,24.17,28.56,34.41,0,10.24,-0.14
nf_cut_3_0_opt_disp_struct_10.xyz,Nucleus 9H :,-1.115666,1.418057,-0.706058,23.84,28.42,22.33,20.78,46.13,32.24,29.64,-23.87,-3.88,-8.73,20.78,22.33,28.42,0,7.64,-0.59
nf_cut_3_0_opt_disp_struct_10.xyz,Nucleus 10H :,-2.497705,1.613895,-0.71512,23.84,27.1,23.36,21.05,46.94,30.19,15.55,-23.58,-3.12,5.54,21.05,23.36,27.1,0,6.05,-0.24
nf_cut_3_0_opt_disp_struct_10.xyz,Nucleus 11H :,-3.291989,1.030616,0.270234,23.96,21.17,23.8,26.92,8.81,44.34,32.56,-20.55,12.37,-5.64,21.17,23.8,26.92,0,5.75,-0.08
nf_cut_3_0_opt_disp_struct_10.xyz,Nucleus 12H :,-2.705475,0.247332,1.262597,23.8,27.08,23.31,21.02,46.42,30.67,16.33,-23.11,-3.64,4.74,21.02,23.31,27.08,0,6.06,-0.24
nf_cut_3_0_opt_disp_struct_10.xyz,Nucleus 13H :,-1.323386,0.050639,1.272692,23.81,28.45,22.26,20.72,46.79,31.68,30.29,-24.64,-3.26,-9.43,20.72,22.26,28.45,0,7.73,-0.6
nf_cut_3_0_opt_disp_struct_10.xyz,Nucleus 14H :,1.497342,1.235147,-0.196276,28.73,34.28,26.09,25.81,42.91,31.05,28.56,-2.32,-3.41,-10.6,25.81,26.09,34.28,0,8.47,-0.94
nf_cut_3_0_opt_disp_struct_10.xyz,Nucleus 16H :,1.355175,0.297863,1.303343,29.59,34.12,27.08,27.57,37.97,18.08,8.66,-4.88,9.02,19.92,27.08,27.57,34.12,0,7.04,-0.86
nf_cut_3_0_opt_disp_struct_10.xyz,Nucleus 17H :,-0.498345,1.87096,-1.476437,29.98,25.76,33.71,30.46,42.38,9.91,25.46,-9.3,16.26,5.23,25.76,30.46,33.71,0,7.95,0.18
nf_cut_3_0_opt_disp_struct_10.xyz,Nucleus 21H :,-2.952317,2.218191,-1.493952,27.28,33.13,26.49,22.22,50.93,30.0,38.98,-0.2,-23.86,-14.01,22.22,26.49,33.13,0,10.91,-0.22
nf_cut_3_0_opt_disp_struct_10.xyz,Nucleus 22H :,-4.366284,1.191897,0.268462,27.56,35.35,23.91,23.43,32.5,46.0,49.6,-25.45,-13.75,-6.2,23.43,23.91,35.35,0,11.92,-0.92
nf_cut_3_0_opt_disp_struct_10.xyz,Nucleus 23H :,-3.322881,-0.22012,2.022858,29.7,34.84,27.88,26.39,37.94,17.39,3.27,-3.83,10.67,23.66,26.39,27.88,34.84,0,8.45,-0.65
nf_cut_3_0_opt_disp_struct_10.xyz,Nucleus 0C :,-0.868363,-0.568334,2.039886,161.1,188.12,138.77,156.42,255.41,239.57,243.03,-67.11,-104.39,-83.18,138.77,156.42,188.12,0,49.35,-0.28
nf_cut_3_0_opt_disp_struct_10.xyz,Nucleus 1C :,1.212562,-0.506909,-0.259772,34.28,175.05,-74.12,1.9,236.45,260.7,269.56,-61.44,-334.85,-267.58,-74.12,1.9,175.05,0,249.17,-0.39
nf_cut_3_0_opt_disp_struct_10.xyz,Nucleus 2C :,-4.101318,-4.94059,-3.86047,45.49,-65.48,40.5,161.46,271.72,260.46,242.91,-326.5,-230.61,-81.51,-65.48,40.5,161.46,0,226.94,-0.07
nf_cut_3_0_opt_disp_struct_10.xyz,Nucleus 3C :,-4.321366,-4.587238,-4.873487,46.32,-69.66,34.17,174.46,270.66,260.33,230.98,-330.2,-236.26,-56.53,-69.66,34.17,174.46,0,244.12,-0.15
nf_cut_3_0_opt_disp_struct_10.xyz,Nucleus 4C :,-4.852472,-4.532817,-3.178172,50.46,-63.03,177.05,37.36,226.93,258.17,273.4,-49.97,-321.13,-236.03,-63.03,37.36,177.05,0,240.08,-0.16
nf_cut_3_0_opt_disp_struct_10.xyz,Nucleus 5C :,-2.69671,-4.53892,-3.510626,46.05,-70.04,33.49,174.71,271.41,259.49,231.51,-329.89,-237.54,-56.82,-70.04,33.49,174.71,0,244.75,-0.15
nf_cut_3_0_opt_disp_struct_10.xyz,Nucleus 6C :,-1.706928,-5.127967,-3.927946,45.27,-65.81,38.75,162.86,270.74,261.32,243.1,-327.51,-231.57,-80.28,-65.81,38.75,162.86,0,228.67,-0.09
nf_cut_3_0_opt_disp_struct_10.xyz,Nucleus 15C :,-2.58544,-3.448692,-2.702627,163.31,191.27,155.81,142.86,258.91,230.45,217.6,-65.19,-72.7,-79.12,142.86,155.81,191.27,0,48.41,-0.46
nf_cut_3_0_opt_disp_struct_10.xyz,Nucleus 18C :,-3.380922,-2.864535,-2.553594,4.28,-90.26,8.74,94.37,270.74,257.21,208.72,-349.2,-259.93,-114.68,-90.26,8.74,94.37,0,184.63,0.07
nf_cut_3_0_opt_disp_struct_10.xyz,Nucleus 20N :,-1.673559,-3.041825,-2.63914,145.86,46.39,244.05,147.13,312.93,326.84,335.26,-280.54,-84.21,-172.71,46.39,147.13,244.05,0,197.66,0.02
nf_cut_3_0_opt_disp_struct_10.xyz,Nucleus 19O :,-4.173583,-6.029791,-3.873032,-105.99,-405.1,-231.51,318.64,427.35,386.84,390.42,-831.15,-619.69,-71.75,-405.1,-231.51,318.64,0,723.74,-0.52
nf_cut_3_0_opt_disp_struct_11.xyz,Nucleus 7H :,0.966333,0.411993,0.28816,29.13,34.4,28.73,24.26,41.76,28.16,28.58,-8.75,0.57,-2.93,24.26,28.73,34.4,0,10.14,-0.12
nf_cut_3_0_opt_disp_struct_11.xyz,Nucleus 8H :,-0.515261,0.645699,0.295952,29.05,34.41,28.57,24.17,42.35,27.54,28.51,-9.29,1.03,-3.0,24.17,28.57,34.41,0,10.24,-0.14
nf_cut_3_0_opt_disp_struct_11.xyz,Nucleus 9H :,-1.115666,1.418057,-0.706058,23.85,28.44,22.32,20.79,46.06,32.21,29.6,-23.8,-3.82,-8.71,20.79,22.32,28.44,0,7.65,-0.6
nf_cut_3_0_opt_disp_struct_11.xyz,Nucleus 10H :,-2.497705,1.613895,-0.71512,23.84,27.12,23.36,21.03,46.85,30.18,15.5,-23.49,-3.09,5.56,21.03,23.36,27.12,0,6.09,-0.24
nf_cut_3_0_opt_disp_struct_11.xyz,Nucleus 11H :,-3.291989,1.030616,0.270234,23.97,21.16,23.8,26.95,8.76,44.31,32.5,-20.51,12.41,-5.56,21.16,23.8,26.95,0,5.79,-0.09
nf_cut_3_0_opt_disp_struct_11.xyz,Nucleus 12H :,-2.705475,0.247332,1.262597,23.81,27.1,23.32,21.0,46.34,30.68,16.3,-23.02,-3.62,4.75,21.0,23.32,27.1,0,6.1,-0.24
nf_cut_3_0_opt_disp_struct_11.xyz,Nucleus 13H :,-1.323386,0.050639,1.272692,23.81,28.46,22.25,20.73,46.72,31.67,30.26,-24.56,-3.23,-9.42,20.73,22.25,28.46,0,7.73,-0.61
nf_cut_3_0_opt_disp_struct_11.xyz,Nucleus 14H :,1.497342,1.235147,-0.196276,28.73,34.31,26.09,25.8,42.89,31.02,28.5,-2.26,-3.38,-10.57,25.8,26.09,34.31,0,8.51,-0.93
nf_cut_3_0_opt_disp_struct_11.xyz,Nucleus 16H :,1.355175,0.297863,1.303343,29.58,34.11,27.09,27.54,37.93,17.98,8.02,-4.9,9.12,20.59,27.09,27.54,34.11,0,7.02,-0.87
nf_cut_3_0_opt_disp_struct_11.xyz,Nucleus 17H :,-0.498345,1.87096,-1.476437,29.97,25.78,33.73,30.39,42.55,9.55,25.46,-9.49,16.65,5.18,25.78,30.39,33.73,0,7.95,0.16
nf_cut_3_0_opt_disp_struct_11.xyz,Nucleus 21H :,-2.952317,2.218191,-1.493952,27.22,32.93,26.45,22.27,51.4,29.82,39.57,-0.24,-24.4,-14.49,22.27,26.45,32.93,0,10.66,-0.22
nf_cut_3_0_opt_disp_struct_11.xyz,Nucleus 22H :,-4.366284,1.191897,0.268462,27.5,35.21,23.82,23.46,32.53,45.94,50.31,-26.22,-13.8,-6.26,23.46,23.82,35.21,0,11.75,-0.94
nf_cut_3_0_opt_disp_struct_11.xyz,Nucleus 23H :,-3.322881,-0.22012,2.022858,29.69,34.8,27.88,26.38,37.89,17.12,2.48,-3.82,10.93,24.46,26.38,27.88,34.8,0,8.42,-0.64
nf_cut_3_0_opt_disp_struct_11.xyz,Nucleus 0C :,-0.868363,-0.568334,2.039886,161.11,188.13,138.74,156.45,255.37,239.49,243.01,-67.07,-104.4,-83.08,138.74,156.45,188.13,0,49.39,-0.28
nf_cut_3_0_opt_disp_struct_11.xyz,Nucleus 1C :,1.212562,-0.506909,-0.259772,34.32,175.01,-74.09,2.05,236.39,260.71,269.36,-61.43,-334.83,-267.24,-74.09,2.05,175.01,0,249.1,-0.39
nf_cut_3_0_opt_disp_struct_11.xyz,Nucleus 2C :,-4.128345,-5.145003,-4.001838,45.48,-65.5,40.54,161.39,271.59,260.39,242.88,-326.41,-230.48,-81.55,-65.5,40.54,161.39,0,226.89,-0.07
nf_cut_3_0_opt_disp_struct_11.xyz,Nucleus 3C :,-4.348393,-4.79165,-5.014856,46.29,-69.68,34.16,174.39,270.57,260.21,230.93,-330.07,-236.21,-56.56,-69.68,34.16,174.39,0,244.07,-0.15
nf_cut_3_0_opt_disp_struct_11.xyz,Nucleus 4C :,-4.879498,-4.737229,-3.319541,50.4,-63.08,176.98,37.3,226.83,258.12,273.22,-49.95,-321.12,-235.9,-63.08,37.3,176.98,0,240.06,-0.16
nf_cut_3_0_opt_disp_struct_11.xyz,Nucleus 5C :,-2.723737,-4.743332,-3.651995,46.07,-70.0,33.57,174.65,271.34,259.42,231.48,-329.75,-237.41,-56.85,-70.0,33.57,174.65,0,244.65,-0.15
nf_cut_3_0_opt_disp_struct_11.xyz,Nucleus 6C :,-1.733954,-5.33238,-4.069314,45.32,-65.74,38.89,162.8,270.67,261.25,243.06,-327.34,-231.38,-80.3,-65.74,38.89,162.8,0,228.54,-0.08
nf_cut_3_0_opt_disp_struct_11.xyz,Nucleus 15C :,-2.612467,-3.653105,-2.843995,163.3,191.24,155.77,142.89,259.1,230.26,217.01,-65.25,-72.44,-78.77,142.89,155.77,191.24,0,48.35,-0.47
nf_cut_3_0_opt_disp_struct_11.xyz,Nucleus 18C :,-3.407949,-3.068947,-2.694962,4.26,-90.4,8.84,94.35,270.96,257.0,207.76,-349.14,-260.05,-113.74,-90.4,8.84,94.35,0,184.75,0.07
nf_cut_3_0_opt_disp_struct_11.xyz,Nucleus 20N :,-1.700586,-3.246238,-2.780508,145.94,46.66,243.94,147.22,312.97,327.01,335.61,-280.46,-83.95,-173.36,46.66,147.22,243.94,0,197.28,0.02
nf_cut_3_0_opt_disp_struct_11.xyz,Nucleus 19O :,-4.20061,-6.234204,-4.014401,-106.27,-405.61,-231.81,318.61,427.48,386.57,389.75,-831.78,-619.72,-71.11,-405.61,-231.81,318.61,0,724.22,-0.52
nf_cut_3_0_opt_disp_struct_12.xyz,Nucleus 7H :,0.966333,0.411993,0.28816,29.13,34.4,28.74,24.26,41.73,28.15,28.56,-8.74,0.6,-2.89,24.26,28.74,34.4,0,10.14,-0.12
nf_cut_3_0_opt_disp_struct_12.xyz,Nucleus 8H :,-0.515261,0.645699,0.295952,29.05,34.4,28.58,24.18,42.33,27.53,28.49,-9.29,1.06,-2.95,24.18,28.58,34.4,0,10.22,-0.14
nf_cut_3_0_opt_disp_struct_12.xyz,Nucleus 9H :,-1.115666,1.418057,-0.706058,23.85,28.45,22.31,20.78,45.99,32.18,29.57,-23.73,-3.77,-8.7,20.78,22.31,28.45,0,7.67,-0.6
nf_cut_3_0_opt_disp_struct_12.xyz,Nucleus 10H :,-2.497705,1.613895,-0.71512,23.84,27.14,23.36,21.01,46.75,30.18,15.45,-23.39,-3.07,5.58,21.01,23.36,27.14,0,6.13,-0.23
nf_cut_3_0_opt_disp_struct_12.xyz,Nucleus 11H :,-3.291989,1.030616,0.270234,23.96,21.13,23.8,26.96,8.71,44.27,32.44,-20.48,12.43,-5.48,21.13,23.8,26.96,0,5.83,-0.08
nf_cut_3_0_opt_disp_struct_12.xyz,Nucleus 12H :,-2.705475,0.247332,1.262597,23.81,27.12,23.33,20.98,46.26,30.68,16.26,-22.93,-3.6,4.76,20.98,23.33,27.12,0,6.14,-0.23
nf_cut_3_0_opt_disp_struct_12.xyz,Nucleus 13H :,-1.323386,0.050639,1.272692,23.82,28.48,22.25,20.73,46.65,31.66,30.24,-24.48,-3.2,-9.41,20.73,22.25,28.48,0,7.75,-0.61
nf_cut_3_0_opt_disp_struct_12.xyz,Nucleus 14H :,1.497342,1.235147,-0.196276,28.74,34.33,25.79,26.09,42.87,31.0,28.43,-2.2,-3.34,-10.55,25.79,26.09,34.33,0,8.54,-0.93
nf_cut_3_0_opt_disp_struct_12.xyz,Nucleus 16H :,1.355175,0.297863,1.303343,29.57,34.09,27.09,27.52,37.89,17.88,7.37,-4.92,9.23,21.26,27.09,27.52,34.09,0,7.0,-0.88
nf_cut_3_0_opt_disp_struct_12.xyz,Nucleus 17H :,-0.498345,1.87096,-1.476437,29.95,25.79,33.75,30.32,42.72,9.2,25.46,-9.68,17.03,5.13,25.79,30.32,33.75,0,7.96,0.14
nf_cut_3_0_opt_disp_struct_12.xyz,Nucleus 21H :,-2.952317,2.218191,-1.493952,27.17,32.77,26.42,22.32,51.85,29.67,40.16,-0.26,-24.95,-14.96,22.32,26.42,32.77,0,10.45,-0.22
nf_cut_3_0_opt_disp_struct_12.xyz,Nucleus 22H :,-4.366284,1.191897,0.268462,27.44,35.1,23.76,23.47,32.58,45.86,51.05,-26.98,-13.87,-6.31,23.47,23.76,35.1,0,11.63,-0.95
nf_cut_3_0_opt_disp_struct_12.xyz,Nucleus 23H :,-3.322881,-0.22012,2.022858,29.68,34.77,27.88,26.38,37.85,16.85,1.69,-3.81,11.19,25.27,26.38,27.88,34.77,0,8.39,-0.64
nf_cut_3_0_opt_disp_struct_12.xyz,Nucleus 0C :,-0.868363,-0.568334,2.039886,161.11,188.14,138.71,156.47,255.33,239.42,243.0,-67.03,-104.42,-82.97,138.71,156.47,188.14,0,49.43,-0.28
nf_cut_3_0_opt_disp_struct_12.xyz,Nucleus 1C :,1.212562,-0.506909,-0.259772,34.36,174.96,-74.05,2.18,236.34,260.72,269.17,-61.42,-334.8,-266.91,-74.05,2.18,174.96,0,249.01,-0.39
nf_cut_3_0_opt_disp_struct_12.xyz,Nucleus 2C :,-4.155372,-5.349416,-4.143207,45.47,-65.5,40.57,161.33,271.47,260.32,242.84,-326.31,-230.35,-81.57,-65.5,40.57,161.33,0,226.83,-0.06
nf_cut_3_0_opt_disp_struct_12.xyz,Nucleus 3C :,-4.37542,-4.996063,-5.156224,46.27,-69.69,34.15,174.34,270.49,260.08,230.89,-329.93,-236.15,-56.58,-69.69,34.15,174.34,0,244.03,-0.15
nf_cut_3_0_opt_disp_struct_12.xyz,Nucleus 4C :,-4.906525,-4.941642,-3.460909,50.36,-63.11,176.94,37.25,226.75,258.08,273.04,-49.92,-321.1,-235.77,-63.11,37.25,176.94,0,240.05,-0.16
nf_cut_3_0_opt_disp_struct_12.xyz,Nucleus 5C :,-2.750764,-4.947745,-3.793363,46.09,-69.96,33.64,174.59,271.25,259.35,231.44,-329.61,-237.28,-56.88,-69.96,33.64,174.59,0,244.55,-0.15
nf_cut_3_0_opt_disp_struct_12.xyz,Nucleus 6C :,-1.760981,-5.536792,-4.210683,45.36,-65.68,39.01,162.74,270.6,261.18,243.03,-327.18,-231.22,-80.33,-65.68,39.01,162.74,0,228.42,-0.08
nf_cut_3_0_opt_disp_struct_12.xyz,Nucleus 15C :,-2.639494,-3.857517,-2.985364,163.28,191.22,155.73,142.9,259.29,230.07,216.42,-65.29,-72.2,-78.44,142.9,155.73,191.22,0,48.32,-0.47
nf_cut_3_0_opt_disp_struct_12.xyz,Nucleus 18C :,-3.434976,-3.27336,-2.836331,4.25,-90.53,8.91,94.37,271.19,256.82,206.81,-349.07,-260.2,-112.79,-90.53,8.91,94.37,0,184.9,0.08
nf_cut_3_0_opt_disp_struct_12.xyz,Nucleus 20N :,-1.727613,-3.450651,-2.921877,146.0,46.88,243.83,147.28,312.87,327.13,336.02,-280.37,-83.7,-173.96,46.88,147.28,243.83,0,196.95,0.02
nf_cut_3_0_opt_disp_struct_12.xyz,Nucleus 19O :,-4.227637,-6.438617,-4.155769,-106.49,-406.05,-232.08,318.65,427.62,386.32,389.03,-832.35,-619.75,-70.36,-406.05,-232.08,318.65,0,724.7,-0.52
nf_cut_3_0_opt_disp_struct_13.xyz,Nucleus 7H :,0.966333,0.411993,0.28816,29.14,34.4,28.75,24.26,41.7,28.13,28.54,-8.73,0.62,-2.86,24.26,28.75,34.4,0,10.14,-0.12
nf_cut_3_0_opt_disp_struct_13.xyz,Nucleus 8H :,-0.515261,0.645699,0.295952,29.05,34.39,28.59,24.18,42.31,27.51,28.47,-9.29,1.08,-2.91,24.18,28.59,34.39,0,10.21,-0.14
nf_cut_3_0_opt_disp_struct_13.xyz,Nucleus 9H :,-1.115666,1.418057,-0.706058,23.85,28.47,22.3,20.78,45.92,32.15,29.54,-23.66,-3.73,-8.68,20.78,22.3,28.47,0,7.69,-0.6
nf_cut_3_0_opt_disp_struct_13.xyz,Nucleus 10H :,-2.497705,1.613895,-0.71512,23.83,27.15,23.36,20.99,46.66,30.17,15.41,-23.3,-3.05,5.61,20.99,23.36,27.15,0,6.16,-0.23
nf_cut_3_0_opt_disp_struct_13.xyz,Nucleus 11H :,-3.291989,1.030616,0.270234,23.96,21.11,23.8,26.98,8.67,44.24,32.38,-20.44,12.45,-5.41,21.11,23.8,26.98,0,5.87,-0.08
nf_cut_3_0_opt_disp_struct_13.xyz,Nucleus 12H :,-2.705475,0.247332,1.262597,23.81,27.13,23.33,20.97,46.19,30.67,16.23,-22.85,-3.58,4.77,20.97,23.33,27.13,0,6.16,-0.23
nf_cut_3_0_opt_disp_struct_13.xyz,Nucleus 13H :,-1.323386,0.050639,1.272692,23.82,28.49,22.25,20.73,46.57,31.64,30.21,-24.39,-3.17,-9.4,20.73,22.25,28.49,0,7.76,-0.61
nf_cut_3_0_opt_disp_struct_13.xyz,Nucleus 14H :,1.497342,1.235147,-0.196276,28.74,34.35,25.77,26.09,42.84,30.97,28.36,-2.13,-3.3,-10.53,25.77,26.09,34.35,0,8.58,-0.93
nf_cut_3_0_opt_disp_struct_13.xyz,Nucleus 16H :,1.355175,0.297863,1.303343,29.56,34.08,27.1,27.5,37.87,17.77,6.73,-4.95,9.34,21.92,27.1,27.5,34.08,0,6.98,-0.89
nf_cut_3_0_opt_disp_struct_13.xyz,Nucleus 17H :,-0.498345,1.87096,-1.476437,29.94,25.8,33.76,30.26,42.9,8.85,25.45,-9.87,17.41,5.09,25.8,30.26,33.76,0,7.96,0.12
nf_cut_3_0_opt_disp_struct_13.xyz,Nucleus 21H :,-2.952317,2.218191,-1.493952,27.13,32.64,26.39,22.35,29.54,52.3,40.75,-0.28,-25.5,-15.42,22.35,26.39,32.64,0,10.29,-0.22
nf_cut_3_0_opt_disp_struct_13.xyz,Nucleus 22H :,-4.366284,1.191897,0.268462,27.4,35.01,23.74,23.46,32.63,45.8,51.81,-27.75,-13.95,-6.34,23.46,23.74,35.01,0,11.55,-0.95
nf_cut_3_0_opt_disp_struct_13.xyz,Nucleus 23H :,-3.322881,-0.22012,2.022858,29.67,34.74,27.89,26.37,37.81,16.57,0.9,-3.81,11.46,26.06,26.37,27.89,34.74,0,8.37,-0.64
nf_cut_3_0_opt_disp_struct_13.xyz,Nucleus 0C :,-0.868363,-0.568334,2.039886,161.11,188.15,138.68,156.5,255.3,239.34,242.98,-66.99,-104.42,-82.87,138.68,156.5,188.15,0,49.47,-0.28
nf_cut_3_0_opt_disp_struct_13.xyz,Nucleus 1C :,1.212562,-0.506909,-0.259772,34.4,174.92,-74.02,2.31,236.29,260.72,268.99,-61.41,-334.77,-266.61,-74.02,2.31,174.92,0,248.94,-0.39
nf_cut_3_0_opt_disp_struct_13.xyz,Nucleus 2C :,-4.182398,-5.553828,-4.284575,45.46,-65.5,40.6,161.28,271.35,260.25,242.81,-326.21,-230.24,-81.59,-65.5,40.6,161.28,0,226.78,-0.06
nf_cut_3_0_opt_disp_struct_13.xyz,Nucleus 3C :,-4.402447,-5.200476,-5.297592,46.25,-69.69,34.14,174.29,270.42,259.96,230.85,-329.8,-236.1,-56.59,-69.69,34.14,174.29,0,243.98,-0.15
nf_cut_3_0_opt_disp_struct_13.xyz,Nucleus 4C :,-4.933552,-5.146054,-3.602278,50.33,-63.13,176.9,37.22,226.69,258.04,272.87,-49.89,-321.08,-235.64,-63.13,37.22,176.9,0,240.03,-0.16
nf_cut_3_0_opt_disp_struct_13.xyz,Nucleus 5C :,-2.777791,-5.152157,-3.934732,46.1,-69.93,33.7,174.54,271.17,259.27,231.41,-329.48,-237.17,-56.9,-69.93,33.7,174.54,0,244.47,-0.15
nf_cut_3_0_opt_disp_struct_13.xyz,Nucleus 6C :,-1.788008,-5.741205,-4.352051,45.38,-65.64,39.11,162.68,270.53,261.1,243.0,-327.04,-231.07,-80.35,-65.64,39.11,162.68,0,228.32,-0.08
nf_cut_3_0_opt_disp_struct_13.xyz,Nucleus 15C :,-2.66652,-4.06193,-3.126732,163.27,191.21,155.7,142.91,259.49,229.89,215.87,-65.3,-72.0,-78.14,142.91,155.7,191.21,0,48.3,-0.47
nf_cut_3_0_opt_disp_struct_13.xyz,Nucleus 18C :,-3.462003,-3.477773,-2.977699,4.24,-90.63,8.97,94.38,271.41,256.64,205.86,-349.0,-260.36,-111.85,-90.63,8.97,94.38,0,185.01,0.08
nf_cut_3_0_opt_disp_struct_13.xyz,Nucleus 20N :,-1.754639,-3.655063,-3.063245,146.04,47.07,243.73,147.33,312.7,327.27,336.46,-280.31,-83.46,-174.55,47.07,147.33,243.73,0,196.66,0.02
nf_cut_3_0_opt_disp_struct_13.xyz,Nucleus 19O :,-4.254664,-6.643029,-4.297137,-106.69,-406.44,-232.32,318.69,427.76,386.08,388.27,-832.87,-619.75,-69.57,-406.44,-232.32,318.69,0,725.13,-0.52
nf_cut_3_0_opt_disp_struct_14.xyz,Nucleus 7H :,0.966333,0.411993,0.28816,29.13,34.39,28.75,24.26,41.67,28.11,28.52,-8.73,0.65,-2.82,24.26,28.75,34.39,0,10.13,-0.11
nf_cut_3_0_opt_disp_struct_14.xyz,Nucleus 8H :,-0.515261,0.645699,0.295952,29.06,34.39,28.6,24.19,42.29,27.49,28.45,-9.29,1.1,-2.86,24.19,28.6,34.39,0,10.2,-0.14
nf_cut_3_0_opt_disp_struct_14.xyz,Nucleus 9H :,-1.115666,1.418057,-0.706058,23.85,28.48,22.3,20.77,45.86,32.11,29.52,-23.59,-3.68,-8.67,20.77,22.3,28.48,0,7.71,-0.6
nf_cut_3_0_opt_disp_struct_14.xyz,Nucleus 10H :,-2.497705,1.613895,-0.71512,23.84,27.16,23.37,20.98,46.57,30.16,15.38,-23.2,-3.03,5.62,20.98,23.37,27.16,0,6.18,-0.23
nf_cut_3_0_opt_disp_struct_14.xyz,Nucleus 11H :,-3.291989,1.030616,0.270234,23.97,21.1,23.81,26.99,8.63,44.21,32.32,-20.41,12.46,-5.33,21.1,23.81,26.99,0,5.89,-0.08
nf_cut_3_0_opt_disp_struct_14.xyz,Nucleus 12H :,-2.705475,0.247332,1.262597,23.81,27.14,23.34,20.95,46.11,30.67,16.21,-22.77,-3.56,4.78,20.95,23.34,27.14,0,6.19,-0.23
nf_cut_3_0_opt_disp_struct_14.xyz,Nucleus 13H :,-1.323386,0.050639,1.272692,23.82,28.5,22.24,20.73,46.5,31.62,30.19,-24.31,-3.14,-9.38,20.73,22.24,28.5,0,7.77,-0.61
nf_cut_3_0_opt_disp_struct_14.xyz,Nucleus 14H :,1.497342,1.235147,-0.196276,28.74,34.36,25.75,26.1,42.82,30.95,28.28,-10.51,-3.27,-2.05,25.75,26.1,34.36,0,8.61,-0.92
nf_cut_3_0_opt_disp_struct_14.xyz,Nucleus 16H :,1.355175,0.297863,1.303343,29.55,34.07,27.1,27.47,37.85,17.67,6.08,-4.99,9.45,22.58,27.1,27.47,34.07,0,6.97,-0.9
nf_cut_3_0_opt_disp_struct_14.xyz,Nucleus 17H :,-0.498345,1.87096,-1.476437,29.93,33.77,30.21,25.81,43.08,8.49,25.45,-10.07,17.78,5.06,25.81,30.21,33.77,0,7.96,0.11
nf_cut_3_0_opt_disp_struct_14.xyz,Nucleus 21H :,-2.952317,2.218191,-1.493952,27.09,32.52,26.36,22.38,29.42,52.74,41.33,-0.28,-26.06,-15.87,22.38,26.36,32.52,0,10.14,-0.22
nf_cut_3_0_opt_disp_struct_14.xyz,Nucleus 22H :,-4.366284,1.191897,0.268462,27.36,34.93,23.74,23.42,32.69,45.74,52.58,-28.51,-14.05,-6.36,23.42,23.74,34.93,0,11.51,-0.94
nf_cut_3_0_opt_disp_struct_14.xyz,Nucleus 23H :,-3.322881,-0.22012,2.022858,29.66,34.71,27.89,26.37,37.77,16.3,0.12,-3.8,11.73,26.86,26.37,27.89,34.71,0,8.34,-0.64
nf_cut_3_0_opt_disp_struct_14.xyz,Nucleus 0C :,-0.868363,-0.568334,2.039886,161.11,188.16,138.66,156.52,255.27,239.26,242.97,-66.96,-104.43,-82.78,138.66,156.52,188.16,0,49.5,-0.28
nf_cut_3_0_opt_disp_struct_14.xyz,Nucleus 1C :,1.212562,-0.506909,-0.259772,34.44,174.89,-73.99,2.41,236.25,260.72,268.82,-61.4,-334.74,-266.33,-73.99,2.41,174.89,0,248.88,-0.39
nf_cut_3_0_opt_disp_struct_14.xyz,Nucleus 2C :,-4.209425,-5.758241,-4.425944,45.45,-65.5,40.62,161.23,271.25,260.19,242.78,-326.12,-230.14,-81.6,-65.5,40.62,161.23,0,226.73,-0.06
nf_cut_3_0_opt_disp_struct_14.xyz,Nucleus 3C :,-4.429474,-5.404888,-5.438961,46.23,-69.69,34.13,174.25,270.35,259.84,230.82,-329.67,-236.06,-56.59,-69.69,34.13,174.25,0,243.94,-0.15
nf_cut_3_0_opt_disp_struct_14.xyz,Nucleus 4C :,-4.960579,-5.350467,-3.743646,50.3,-63.15,176.86,37.18,226.63,258.0,272.72,-49.87,-321.06,-235.52,-63.15,37.18,176.86,0,240.01,-0.16
nf_cut_3_0_opt_disp_struct_14.xyz,Nucleus 5C :,-2.804818,-5.35657,-4.0761,46.11,-69.91,33.75,174.5,271.1,259.19,231.39,-329.35,-237.07,-56.92,-69.91,33.75,174.5,0,244.41,-0.15
nf_cut_3_0_opt_disp_struct_14.xyz,Nucleus 6C :,-1.815035,-5.945617,-4.493419,45.41,-65.6,39.2,162.63,270.46,261.03,242.97,-326.9,-230.94,-80.38,-65.6,39.2,162.63,0,228.23,-0.08
nf_cut_3_0_opt_disp_struct_14.xyz,Nucleus 15C :,-2.693547,-4.266342,-3.2681,163.26,191.19,155.67,142.92,259.7,229.7,215.31,-65.27,-71.82,-77.85,142.92,155.67,191.19,0,48.27,-0.47
nf_cut_3_0_opt_disp_struct_14.xyz,Nucleus 18C :,-3.48903,-3.682185,-3.119068,4.23,-90.72,9.02,94.39,271.64,256.47,204.92,-348.91,-260.53,-110.91,-90.72,9.02,94.39,0,185.11,0.08
nf_cut_3_0_opt_disp_struct_14.xyz,Nucleus 20N :,-1.781666,-3.859476,-3.204614,146.09,47.24,243.65,147.38,312.52,327.41,336.97,-280.25,-83.21,-175.17,47.24,147.38,243.65,0,196.41,0.02
nf_cut_3_0_opt_disp_struct_14.xyz,Nucleus 19O :,-4.28169,-6.847442,-4.438506,-106.86,-406.77,-232.53,318.71,427.91,385.85,387.52,-833.35,-619.72,-68.8,-406.77,-232.53,318.71,0,725.48,-0.52
nf_cut_3_0_opt_disp_struct_15.xyz,Nucleus 7H :,0.966333,0.411993,0.28816,29.14,34.39,28.76,24.26,41.65,28.09,28.5,-8.72,0.68,-2.79,24.26,28.76,34.39,0,10.13,-0.11
nf_cut_3_0_opt_disp_struct_15.xyz,Nucleus 8H :,-0.515261,0.645699,0.295952,29.06,34.39,28.61,24.19,42.27,27.46,28.42,-9.28,1.13,-2.82,24.19,28.61,34.39,0,10.2,-0.13
nf_cut_3_0_opt_disp_struct_15.xyz,Nucleus 9H :,-1.115666,1.418057,-0.706058,23.85,28.49,22.3,20.77,45.79,32.08,29.49,-23.52,-3.63,-8.66,20.77,22.3,28.49,0,7.72,-0.6
nf_cut_3_0_opt_disp_struct_15.xyz,Nucleus 10H :,-2.497705,1.613895,-0.71512,23.83,27.17,23.37,20.96,46.49,30.15,15.35,-23.11,-3.01,5.64,20.96,23.37,27.17,0,6.21,-0.22
nf_cut_3_0_opt_disp_struct_15.xyz,Nucleus 11H :,-3.291989,1.030616,0.270234,23.96,21.08,23.81,27.0,8.6,44.19,32.26,-20.37,12.48,-5.26,21.08,23.81,27.0,0,5.92,-0.08
nf_cut_3_0_opt_disp_struct_15.xyz,Nucleus 12H :,-2.705475,0.247332,1.262597,23.81,27.15,23.35,20.94,46.04,30.65,16.18,-22.69,-3.53,4.79,20.94,23.35,27.15,0,6.21,-0.22
nf_cut_3_0_opt_disp_struct_15.xyz,Nucleus 13H :,-1.323386,0.050639,1.272692,23.83,28.52,22.24,20.72,46.43,31.6,30.16,-24.23,-3.1,-9.37,20.72,22.24,28.52,0,7.8,-0.61
nf_cut_3_0_opt_disp_struct_15.xyz,Nucleus 14H :,1.497342,1.235147,-0.196276,28.74,34.38,25.73,26.11,42.79,30.93,28.19,-10.49,-3.24,-1.97,25.73,26.11,34.38,0,8.65,-0.91
nf_cut_3_0_opt_disp_struct_15.xyz,Nucleus 16H :,1.355175,0.297863,1.303343,29.54,34.06,27.1,27.46,37.83,17.55,5.44,-5.03,9.57,23.25,27.1,27.46,34.06,0,6.96,-0.9
nf_cut_3_0_opt_disp_struct_15.xyz,Nucleus 17H :,-0.498345,1.87096,-1.476437,29.92,33.78,30.16,25.82,43.26,8.14,25.44,-10.27,18.16,5.03,25.82,30.16,33.78,0,7.96,0.09
nf_cut_3_0_opt_disp_struct_15.xyz,Nucleus 21H :,-2.952317,2.218191,-1.493952,27.06,32.43,26.34,22.41,29.32,53.19,41.9,-0.29,-16.3,-26.64,22.41,26.34,32.43,0,10.02,-0.22
nf_cut_3_0_opt_disp_struct_15.xyz,Nucleus 22H :,-4.366284,1.191897,0.268462,27.33,34.86,23.75,23.38,32.74,45.69,53.35,-29.28,-14.15,-6.36,23.38,23.75,34.86,0,11.48,-0.94
nf_cut_3_0_opt_disp_struct_15.xyz,Nucleus 23H :,-3.322881,-0.22012,2.022858,29.65,34.69,27.9,26.37,37.74,16.02,-0.66,-3.8,12.0,27.65,26.37,27.9,34.69,0,8.32,-0.63
nf_cut_3_0_opt_disp_struct_15.xyz,Nucleus 0C :,-0.868363,-0.568334,2.039886,161.11,188.16,138.64,156.53,255.25,239.18,242.96,-66.93,-104.44,-82.68,138.64,156.53,188.16,0,49.52,-0.28
nf_cut_3_0_opt_disp_struct_15.xyz,Nucleus 1C :,1.212562,-0.506909,-0.259772,34.47,174.86,-73.96,2.51,236.21,260.72,268.65,-61.4,-334.71,-266.08,-73.96,2.51,174.86,0,248.82,-0.39
nf_cut_3_0_opt_disp_struct_15.xyz,Nucleus 2C :,-4.236452,-5.962653,-4.567312,45.45,-65.5,40.65,161.2,271.15,260.12,242.76,-326.03,-230.04,-81.62,-65.5,40.65,161.2,0,226.7,-0.06
nf_cut_3_0_opt_disp_struct_15.xyz,Nucleus 3C :,-4.4565,-5.609301,-5.580329,46.22,-69.69,34.12,174.22,270.29,259.73,230.79,-329.55,-236.02,-56.6,-69.69,34.12,174.22,0,243.91,-0.15
nf_cut_3_0_opt_disp_struct_15.xyz,Nucleus 4C :,-4.987606,-5.55488,-3.885014,50.27,-63.17,176.83,37.16,226.58,257.97,272.57,-49.85,-321.04,-235.4,-63.17,37.16,176.83,0,240.0,-0.16
nf_cut_3_0_opt_disp_struct_15.xyz,Nucleus 5C :,-2.831844,-5.560983,-4.217469,46.12,-69.89,33.79,174.46,271.03,259.12,231.36,-329.24,-236.98,-56.94,-69.89,33.79,174.46,0,244.35,-0.15
nf_cut_3_0_opt_disp_struct_15.xyz,Nucleus 6C :,-1.842062,-6.15003,-4.634788,45.43,-65.56,39.27,162.59,270.4,260.95,242.95,-326.78,-230.82,-80.4,-65.56,39.27,162.59,0,228.15,-0.08
nf_cut_3_0_opt_disp_struct_15.xyz,Nucleus 15C :,-2.720574,-4.470755,-3.409469,163.25,191.18,155.64,142.92,259.91,229.51,214.74,-65.2,-71.65,-77.56,142.92,155.64,191.18,0,48.26,-0.47
nf_cut_3_0_opt_disp_struct_15.xyz,Nucleus 18C :,-3.516056,-3.886598,-3.260436,4.22,-90.81,9.07,94.4,271.88,256.3,203.99,-348.83,-260.7,-109.98,-90.81,9.07,94.4,0,185.21,0.08
nf_cut_3_0_opt_disp_struct_15.xyz,Nucleus 20N :,-1.808693,-4.063889,-3.345982,146.13,47.4,243.57,147.41,312.32,327.54,337.53,-280.2,-82.98,-175.82,47.4,147.41,243.57,0,196.17,0.02
nf_cut_3_0_opt_disp_struct_15.xyz,Nucleus 19O :,-4.308717,-7.051855,-4.579874,-107.04,-407.1,-232.74,318.72,428.05,385.63,386.78,-833.82,-619.7,-68.06,-407.1,-232.74,318.72,0,725.82,-0.52
nf_cut_3_0_opt_disp_struct_16.xyz,Nucleus 7H :,0.966333,0.411993,0.28816,29.14,34.39,28.77,24.26,41.62,28.07,28.49,-8.71,0.71,-2.76,24.26,28.77,34.39,0,10.13,-0.11
nf_cut_3_0_opt_disp_struct_16.xyz,Nucleus 8H :,-0.515261,0.645699,0.295952,29.06,34.38,28.61,24.19,42.25,27.44,28.4,-9.28,1.15,-2.78,24.19,28.61,34.38,0,10.19,-0.13
nf_cut_3_0_opt_disp_struct_16.xyz,Nucleus 9H :,-1.115666,1.418057,-0.706058,23.85,28.5,22.29,20.76,45.72,32.05,29.47,-23.45,-3.59,-8.65,20.76,22.29,28.5,0,7.74,-0.6
nf_cut_3_0_opt_disp_struct_16.xyz,Nucleus 10H :,-2.497705,1.613895,-0.71512,23.84,27.18,23.38,20.95,46.4,30.14,15.32,-23.03,-2.99,5.65,20.95,23.38,27.18,0,6.23,-0.22
nf_cut_3_0_opt_disp_struct_16.xyz,Nucleus 11H :,-3.291989,1.030616,0.270234,23.96,21.06,23.82,27.01,8.58,44.16,32.2,-20.35,12.49,-5.18,21.06,23.82,27.01,0,5.95,-0.07
nf_cut_3_0_opt_disp_struct_16.xyz,Nucleus 12H :,-2.705475,0.247332,1.262597,23.82,27.16,23.36,20.93,45.97,30.64,16.16,-22.61,-3.5,4.8,20.93,23.36,27.16,0,6.23,-0.22
nf_cut_3_0_opt_disp_struct_16.xyz,Nucleus 13H :,-1.323386,0.050639,1.272692,23.83,28.53,22.24,20.72,46.36,31.58,30.14,-24.16,-3.07,-9.36,20.72,22.24,28.53,0,7.81,-0.61
nf_cut_3_0_opt_disp_struct_16.xyz,Nucleus 14H :,1.497342,1.235147,-0.196276,28.74,34.39,25.71,26.12,42.77,30.92,28.11,-10.47,-3.2,-1.89,25.71,26.12,34.39,0,8.68,-0.91
nf_cut_3_0_opt_disp_struct_16.xyz,Nucleus 16H :,1.355175,0.297863,1.303343,29.54,34.06,27.11,27.44,37.83,17.44,4.8,-5.07,9.7,23.91,27.11,27.44,34.06,0,6.95,-0.91
nf_cut_3_0_opt_disp_struct_16.xyz,Nucleus 17H :,-0.498345,1.87096,-1.476437,29.91,33.79,30.12,25.83,43.45,7.78,25.44,-10.48,18.54,5.01,25.83,30.12,33.79,0,7.96,0.08
nf_cut_3_0_opt_disp_struct_16.xyz,Nucleus 21H :,-2.952317,2.218191,-1.493952,27.04,32.35,26.32,22.44,29.23,53.65,42.47,-0.29,-16.73,-27.23,22.44,26.32,32.35,0,9.91,-0.22
nf_cut_3_0_opt_disp_struct_16.xyz,Nucleus 22H :,-4.366284,1.191897,0.268462,27.3,34.81,23.34,23.76,32.8,45.66,54.12,-30.04,-14.27,-6.36,23.34,23.76,34.81,0,11.47,-0.93
nf_cut_3_0_opt_disp_struct_16.xyz,Nucleus 23H :,-3.322881,-0.22012,2.022858,29.64,34.67,27.9,26.36,37.71,15.74,-1.43,-3.8,12.27,28.44,26.36,27.9,34.67,0,8.31,-0.63
nf_cut_3_0_opt_disp_struct_16.xyz,Nucleus 0C :,-0.868363,-0.568334,2.039886,161.11,188.17,138.62,156.55,255.22,239.1,242.94,-66.9,-104.45,-82.59,138.62,156.55,188.17,0,49.55,-0.28
nf_cut_3_0_opt_disp_struct_16.xyz,Nucleus 1C :,1.212562,-0.506909,-0.259772,34.5,174.83,-73.93,2.6,236.18,260.72,268.5,-61.39,-334.68,-265.84,-73.93,2.6,174.83,0,248.76,-0.38
nf_cut_3_0_opt_disp_struct_16.xyz,Nucleus 2C :,-4.263479,-6.167066,-4.708681,45.45,-65.49,40.67,161.16,271.05,260.06,242.74,-325.94,-229.95,-81.63,-65.49,40.67,161.16,0,226.65,-0.06
nf_cut_3_0_opt_disp_struct_16.xyz,Nucleus 3C :,-4.483527,-5.813713,-5.721698,46.2,-69.7,34.11,174.19,270.23,259.63,230.76,-329.43,-235.98,-56.6,-69.7,34.11,174.19,0,243.89,-0.15
nf_cut_3_0_opt_disp_struct_16.xyz,Nucleus 4C :,-5.014633,-5.759292,-4.026383,50.25,-63.18,176.81,37.13,226.53,257.94,272.43,-49.84,-321.02,-235.29,-63.18,37.13,176.81,0,239.99,-0.16
nf_cut_3_0_opt_disp_struct_16.xyz,Nucleus 5C :,-2.858871,-5.765395,-4.358837,46.12,-69.87,33.82,174.42,270.96,259.04,231.34,-329.13,-236.89,-56.95,-69.87,33.82,174.42,0,244.29,-0.15
nf_cut_3_0_opt_disp_struct_16.xyz,Nucleus 6C :,-1.869089,-6.354443,-4.776156,45.45,-65.53,39.34,162.55,270.34,260.87,242.93,-326.65,-230.71,-80.42,-65.53,39.34,162.55,0,228.08,-0.08
nf_cut_3_0_opt_disp_struct_16.xyz,Nucleus 15C :,-2.747601,-4.675168,-3.550837,163.24,191.17,155.62,142.93,260.12,229.32,214.17,-65.1,-71.51,-77.29,142.93,155.62,191.17,0,48.24,-0.47
nf_cut_3_0_opt_disp_struct_16.xyz,Nucleus 18C :,-3.543083,-4.09101,-3.401805,4.21,-90.88,9.1,94.41,272.12,256.15,203.06,-348.74,-260.9,-109.06,-90.88,9.1,94.41,0,185.29,0.08
nf_cut_3_0_opt_disp_struct_16.xyz,Nucleus 20N :,-1.83572,-4.268301,-3.48735,146.17,47.54,243.51,147.45,312.07,327.68,338.12,-280.16,-82.75,-176.46,47.54,147.45,243.51,0,195.97,0.02
nf_cut_3_0_opt_disp_struct_16.xyz,Nucleus 19O :,-4.335744,-7.256267,-4.721243,-107.17,-407.35,-232.89,318.74,428.2,385.41,386.03,-834.21,-619.63,-67.29,-407.35,-232.89,318.74,0,726.09,-0.52
nf_cut_3_0_opt_disp_struct_17.xyz,Nucleus 7H :,0.966333,0.411993,0.28816,29.14,34.39,28.77,24.26,41.59,28.04,28.47,-8.7,0.74,-2.72,24.26,28.77,34.39,0,10.13,-0.11
nf_cut_3_0_opt_disp_struct_17.xyz,Nucleus 8H :,-0.515261,0.645699,0.295952,29.06,34.38,28.62,24.19,42.23,27.41,28.38,-9.28,1.18,-2.73,24.19,28.62,34.38,0,10.19,-0.13
nf_cut_3_0_opt_disp_struct_17.xyz,Nucleus 9H :,-1.115666,1.418057,-0.706058,23.85,28.51,22.29,20.76,45.66,32.02,29.44,-23.38,-3.55,-8.64,20.76,22.29,28.51,0,7.75,-0.6
nf_cut_3_0_opt_disp_struct_17.xyz,Nucleus 10H :,-2.497705,1.613895,-0.71512,23.83,27.19,23.38,20.93,46.32,30.13,15.29,-22.94,-2.96,5.66,20.93,23.38,27.19,0,6.26,-0.22
nf_cut_3_0_opt_disp_struct_17.xyz,Nucleus 11H :,-3.291989,1.030616,0.270234,23.96,21.05,23.82,27.02,8.55,44.14,32.14,-20.32,12.5,-5.11,21.05,23.82,27.02,0,5.97,-0.07
nf_cut_3_0_opt_disp_struct_17.xyz,Nucleus 12H :,-2.705475,0.247332,1.262597,23.81,27.17,23.36,20.91,45.9,30.62,16.14,-22.53,-3.48,4.8,20.91,23.36,27.17,0,6.26,-0.22
nf_cut_3_0_opt_disp_struct_17.xyz,Nucleus 13H :,-1.323386,0.050639,1.272692,23.83,28.54,22.24,20.71,46.29,31.56,30.12,-24.08,-3.04,-9.35,20.71,22.24,28.54,0,7.83,-0.61
nf_cut_3_0_opt_disp_struct_17.xyz,Nucleus 14H :,1.497342,1.235147,-0.196276,28.74,34.4,25.7,26.13,42.74,30.9,28.02,-10.46,-3.17,-1.81,25.7,26.13,34.4,0,8.7,-0.9
nf_cut_3_0_opt_disp_struct_17.xyz,Nucleus 16H :,1.355175,0.297863,1.303343,29.53,34.05,27.11,27.43,37.83,17.32,4.16,-5.11,9.82,24.57,27.11,27.43,34.05,0,6.94,-0.91
nf_cut_3_0_opt_disp_struct_17.xyz,Nucleus 17H :,-0.498345,1.87096,-1.476437,29.91,33.8,30.08,25.84,43.64,7.43,25.43,-10.68,18.91,5.0,25.84,30.08,33.8,0,7.96,0.06
nf_cut_3_0_opt_disp_struct_17.xyz,Nucleus 21H :,-2.952317,2.218191,-1.493952,27.01,32.28,26.29,22.46,29.16,54.11,43.02,-0.29,-17.13,-27.84,22.46,26.29,32.28,0,9.82,-0.22
nf_cut_3_0_opt_disp_struct_17.xyz,Nucleus 22H :,-4.366284,1.191897,0.268462,27.28,34.76,23.3,23.78,32.86,45.63,54.9,-30.81,-14.39,-6.36,23.3,23.78,34.76,0,11.46,-0.92
nf_cut_3_0_opt_disp_struct_17.xyz,Nucleus 23H :,-3.322881,-0.22012,2.022858,29.64,34.65,27.9,26.36,37.68,15.46,-2.21,-3.8,12.55,29.23,26.36,27.9,34.65,0,8.29,-0.63
nf_cut_3_0_opt_disp_struct_17.xyz,Nucleus 0C :,-0.868363,-0.568334,2.039886,161.11,188.17,138.6,156.57,255.2,239.03,242.93,-66.87,-104.46,-82.5,138.6,156.57,188.17,0,49.57,-0.27
nf_cut_3_0_opt_disp_struct_17.xyz,Nucleus 1C :,1.212562,-0.506909,-0.259772,34.52,174.81,-73.91,2.67,236.15,260.72,268.35,-61.39,-334.65,-265.62,-73.91,2.67,174.81,0,248.72,-0.38
nf_cut_3_0_opt_disp_struct_17.xyz,Nucleus 2C :,-4.290506,-6.371479,-4.850049,45.44,-65.49,40.68,161.13,270.96,260.0,242.72,-325.85,-229.86,-81.64,-65.49,40.68,161.13,0,226.62,-0.06
nf_cut_3_0_opt_disp_struct_17.xyz,Nucleus 3C :,-4.510554,-6.018126,-5.863066,46.19,-69.7,34.1,174.16,270.18,259.53,230.74,-329.32,-235.94,-56.61,-69.7,34.1,174.16,0,243.86,-0.15
nf_cut_3_0_opt_disp_struct_17.xyz,Nucleus 4C :,-5.04166,-5.963705,-4.167751,50.23,-63.19,176.78,37.11,226.5,257.91,272.3,-49.83,-321.0,-235.18,-63.19,37.11,176.78,0,239.97,-0.16
nf_cut_3_0_opt_disp_struct_17.xyz,Nucleus 5C :,-2.885898,-5.969808,-4.500205,46.13,-69.86,33.85,174.4,270.89,258.97,231.32,-329.03,-236.82,-56.96,-69.86,33.85,174.4,0,244.26,-0.15
nf_cut_3_0_opt_disp_struct_17.xyz,Nucleus 6C :,-1.896115,-6.558855,-4.917525,45.47,-65.51,39.39,162.52,270.28,260.8,242.91,-326.54,-230.61,-80.44,-65.51,39.39,162.52,0,228.03,-0.08
nf_cut_3_0_opt_disp_struct_17.xyz,Nucleus 15C :,-2.774628,-4.87958,-3.692206,163.23,191.16,155.59,142.93,260.34,229.13,213.62,-64.96,-71.4,-77.04,142.93,155.59,191.16,0,48.23,-0.48
nf_cut_3_0_opt_disp_struct_17.xyz,Nucleus 18C :,-3.57011,-4.295423,-3.543173,4.2,-90.94,9.13,94.42,272.35,256.0,202.14,-348.65,-261.09,-108.14,-90.94,9.13,94.42,0,185.36,0.08
nf_cut_3_0_opt_disp_struct_17.xyz,Nucleus 20N :,-1.862747,-4.472714,-3.628719,146.19,47.65,243.45,147.48,311.79,327.82,338.73,-280.15,-82.52,-177.08,47.65,147.48,243.45,0,195.8,0.02
nf_cut_3_0_opt_disp_struct_17.xyz,Nucleus 19O :,-4.362771,-7.46068,-4.862611,-107.28,-407.56,-233.03,318.76,428.35,385.18,385.26,-834.58,-619.56,-66.5,-407.56,-233.03,318.76,0,726.32,-0.52
nf_cut_3_0_opt_disp_struct_18.xyz,Nucleus 7H :,0.966333,0.411993,0.28816,29.14,34.39,28.78,24.26,41.57,28.01,28.45,-8.69,0.77,-2.69,24.26,28.78,34.39,0,10.13,-0.11
nf_cut_3_0_opt_disp_struct_18.xyz,Nucleus 8H :,-0.515261,0.645699,0.295952,29.07,34.38,28.63,24.19,42.21,27.39,28.36,-9.28,1.2,-2.69,24.19,28.63,34.38,0,10.19,-0.13
nf_cut_3_0_opt_disp_struct_18.xyz,Nucleus 9H :,-1.115666,1.418057,-0.706058,23.85,28.51,22.29,20.75,45.6,31.98,29.42,-23.32,-3.5,-8.63,20.75,22.29,28.51,0,7.76,-0.6
nf_cut_3_0_opt_disp_struct_18.xyz,Nucleus 10H :,-2.497705,1.613895,-0.71512,23.83,27.19,23.39,20.92,46.25,30.11,15.27,-22.86,-2.94,5.67,20.92,23.39,27.19,0,6.27,-0.21
nf_cut_3_0_opt_disp_struct_18.xyz,Nucleus 11H :,-3.291989,1.030616,0.270234,23.96,21.04,23.82,27.03,8.53,44.11,32.07,-20.29,12.5,-5.04,21.04,23.82,27.03,0,5.99,-0.07
nf_cut_3_0_opt_disp_struct_18.xyz,Nucleus 12H :,-2.705475,0.247332,1.262597,23.82,27.18,23.37,20.9,45.83,30.6,16.12,-22.46,-3.45,4.81,20.9,23.37,27.18,0,6.28,-0.21
nf_cut_3_0_opt_disp_struct_18.xyz,Nucleus 13H :,-1.323386,0.050639,1.272692,23.83,28.54,22.25,20.71,46.22,31.54,30.1,-24.01,-3.01,-9.34,20.71,22.25,28.54,0,7.83,-0.61
nf_cut_3_0_opt_disp_struct_18.xyz,Nucleus 14H :,1.497342,1.235147,-0.196276,28.74,34.41,25.68,26.14,42.72,30.89,27.93,-10.44,-3.14,-1.72,25.68,26.14,34.41,0,8.73,-0.89
nf_cut_3_0_opt_disp_struct_18.xyz,Nucleus 16H :,1.355175,0.297863,1.303343,29.52,34.04,27.11,27.41,37.83,17.2,3.51,-5.16,9.95,25.23,27.11,27.41,34.04,0,6.93,-0.91
nf_cut_3_0_opt_disp_struct_18.xyz,Nucleus 17H :,-0.498345,1.87096,-1.476437,29.9,33.81,30.04,25.84,43.83,7.08,25.42,-10.89,19.28,4.99,25.84,30.04,33.81,0,7.97,0.05
nf_cut_3_0_opt_disp_struct_18.xyz,Nucleus 21H :,-2.952317,2.218191,-1.493952,26.99,32.22,26.27,22.48,29.09,54.58,43.56,-0.28,-17.53,-28.45,22.48,26.27,32.22,0,9.74,-0.22
nf_cut_3_0_opt_disp_struct_18.xyz,Nucleus 22H :,-4.366284,1.191897,0.268462,27.26,34.72,23.26,23.79,32.92,45.62,55.68,-31.58,-14.52,-6.35,23.26,23.79,34.72,0,11.46,-0.91
nf_cut_3_0_opt_disp_struct_18.xyz,Nucleus 23H :,-3.322881,-0.22012,2.022858,29.63,34.63,27.91,26.36,37.66,15.18,-2.99,-3.79,12.82,30.01,26.36,27.91,34.63,0,8.27,-0.62
nf_cut_3_0_opt_disp_struct_18.xyz,Nucleus 0C :,-0.868363,-0.568334,2.039886,161.11,188.18,138.58,156.58,255.18,238.95,242.92,-66.85,-104.46,-82.41,138.58,156.58,188.18,0,49.6,-0.27
nf_cut_3_0_opt_disp_struct_18.xyz,Nucleus 1C :,1.212562,-0.506909,-0.259772,34.54,174.78,-73.89,2.74,236.13,260.71,268.22,-61.39,-334.62,-265.42,-73.89,2.74,174.78,0,248.67,-0.38
nf_cut_3_0_opt_disp_struct_18.xyz,Nucleus 2C :,-4.317533,-6.575891,-4.991417,45.44,-65.49,40.7,161.11,270.88,259.93,242.7,-325.77,-229.78,-81.64,-65.49,40.7,161.11,0,226.6,-0.06
nf_cut_3_0_opt_disp_struct_18.xyz,Nucleus 3C :,-4.537581,-6.222539,-6.004435,46.18,-69.7,34.09,174.14,270.13,259.43,230.72,-329.22,-235.91,-56.61,-69.7,34.09,174.14,0,243.84,-0.15
nf_cut_3_0_opt_disp_struct_18.xyz,Nucleus 4C :,-5.068686,-6.168117,-4.30912,50.22,-63.2,176.77,37.09,226.46,257.88,272.18,-49.81,-320.97,-235.08,-63.2,37.09,176.77,0,239.97,-0.16
nf_cut_3_0_opt_disp_struct_18.xyz,Nucleus 5C :,-2.912925,-6.17422,-4.641574,46.13,-69.84,33.87,174.37,270.83,258.91,231.31,-328.93,-236.74,-56.97,-69.84,33.87,174.37,0,244.21,-0.15
nf_cut_3_0_opt_disp_struct_18.xyz,Nucleus 6C :,-1.923142,-6.763268,-5.058893,45.48,-65.49,39.44,162.49,270.22,260.72,242.9,-326.43,-230.52,-80.45,-65.49,39.44,162.49,0,227.98,-0.08
nf_cut_3_0_opt_disp_struct_18.xyz,Nucleus 15C :,-2.801655,-5.083993,-3.833574,163.22,191.15,155.58,142.94,260.55,228.94,213.07,-64.78,-71.32,-76.8,142.94,155.58,191.15,0,48.21,-0.48
nf_cut_3_0_opt_disp_struct_18.xyz,Nucleus 18C :,-3.597137,-4.499836,-3.684541,4.19,-91.0,9.16,94.42,272.59,255.85,201.22,-348.56,-261.29,-107.23,-91.0,9.16,94.42,0,185.42,0.08
nf_cut_3_0_opt_disp_struct_18.xyz,Nucleus 20N :,-1.889774,-4.677126,-3.770087,146.22,47.76,243.4,147.51,311.48,327.96,339.39,-280.15,-82.28,-177.72,47.76,147.51,243.4,0,195.64,0.02
nf_cut_3_0_opt_disp_struct_18.xyz,Nucleus 19O :,-4.389798,-7.665092,-5.00398,-107.38,-407.75,-233.16,318.77,428.5,385.0,384.46,-834.92,-619.47,-65.71,-407.75,-233.16,318.77,0,726.52,-0.52
nf_cut_3_0_opt_disp_struct_19.xyz,Nucleus 7H :,0.966333,0.411993,0.28816,29.14,34.38,28.78,24.26,41.55,27.99,28.43,-8.68,0.8,-2.66,24.26,28.78,34.38,0,10.12,-0.11
nf_cut_3_0_opt_disp_struct_19.xyz,Nucleus 8H :,-0.515261,0.645699,0.295952,29.06,34.37,28.63,24.19,42.19,27.36,28.35,-9.27,1.23,-2.65,24.19,28.63,34.37,0,10.18,-0.13
nf_cut_3_0_opt_disp_struct_19.xyz,Nucleus 9H :,-1.115666,1.418057,-0.706058,23.85,28.52,22.29,20.75,45.54,31.95,29.4,-23.26,-3.46,-8.62,20.75,22.29,28.52,0,7.77,-0.6
nf_cut_3_0_opt_disp_struct_19.xyz,Nucleus 10H :,-2.497705,1.613895,-0.71512,23.83,27.2,23.39,20.91,46.17,30.1,15.25,-22.78,-2.92,5.68,20.91,23.39,27.2,0,6.29,-0.21
nf_cut_3_0_opt_disp_struct_19.xyz,Nucleus 11H :,-3.291989,1.030616,0.270234,23.96,21.02,23.83,27.04,8.51,44.09,32.01,-20.26,12.51,-4.97,21.02,23.83,27.04,0,6.02,-0.06
nf_cut_3_0_opt_disp_struct_19.xyz,Nucleus 12H :,-2.705475,0.247332,1.262597,23.82,27.19,23.37,20.89,45.77,30.59,16.1,-22.4,-3.42,4.82,20.89,23.37,27.19,0,6.3,-0.21
nf_cut_3_0_opt_disp_struct_19.xyz,Nucleus 13H :,-1.323386,0.050639,1.272692,23.84,28.55,22.25,20.71,46.15,31.52,30.08,-23.94,-2.98,-9.33,20.71,22.25,28.55,0,7.84,-0.61
nf_cut_3_0_opt_disp_struct_19.xyz,Nucleus 14H :,1.497342,1.235147,-0.196276,28.74,34.42,25.67,26.14,42.7,30.88,27.84,-10.43,-3.12,-1.64,25.67,26.14,34.42,0,8.75,-0.89
nf_cut_3_0_opt_disp_struct_19.xyz,Nucleus 16H :,1.355175,0.297863,1.303343,29.52,34.04,27.11,27.4,37.84,17.07,2.87,-5.22,10.08,25.89,27.11,27.4,34.04,0,6.93,-0.92
nf_cut_3_0_opt_disp_struct_19.xyz,Nucleus 17H :,-0.498345,1.87096,-1.476437,29.89,33.82,30.01,25.85,44.02,6.73,25.4,-11.11,19.65,4.98,25.85,30.01,33.82,0,7.97,0.05
nf_cut_3_0_opt_disp_struct_19.xyz,Nucleus 21H :,-2.952317,2.218191,-1.493952,26.98,32.17,26.26,22.5,29.03,55.06,44.09,-0.27,-17.91,-29.08,22.5,26.26,32.17,0,9.67,-0.22
nf_cut_3_0_opt_disp_struct_19.xyz,Nucleus 22H :,-4.366284,1.191897,0.268462,27.24,34.68,23.23,23.81,32.99,45.62,56.45,-32.35,-14.66,-6.33,23.23,23.81,34.68,0,11.45,-0.9
nf_cut_3_0_opt_disp_struct_19.xyz,Nucleus 23H :,-3.322881,-0.22012,2.022858,29.63,34.62,27.91,26.35,37.64,14.9,-3.76,-3.8,13.1,30.8,26.35,27.91,34.62,0,8.27,-0.62
nf_cut_3_0_opt_disp_struct_19.xyz,Nucleus 0C :,-0.868363,-0.568334,2.039886,161.11,188.18,138.57,156.59,255.16,238.88,242.91,-66.82,-104.47,-82.32,138.57,156.59,188.18,0,49.61,-0.27
nf_cut_3_0_opt_disp_struct_19.xyz,Nucleus 1C :,1.212562,-0.506909,-0.259772,34.57,174.77,-73.87,2.8,236.11,260.71,268.09,-61.38,-334.6,-265.23,-73.87,2.8,174.77,0,248.64,-0.38
nf_cut_3_0_opt_disp_struct_19.xyz,Nucleus 2C :,-4.344559,-6.780304,-5.132786,45.44,-65.48,40.71,161.09,270.8,259.88,242.69,-325.69,-229.71,-81.65,-65.48,40.71,161.09,0,226.57,-0.06
nf_cut_3_0_opt_disp_struct_19.xyz,Nucleus 3C :,-4.564608,-6.426951,-6.145803,46.17,-69.7,34.08,174.12,270.08,259.34,230.7,-329.12,-235.88,-56.61,-69.7,34.08,174.12,0,243.82,-0.15
nf_cut_3_0_opt_disp_struct_19.xyz,Nucleus 4C :,-5.095713,-6.37253,-4.450488,50.2,-63.21,176.75,37.07,226.43,257.85,272.07,-49.8,-320.96,-234.99,-63.21,37.07,176.75,0,239.96,-0.16
nf_cut_3_0_opt_disp_struct_19.xyz,Nucleus 5C :,-2.939952,-6.378633,-4.782942,46.14,-69.83,33.89,174.35,270.77,258.84,231.29,-328.84,-236.68,-56.98,-69.83,33.89,174.35,0,244.18,-0.15
nf_cut_3_0_opt_disp_struct_19.xyz,Nucleus 6C :,-1.950169,-6.967681,-5.200262,45.49,-65.47,39.49,162.46,270.17,260.65,242.88,-326.32,-230.44,-80.46,-65.47,39.49,162.46,0,227.93,-0.08
nf_cut_3_0_opt_disp_struct_19.xyz,Nucleus 15C :,-2.828681,-5.288405,-3.974943,163.21,191.14,155.56,142.94,260.77,228.75,212.51,-64.56,-71.25,-76.57,142.94,155.56,191.14,0,48.2,-0.48
nf_cut_3_0_opt_disp_struct_19.xyz,Nucleus 18C :,-3.624164,-4.704248,-3.82591,4.19,-91.05,9.18,94.43,272.83,255.71,200.31,-348.47,-261.49,-106.32,-91.05,9.18,94.43,0,185.48,0.08
nf_cut_3_0_opt_disp_struct_19.xyz,Nucleus 20N :,-1.9168,-4.881539,-3.911456,146.25,47.85,243.35,147.54,311.16,328.1,340.07,-280.16,-82.05,-178.37,47.85,147.54,243.35,0,195.5,0.02
nf_cut_3_0_opt_disp_struct_19.xyz,Nucleus 19O :,-4.416825,-7.869505,-5.145348,-107.47,-407.91,-233.27,318.78,428.66,384.8,383.68,-835.23,-619.37,-64.93,-407.91,-233.27,318.78,0,726.69,-0.52
nf_cut_3_0_opt_disp_struct_2.xyz,Nucleus 7H :,0.966333,0.411993,0.28816,29.09,34.54,28.59,24.14,42.16,28.02,28.74,-8.89,0.45,-3.21,24.14,28.59,34.54,0,10.4,-0.14
nf_cut_3_0_opt_disp_struct_2.xyz,Nucleus 8H :,-0.515261,0.645699,0.295952,29.01,34.58,28.42,24.03,42.79,27.54,28.49,-9.44,0.91,-3.25,24.03,28.42,34.58,0,10.55,-0.17
nf_cut_3_0_opt_disp_struct_2.xyz,Nucleus 9H :,-1.115666,1.418057,-0.706058,23.82,28.15,22.73,20.57,46.5,32.51,29.97,-24.17,-4.39,-8.97,20.57,22.73,28.15,0,7.58,-0.43
nf_cut_3_0_opt_disp_struct_2.xyz,Nucleus 10H :,-2.497705,1.613895,-0.71512,23.82,26.84,23.52,21.09,47.5,30.14,16.31,-24.12,-3.35,4.98,21.09,23.52,26.84,0,5.75,-0.16
nf_cut_3_0_opt_disp_struct_2.xyz,Nucleus 11H :,-3.291989,1.030616,0.270234,23.96,21.32,24.0,26.56,10.06,44.77,32.86,-20.94,11.43,-6.3,21.32,24.0,26.56,0,5.24,0.02
nf_cut_3_0_opt_disp_struct_2.xyz,Nucleus 12H :,-2.705475,0.247332,1.262597,23.73,26.82,23.34,21.02,46.95,30.17,16.35,-23.72,-3.52,4.95,21.02,23.34,26.82,0,5.8,-0.2
nf_cut_3_0_opt_disp_struct_2.xyz,Nucleus 13H :,-1.323386,0.050639,1.272692,23.73,28.2,22.52,20.46,46.96,31.53,30.38,-24.82,-3.35,-9.53,20.46,22.52,28.2,0,7.74,-0.47
nf_cut_3_0_opt_disp_struct_2.xyz,Nucleus 14H :,1.497342,1.235147,-0.196276,28.61,33.93,26.38,25.52,42.92,31.47,28.5,-2.55,-3.57,-10.94,25.52,26.38,33.93,0,8.41,-0.8
nf_cut_3_0_opt_disp_struct_2.xyz,Nucleus 16H :,1.355175,0.297863,1.303343,29.79,34.4,27.02,27.94,38.66,18.71,14.06,-4.91,8.45,14.38,27.02,27.94,34.4,0,7.38,-0.75
nf_cut_3_0_opt_disp_struct_2.xyz,Nucleus 17H :,-0.498345,1.87096,-1.476437,30.19,25.63,33.43,31.52,41.11,12.75,25.46,-7.98,13.16,6.07,25.63,31.52,33.43,0,7.8,0.51
nf_cut_3_0_opt_disp_struct_2.xyz,Nucleus 21H :,-2.952317,2.218191,-1.493952,28.09,25.92,20.43,37.91,46.05,31.17,36.36,1.19,-19.86,-10.65,20.43,25.92,37.91,0,17.48,-0.37
nf_cut_3_0_opt_disp_struct_2.xyz,Nucleus 22H :,-4.366284,1.191897,0.268462,28.59,38.83,25.04,21.89,31.87,50.15,41.52,-3.34,-14.8,-19.63,21.89,25.04,38.83,0,16.94,-0.63
nf_cut_3_0_opt_disp_struct_2.xyz,Nucleus 23H :,-3.322881,-0.22012,2.022858,29.9,35.36,27.85,26.49,38.61,19.57,9.8,-3.93,8.65,17.01,26.49,27.85,35.36,0,8.87,-0.69
nf_cut_3_0_opt_disp_struct_2.xyz,Nucleus 0C :,-0.868363,-0.568334,2.039886,161.12,188.02,139.11,156.22,256.33,240.67,243.33,-67.93,-104.57,-84.48,139.11,156.22,188.02,0,48.91,-0.3
nf_cut_3_0_opt_disp_struct_2.xyz,Nucleus 1C :,1.212562,-0.506909,-0.259772,33.47,175.98,-74.33,-1.24,237.21,261.37,272.07,-61.29,-335.76,-273.17,-74.33,-1.24,175.98,0,250.31,-0.42
nf_cut_3_0_opt_disp_struct_2.xyz,Nucleus 2C :,-3.885103,-3.305289,-2.729523,45.19,-65.56,38.46,162.67,273.6,260.66,243.41,-327.14,-234.08,-80.87,-65.56,38.46,162.67,0,228.23,-0.09
nf_cut_3_0_opt_disp_struct_2.xyz,Nucleus 3C :,-4.105152,-2.951937,-3.74254,45.85,-70.29,32.18,175.66,271.79,261.22,231.8,-331.88,-239.23,-56.14,-70.29,32.18,175.66,0,245.95,-0.17
nf_cut_3_0_opt_disp_struct_2.xyz,Nucleus 4C :,-4.636257,-2.897516,-2.047225,51.26,-61.82,178.15,37.45,227.79,259.42,275.82,-49.73,-321.16,-238.37,-61.82,37.45,178.15,0,239.97,-0.17
nf_cut_3_0_opt_disp_struct_2.xyz,Nucleus 5C :,-2.480495,-2.903619,-2.379679,44.49,-72.11,29.72,175.87,271.6,259.78,231.88,-332.46,-241.24,-56.1,-72.11,29.72,175.87,0,247.98,-0.18
nf_cut_3_0_opt_disp_struct_2.xyz,Nucleus 6C :,-1.490713,-3.492666,-2.796998,43.54,-67.93,34.53,164.01,271.52,260.43,243.78,-329.1,-236.23,-79.79,-67.93,34.53,164.01,0,231.94,-0.12
nf_cut_3_0_opt_disp_struct_2.xyz,Nucleus 15C :,-2.369225,-1.813391,-1.571679,163.68,191.56,156.62,142.87,257.57,231.94,222.73,-64.17,-74.72,-82.3,142.87,156.62,191.56,0,48.69,-0.43
nf_cut_3_0_opt_disp_struct_2.xyz,Nucleus 18C :,-3.164707,-1.229234,-1.422647,4.44,-87.56,6.51,94.38,268.81,259.3,217.17,-348.52,-260.4,-123.03,-87.56,6.51,94.38,0,181.94,0.03
nf_cut_3_0_opt_disp_struct_2.xyz,Nucleus 20N :,-1.457344,-1.406525,-1.508192,144.23,37.63,244.79,150.26,311.44,325.25,335.02,-287.41,-87.68,-163.95,37.63,150.26,244.79,0,207.16,0.09
nf_cut_3_0_opt_disp_struct_2.xyz,Nucleus 19O :,-3.957368,-4.394491,-2.742085,-98.79,-391.47,-223.05,318.16,425.97,389.89,398.44,-816.21,-614.17,-80.27,-391.47,-223.05,318.16,0,709.63,-0.53
nf_cut_3_0_opt_disp_struct_3.xyz,Nucleus 7H :,0.966333,0.411993,0.28816,29.09,34.5,28.61,24.16,42.1,28.1,28.75,-8.87,0.43,-3.23,24.16,28.61,34.5,0,10.34,-0.14
nf_cut_3_0_opt_disp_struct_3.xyz,Nucleus 8H :,-0.515261,0.645699,0.295952,29.01,34.54,28.44,24.06,42.69,27.59,28.56,-9.39,0.88,-3.3,24.06,28.44,34.54,0,10.48,-0.16
nf_cut_3_0_opt_disp_struct_3.xyz,Nucleus 9H :,-1.115666,1.418057,-0.706058,23.82,28.18,22.64,20.65,46.5,32.43,29.94,-24.2,-4.3,-8.9,20.65,22.64,28.18,0,7.53,-0.47
nf_cut_3_0_opt_disp_struct_3.xyz,Nucleus 10H :,-2.497705,1.613895,-0.71512,23.82,26.88,23.47,21.1,47.46,30.1,16.15,-24.09,-3.28,5.11,21.1,23.47,26.88,0,5.78,-0.18
nf_cut_3_0_opt_disp_struct_3.xyz,Nucleus 11H :,-3.291989,1.030616,0.270234,23.94,21.26,23.94,26.62,9.75,44.72,32.8,-20.9,11.64,-6.18,21.26,23.94,26.62,0,5.36,0.0
nf_cut_3_0_opt_disp_struct_3.xyz,Nucleus 12H :,-2.705475,0.247332,1.262597,23.75,26.86,23.33,21.07,46.91,30.27,16.42,-23.66,-3.56,4.87,21.07,23.33,26.86,0,5.79,-0.22
nf_cut_3_0_opt_disp_struct_3.xyz,Nucleus 13H :,-1.323386,0.050639,1.272692,23.75,28.23,22.47,20.55,47.01,31.6,30.41,-24.88,-3.38,-9.5,20.55,22.47,28.23,0,7.68,-0.5
nf_cut_3_0_opt_disp_struct_3.xyz,Nucleus 14H :,1.497342,1.235147,-0.196276,28.65,33.99,26.38,25.57,42.99,31.41,28.61,-2.58,-3.59,-10.92,25.57,26.38,33.99,0,8.42,-0.81
nf_cut_3_0_opt_disp_struct_3.xyz,Nucleus 16H :,1.355175,0.297863,1.303343,29.75,34.36,27.02,27.88,38.54,18.61,13.33,-4.89,8.52,15.15,27.02,27.88,34.36,0,7.34,-0.76
nf_cut_3_0_opt_disp_struct_3.xyz,Nucleus 17H :,-0.498345,1.87096,-1.476437,30.15,25.64,33.49,31.33,41.24,12.34,25.44,-8.11,13.6,5.94,25.64,31.33,33.49,0,7.85,0.45
nf_cut_3_0_opt_disp_struct_3.xyz,Nucleus 21H :,-2.952317,2.218191,-1.493952,28.04,26.29,21.09,36.73,46.8,31.39,35.94,0.86,-20.19,-10.7,21.09,26.29,36.73,0,15.64,-0.34
nf_cut_3_0_opt_disp_struct_3.xyz,Nucleus 22H :,-4.366284,1.191897,0.268462,28.45,37.91,25.05,22.39,32.21,49.44,42.6,-4.26,-14.39,-20.25,22.39,25.05,37.91,0,15.52,-0.66
nf_cut_3_0_opt_disp_struct_3.xyz,Nucleus 23H :,-3.322881,-0.22012,2.022858,29.87,35.27,27.86,26.49,38.49,19.27,8.93,-3.91,8.92,17.92,26.49,27.86,35.27,0,8.78,-0.69
nf_cut_3_0_opt_disp_struct_3.xyz,Nucleus 0C :,-0.868363,-0.568334,2.039886,161.06,188.0,139.03,156.15,256.17,240.53,243.32,-67.86,-104.56,-84.41,139.03,156.15,188.0,0,48.97,-0.3
nf_cut_3_0_opt_disp_struct_3.xyz,Nucleus 1C :,1.212562,-0.506909,-0.259772,33.67,175.78,-74.32,-0.46,237.15,261.22,271.64,-61.44,-335.59,-271.98,-74.32,-0.46,175.78,0,250.1,-0.41
nf_cut_3_0_opt_disp_struct_3.xyz,Nucleus 2C :,-3.91213,-3.509702,-2.870891,45.38,-65.43,39.18,162.39,273.16,260.64,243.27,-326.97,-232.99,-80.96,-65.43,39.18,162.39,0,227.82,-0.08
nf_cut_3_0_opt_disp_struct_3.xyz,Nucleus 3C :,-4.132178,-3.156349,-3.883908,46.17,-69.93,33.04,175.4,271.47,261.06,231.52,-331.35,-238.07,-56.11,-69.93,33.04,175.4,0,245.33,-0.16
nf_cut_3_0_opt_disp_struct_3.xyz,Nucleus 4C :,-4.663284,-3.101928,-2.188593,51.16,-62.14,177.96,37.67,227.74,259.21,275.31,-49.81,-321.32,-237.64,-62.14,37.67,177.96,0,240.1,-0.17
nf_cut_3_0_opt_disp_struct_3.xyz,Nucleus 5C :,-2.507522,-3.108031,-2.521047,45.08,-71.34,30.98,175.59,271.59,259.75,231.7,-331.65,-239.97,-56.19,-71.34,30.98,175.59,0,246.93,-0.17
nf_cut_3_0_opt_disp_struct_3.xyz,Nucleus 6C :,-1.51774,-3.697079,-2.938367,44.1,-67.21,35.76,163.76,271.36,260.69,243.5,-328.64,-234.85,-79.75,-67.21,35.76,163.76,0,230.97,-0.11
nf_cut_3_0_opt_disp_struct_3.xyz,Nucleus 15C :,-2.396252,-2.017804,-1.713048,163.72,191.6,156.58,142.99,257.73,231.7,221.99,-64.23,-74.36,-81.67,142.99,156.58,191.6,0,48.61,-0.44
nf_cut_3_0_opt_disp_struct_3.xyz,Nucleus 18C :,-3.191734,-1.433646,-1.564015,4.37,-88.24,7.04,94.3,269.12,259.04,216.0,-348.93,-260.17,-121.96,-88.24,7.04,94.3,0,182.54,0.04
nf_cut_3_0_opt_disp_struct_3.xyz,Nucleus 20N :,-1.484371,-1.610937,-1.649561,144.73,40.82,244.95,148.43,311.61,325.04,334.72,-284.11,-86.8,-166.26,40.82,148.43,244.95,0,204.13,0.05
nf_cut_3_0_opt_disp_struct_3.xyz,Nucleus 19O :,-3.984395,-4.598903,-2.883453,-101.25,-396.12,-225.68,318.06,426.17,389.38,397.06,-821.08,-616.28,-78.99,-396.12,-225.68,318.06,0,714.18,-0.52
nf_cut_3_0_opt_disp_struct_4.xyz,Nucleus 7H :,0.966333,0.411993,0.28816,29.1,34.48,28.64,24.19,42.04,28.14,28.74,-8.84,0.44,-3.2,24.19,28.64,34.48,0,10.29,-0.13
nf_cut_3_0_opt_disp_struct_4.xyz,Nucleus 8H :,-0.515261,0.645699,0.295952,29.02,34.51,28.47,24.08,42.6,27.6,28.59,-9.34,0.89,-3.29,24.08,28.47,34.51,0,10.43,-0.16
nf_cut_3_0_opt_disp_struct_4.xyz,Nucleus 9H :,-1.115666,1.418057,-0.706058,23.82,28.22,22.57,20.68,46.48,32.38,29.89,-24.18,-4.22,-8.87,20.68,22.57,28.22,0,7.54,-0.5
nf_cut_3_0_opt_disp_struct_4.xyz,Nucleus 10H :,-2.497705,1.613895,-0.71512,23.83,26.92,23.44,21.13,47.41,30.11,16.04,-24.04,-3.24,5.22,21.13,23.44,26.92,0,5.79,-0.2
nf_cut_3_0_opt_disp_struct_4.xyz,Nucleus 11H :,-3.291989,1.030616,0.270234,23.97,21.31,23.91,26.68,9.51,44.65,32.77,-20.83,11.89,-6.09,21.31,23.91,26.68,0,5.37,-0.03
nf_cut_3_0_opt_disp_struct_4.xyz,Nucleus 12H :,-2.705475,0.247332,1.262597,23.77,26.9,23.33,21.07,46.87,30.38,16.45,-23.59,-3.6,4.8,21.07,23.33,26.9,0,5.83,-0.23
nf_cut_3_0_opt_disp_struct_4.xyz,Nucleus 13H :,-1.323386,0.050639,1.272692,23.75,28.26,22.42,20.58,47.03,31.64,30.41,-24.91,-3.39,-9.52,20.58,22.42,28.26,0,7.68,-0.52
nf_cut_3_0_opt_disp_struct_4.xyz,Nucleus 14H :,1.497342,1.235147,-0.196276,28.66,34.04,26.31,25.63,43.0,31.34,28.66,-2.56,-3.58,-10.87,25.63,26.31,34.04,0,8.41,-0.84
nf_cut_3_0_opt_disp_struct_4.xyz,Nucleus 16H :,1.355175,0.297863,1.303343,29.71,34.29,27.03,27.81,38.42,18.54,12.63,-4.87,8.58,15.83,27.03,27.81,34.29,0,7.26,-0.79
nf_cut_3_0_opt_disp_struct_4.xyz,Nucleus 17H :,-0.498345,1.87096,-1.476437,30.11,25.65,33.52,31.15,41.38,11.99,25.44,-8.26,13.98,5.79,25.65,31.15,33.52,0,7.87,0.4
nf_cut_3_0_opt_disp_struct_4.xyz,Nucleus 21H :,-2.952317,2.218191,-1.493952,27.91,26.47,21.48,35.79,47.51,31.4,35.91,0.55,-20.62,-11.01,21.48,26.47,35.79,0,14.31,-0.3
nf_cut_3_0_opt_disp_struct_4.xyz,Nucleus 22H :,-4.366284,1.191897,0.268462,28.29,37.21,24.91,22.75,32.35,48.87,43.53,-4.88,-14.12,-20.88,22.75,24.91,37.21,0,14.46,-0.7
nf_cut_3_0_opt_disp_struct_4.xyz,Nucleus 23H :,-3.322881,-0.22012,2.022858,29.82,35.17,27.84,26.45,38.38,19.0,8.11,-3.9,9.16,18.72,26.45,27.84,35.17,0,8.72,-0.68
nf_cut_3_0_opt_disp_struct_4.xyz,Nucleus 0C :,-0.868363,-0.568334,2.039886,161.12,188.08,139.02,156.25,255.99,240.31,243.23,-67.65,-104.44,-84.1,139.02,156.25,188.08,0,49.06,-0.3
nf_cut_3_0_opt_disp_struct_4.xyz,Nucleus 1C :,1.212562,-0.506909,-0.259772,33.84,175.62,-74.25,0.15,237.04,261.0,271.19,-61.48,-335.29,-270.94,-74.25,0.15,175.62,0,249.87,-0.4
nf_cut_3_0_opt_disp_struct_4.xyz,Nucleus 2C :,-3.939157,-3.714115,-3.012259,45.52,-65.33,39.69,162.2,272.8,260.62,243.15,-326.81,-232.18,-81.01,-65.33,39.69,162.2,0,227.53,-0.08
nf_cut_3_0_opt_disp_struct_4.xyz,Nucleus 3C :,-4.159205,-3.360762,-4.025277,46.36,-69.7,33.58,175.2,271.26,260.95,231.36,-330.99,-237.33,-56.17,-69.7,33.58,175.2,0,244.9,-0.16
nf_cut_3_0_opt_disp_struct_4.xyz,Nucleus 4C :,-4.690311,-3.306341,-2.329962,51.07,-62.29,177.7,37.81,227.68,258.89,274.89,-49.99,-321.19,-237.07,-62.29,37.81,177.7,0,239.99,-0.17
nf_cut_3_0_opt_disp_struct_4.xyz,Nucleus 5C :,-2.534549,-3.312444,-2.662416,45.46,-70.87,31.81,175.43,271.63,259.75,231.66,-331.16,-239.21,-56.29,-70.87,31.81,175.43,0,246.3,-0.17
nf_cut_3_0_opt_disp_struct_4.xyz,Nucleus 6C :,-1.544766,-3.901491,-3.079735,44.49,-66.76,36.65,163.59,271.21,260.98,243.38,-328.42,-233.88,-79.79,-66.76,36.65,163.59,0,230.35,-0.1
nf_cut_3_0_opt_disp_struct_4.xyz,Nucleus 15C :,-2.423279,-2.222216,-1.854416,163.52,191.46,156.28,142.83,257.88,231.51,221.32,-64.46,-74.3,-81.37,142.83,156.28,191.46,0,48.63,-0.45
nf_cut_3_0_opt_disp_struct_4.xyz,Nucleus 18C :,-3.218761,-1.638059,-1.705383,4.36,-88.73,7.51,94.3,269.37,258.71,214.79,-349.12,-259.92,-120.75,-88.73,7.51,94.3,0,183.03,0.05
nf_cut_3_0_opt_disp_struct_4.xyz,Nucleus 20N :,-1.511398,-1.81535,-1.790929,145.12,42.76,245.0,147.6,311.97,325.24,334.61,-282.42,-86.14,-167.91,42.76,147.6,245.0,0,202.24,0.04
nf_cut_3_0_opt_disp_struct_4.xyz,Nucleus 19O :,-4.011422,-4.803316,-3.024822,-102.43,-398.32,-227.23,318.25,426.37,388.91,395.77,-823.46,-617.36,-77.52,-398.32,-227.23,318.25,0,716.57,-0.52
nf_cut_3_0_opt_disp_struct_5.xyz,Nucleus 7H :,0.966333,0.411993,0.28816,29.11,34.46,28.66,24.21,41.98,28.17,28.72,-8.82,0.45,-3.17,24.21,28.66,34.46,0,10.25,-0.13
nf_cut_3_0_opt_disp_struct_5.xyz,Nucleus 8H :,-0.515261,0.645699,0.295952,29.03,34.49,28.49,24.1,42.53,27.61,28.61,-9.31,0.9,-3.26,24.1,28.49,34.49,0,10.39,-0.16
nf_cut_3_0_opt_disp_struct_5.xyz,Nucleus 9H :,-1.115666,1.418057,-0.706058,23.83,28.27,22.5,20.72,46.44,32.34,29.84,-24.16,-4.14,-8.83,20.72,22.5,28.27,0,7.55,-0.53
nf_cut_3_0_opt_disp_struct_5.xyz,Nucleus 10H :,-2.497705,1.613895,-0.71512,23.83,26.96,23.41,21.13,47.36,30.12,15.93,-24.0,-3.21,5.31,21.13,23.41,26.96,0,5.83,-0.22
nf_cut_3_0_opt_disp_struct_5.xyz,Nucleus 11H :,-3.291989,1.030616,0.270234,23.97,21.3,23.87,26.74,9.31,44.58,32.74,-20.77,12.05,-6.0,21.3,23.87,26.74,0,5.44,-0.06
nf_cut_3_0_opt_disp_struct_5.xyz,Nucleus 12H :,-2.705475,0.247332,1.262597,23.78,26.94,23.31,21.08,46.81,30.47,16.46,-23.53,-3.63,4.75,21.08,23.31,26.94,0,5.86,-0.24
nf_cut_3_0_opt_disp_struct_5.xyz,Nucleus 13H :,-1.323386,0.050639,1.272692,23.77,28.3,22.38,20.63,47.03,31.66,30.41,-24.91,-3.38,-9.51,20.63,22.38,28.3,0,7.67,-0.54
nf_cut_3_0_opt_disp_struct_5.xyz,Nucleus 14H :,1.497342,1.235147,-0.196276,28.68,34.09,26.26,25.68,43.0,31.27,28.68,-2.54,-3.56,-10.81,25.68,26.26,34.09,0,8.41,-0.86
nf_cut_3_0_opt_disp_struct_5.xyz,Nucleus 16H :,1.355175,0.297863,1.303343,29.68,34.25,27.04,27.76,38.32,18.48,11.96,-4.86,8.63,16.52,27.04,27.76,34.25,0,7.21,-0.8
nf_cut_3_0_opt_disp_struct_5.xyz,Nucleus 17H :,-0.498345,1.87096,-1.476437,30.08,25.68,33.57,31.0,41.54,11.65,25.45,-8.42,14.36,5.66,25.68,31.0,33.57,0,7.89,0.35
nf_cut_3_0_opt_disp_struct_5.xyz,Nucleus 21H :,-2.952317,2.218191,-1.493952,27.78,21.72,26.55,35.06,48.17,31.25,36.2,0.3,-21.14,-11.46,21.72,26.55,35.06,0,13.34,-0.28
nf_cut_3_0_opt_disp_struct_5.xyz,Nucleus 22H :,-4.366284,1.191897,0.268462,28.12,36.68,24.71,22.96,32.41,48.46,44.36,-5.31,-13.94,-21.62,22.96,24.71,36.68,0,13.72,-0.75
nf_cut_3_0_opt_disp_struct_5.xyz,Nucleus 23H :,-3.322881,-0.22012,2.022858,29.79,35.1,27.85,26.43,38.28,18.73,7.29,-3.88,9.4,19.55,26.43,27.85,35.1,0,8.67,-0.67
nf_cut_3_0_opt_disp_struct_5.xyz,Nucleus 0C :,-0.868363,-0.568334,2.039886,161.11,188.09,138.97,156.27,255.83,240.1,243.15,-67.51,-104.38,-83.87,138.97,156.27,188.09,0,49.12,-0.3
nf_cut_3_0_opt_disp_struct_5.xyz,Nucleus 1C :,1.212562,-0.506909,-0.259772,33.94,175.48,-74.25,0.6,236.92,260.83,270.8,-61.49,-335.12,-270.11,-74.25,0.6,175.48,0,249.73,-0.4
nf_cut_3_0_opt_disp_struct_5.xyz,Nucleus 2C :,-3.966184,-3.918527,-3.153628,45.55,-65.35,39.99,162.02,272.52,260.63,243.09,-326.78,-231.68,-81.12,-65.35,39.99,162.02,0,227.37,-0.07
nf_cut_3_0_opt_disp_struct_5.xyz,Nucleus 3C :,-4.186232,-3.565175,-4.166645,46.41,-69.63,33.86,175.01,271.11,260.88,231.27,-330.84,-236.91,-56.27,-69.63,33.86,175.01,0,244.64,-0.15
nf_cut_3_0_opt_disp_struct_5.xyz,Nucleus 4C :,-4.717337,-3.510753,-2.47133,50.93,-62.51,177.53,37.76,227.57,258.64,274.53,-50.06,-321.15,-236.76,-62.51,37.76,177.53,0,240.04,-0.16
nf_cut_3_0_opt_disp_struct_5.xyz,Nucleus 5C :,-2.561576,-3.516856,-2.803784,45.69,-70.58,32.37,175.27,271.64,259.74,231.65,-330.83,-238.7,-56.43,-70.58,32.37,175.27,0,245.85,-0.16
nf_cut_3_0_opt_disp_struct_5.xyz,Nucleus 6C :,-1.571793,-4.105904,-3.221104,44.76,-66.45,37.28,163.44,271.09,261.2,243.32,-328.27,-233.19,-79.89,-66.45,37.28,163.44,0,229.89,-0.1
nf_cut_3_0_opt_disp_struct_5.xyz,Nucleus 15C :,-2.450306,-2.426629,-1.995785,163.47,191.42,156.16,142.84,258.05,231.33,220.66,-64.61,-74.05,-80.96,142.84,156.16,191.42,0,48.58,-0.45
nf_cut_3_0_opt_disp_struct_5.xyz,Nucleus 18C :,-3.245788,-1.842472,-1.846752,4.35,-89.11,7.86,94.29,269.62,258.4,213.66,-349.22,-259.77,-119.65,-89.11,7.86,94.29,0,183.4,0.06
nf_cut_3_0_opt_disp_struct_5.xyz,Nucleus 20N :,-1.538425,-2.019762,-1.932298,145.33,43.93,244.88,147.19,312.25,325.55,334.58,-281.57,-85.67,-169.14,43.93,147.19,244.88,0,200.95,0.03
nf_cut_3_0_opt_disp_struct_5.xyz,Nucleus 19O :,-4.038449,-5.007728,-3.16619,-103.48,-400.27,-228.46,318.3,426.56,388.48,394.6,-825.6,-618.17,-76.3,-400.27,-228.46,318.3,0,718.57,-0.52
nf_cut_3_0_opt_disp_struct_6.xyz,Nucleus 7H :,0.966333,0.411993,0.28816,29.11,34.45,28.67,24.22,41.93,28.18,28.7,-8.8,0.46,-3.13,24.22,28.67,34.45,0,10.23,-0.13
nf_cut_3_0_opt_disp_struct_6.xyz,Nucleus 8H :,-0.515261,0.645699,0.295952,29.03,34.47,28.51,24.12,42.48,27.6,28.61,-9.29,0.92,-3.23,24.12,28.51,34.47,0,10.35,-0.15
nf_cut_3_0_opt_disp_struct_6.xyz,Nucleus 9H :,-1.115666,1.418057,-0.706058,23.83,28.31,22.44,20.75,46.39,32.33,29.79,-24.12,-4.08,-8.8,20.75,22.44,28.31,0,7.56,-0.55
nf_cut_3_0_opt_disp_struct_6.xyz,Nucleus 10H :,-2.497705,1.613895,-0.71512,23.83,27.0,23.38,21.12,47.29,30.14,15.83,-23.94,-3.19,5.37,21.12,23.38,27.0,0,5.88,-0.23
nf_cut_3_0_opt_disp_struct_6.xyz,Nucleus 11H :,-3.291989,1.030616,0.270234,23.97,21.28,23.84,26.79,9.16,44.52,32.71,-20.72,12.16,-5.92,21.28,23.84,26.79,0,5.51,-0.07
nf_cut_3_0_opt_disp_struct_6.xyz,Nucleus 12H :,-2.705475,0.247332,1.262597,23.78,26.97,23.31,21.07,46.74,30.54,16.45,-23.45,-3.65,4.73,21.07,23.31,26.97,0,5.9,-0.24
nf_cut_3_0_opt_disp_struct_6.xyz,Nucleus 13H :,-1.323386,0.050639,1.272692,23.78,28.34,22.34,20.66,47.01,31.68,30.4,-24.89,-3.37,-9.49,20.66,22.34,28.34,0,7.68,-0.56
nf_cut_3_0_opt_disp_struct_6.xyz,Nucleus 14H :,1.497342,1.235147,-0.196276,28.69,34.14,26.21,25.73,42.98,31.21,28.68,-2.5,-3.53,-10.75,25.73,26.21,34.14,0,8.41,-0.88
nf_cut_3_0_opt_disp_struct_6.xyz,Nucleus 16H :,1.355175,0.297863,1.303343,29.66,34.22,27.05,27.71,38.23,18.41,11.29,-4.85,8.69,17.21,27.05,27.71,34.22,0,7.17,-0.82
nf_cut_3_0_opt_disp_struct_6.xyz,Nucleus 17H :,-0.498345,1.87096,-1.476437,30.05,25.7,33.6,30.86,41.71,11.31,25.45,-8.59,14.73,5.55,25.7,30.86,33.6,0,7.9,0.31
nf_cut_3_0_opt_disp_struct_6.xyz,Nucleus 21H :,-2.952317,2.218191,-1.493952,27.64,21.88,26.57,34.48,48.8,31.0,36.67,0.12,-21.69,-11.97,21.88,26.57,34.48,0,12.6,-0.25
nf_cut_3_0_opt_disp_struct_6.xyz,Nucleus 22H :,-4.366284,1.191897,0.268462,27.97,36.28,24.51,23.11,32.43,48.22,45.08,-5.61,-13.82,-22.38,23.11,24.51,36.28,0,13.17,-0.79
nf_cut_3_0_opt_disp_struct_6.xyz,Nucleus 23H :,-3.322881,-0.22012,2.022858,29.77,35.03,27.85,26.42,38.2,18.46,6.48,-3.87,9.65,20.38,26.42,27.85,35.03,0,8.61,-0.67
nf_cut_3_0_opt_disp_struct_6.xyz,Nucleus 0C :,-0.868363,-0.568334,2.039886,161.11,188.1,138.93,156.3,255.7,239.94,243.1,-67.4,-104.35,-83.68,138.93,156.3,188.1,0,49.17,-0.29
nf_cut_3_0_opt_disp_struct_6.xyz,Nucleus 1C :,1.212562,-0.506909,-0.259772,34.03,175.37,-74.24,0.96,236.8,260.74,270.49,-61.48,-335.02,-269.45,-74.24,0.96,175.37,0,249.61,-0.4
nf_cut_3_0_opt_disp_struct_6.xyz,Nucleus 2C :,-3.993211,-4.12294,-3.294996,45.56,-65.38,40.18,161.87,272.32,260.63,243.04,-326.76,-231.35,-81.23,-65.38,40.18,161.87,0,227.25,-0.07
nf_cut_3_0_opt_disp_struct_6.xyz,Nucleus 3C :,-4.213259,-3.769587,-4.308013,46.42,-69.62,34.02,174.86,271.01,260.8,231.2,-330.73,-236.67,-56.36,-69.62,34.02,174.86,0,244.48,-0.15
nf_cut_3_0_opt_disp_struct_6.xyz,Nucleus 4C :,-4.744364,-3.715166,-2.612699,50.8,-62.67,177.39,37.68,227.43,258.48,274.25,-50.07,-321.14,-236.56,-62.67,37.68,177.39,0,240.06,-0.16
nf_cut_3_0_opt_disp_struct_6.xyz,Nucleus 5C :,-2.588603,-3.721269,-2.945153,45.83,-70.39,32.75,175.13,271.63,259.71,231.63,-330.59,-238.34,-56.55,-70.39,32.75,175.13,0,245.52,-0.16
nf_cut_3_0_opt_disp_struct_6.xyz,Nucleus 6C :,-1.59882,-4.310317,-3.362472,44.94,-66.24,37.75,163.3,271.01,261.33,243.27,-328.13,-232.69,-79.99,-66.24,37.75,163.3,0,229.54,-0.09
nf_cut_3_0_opt_disp_struct_6.xyz,Nucleus 15C :,-2.477333,-2.631041,-2.137153,163.43,191.38,156.07,142.84,258.21,231.16,220.02,-64.75,-73.78,-80.57,142.84,156.07,191.38,0,48.54,-0.45
nf_cut_3_0_opt_disp_struct_6.xyz,Nucleus 18C :,-3.272815,-2.046884,-1.98812,4.33,-89.43,8.13,94.29,269.86,258.12,212.61,-349.28,-259.71,-118.61,-89.43,8.13,94.29,0,183.72,0.06
nf_cut_3_0_opt_disp_struct_6.xyz,Nucleus 20N :,-1.565452,-2.224175,-2.073666,145.47,44.71,244.7,147.01,312.53,325.89,334.61,-281.16,-85.32,-170.12,44.71,147.01,244.7,0,199.99,0.02
nf_cut_3_0_opt_disp_struct_6.xyz,Nucleus 19O :,-4.065476,-5.212141,-3.307558,-104.27,-401.77,-229.39,318.35,426.74,388.09,393.57,-827.26,-618.74,-75.21,-401.77,-229.39,318.35,0,720.12,-0.52
nf_cut_3_0_opt_disp_struct_7.xyz,Nucleus 7H :,0.966333,0.411993,0.28816,29.12,34.43,28.69,24.23,41.89,28.19,28.67,-8.79,0.48,-3.08,24.23,28.69,34.43,0,10.2,-0.13
nf_cut_3_0_opt_disp_struct_7.xyz,Nucleus 8H :,-0.515261,0.645699,0.295952,29.04,34.45,28.52,24.14,42.44,27.6,28.6,-9.28,0.94,-3.19,24.14,28.52,34.45,0,10.31,-0.15
nf_cut_3_0_opt_disp_struct_7.xyz,Nucleus 9H :,-1.115666,1.418057,-0.706058,23.84,28.34,22.4,20.77,46.33,32.31,29.75,-24.07,-4.03,-8.78,20.77,22.4,28.34,0,7.57,-0.57
nf_cut_3_0_opt_disp_struct_7.xyz,Nucleus 10H :,-2.497705,1.613895,-0.71512,23.84,27.03,23.37,21.11,47.22,30.16,15.75,-23.87,-3.17,5.42,21.11,23.37,27.03,0,5.92,-0.24
nf_cut_3_0_opt_disp_struct_7.xyz,Nucleus 11H :,-3.291989,1.030616,0.270234,23.97,21.25,23.82,26.83,9.04,44.47,32.68,-20.67,12.24,-5.85,21.25,23.82,26.83,0,5.58,-0.08
nf_cut_3_0_opt_disp_struct_7.xyz,Nucleus 12H :,-2.705475,0.247332,1.262597,23.79,27.01,23.3,21.06,46.66,30.59,16.43,-23.37,-3.66,4.72,21.06,23.3,27.01,0,5.95,-0.25
nf_cut_3_0_opt_disp_struct_7.xyz,Nucleus 13H :,-1.323386,0.050639,1.272692,23.79,28.37,22.31,20.69,46.97,31.69,30.37,-24.85,-3.35,-9.48,20.69,22.31,28.37,0,7.68,-0.58
nf_cut_3_0_opt_disp_struct_7.xyz,Nucleus 14H :,1.497342,1.235147,-0.196276,28.71,34.18,26.17,25.77,42.97,31.16,28.67,-2.46,-3.51,-10.7,25.77,26.17,34.18,0,8.41,-0.91
nf_cut_3_0_opt_disp_struct_7.xyz,Nucleus 16H :,1.355175,0.297863,1.303343,29.64,34.19,27.06,27.67,38.15,18.34,10.62,-4.85,8.76,17.89,27.06,27.67,34.19,0,7.13,-0.83
nf_cut_3_0_opt_disp_struct_7.xyz,Nucleus 17H :,-0.498345,1.87096,-1.476437,30.03,25.72,33.64,30.74,41.87,10.96,25.45,-8.76,15.11,5.45,25.72,30.74,33.64,0,7.92,0.27
nf_cut_3_0_opt_disp_struct_7.xyz,Nucleus 21H :,-2.952317,2.218191,-1.493952,27.53,34.02,26.57,22.0,49.38,30.72,37.22,-0.01,-22.23,-12.49,22.0,26.57,34.02,0,12.02,-0.24
nf_cut_3_0_opt_disp_struct_7.xyz,Nucleus 22H :,-4.366284,1.191897,0.268462,27.84,35.96,24.33,23.22,32.43,48.19,45.62,-5.83,-13.75,-23.15,23.22,24.33,35.96,0,12.74,-0.83
nf_cut_3_0_opt_disp_struct_7.xyz,Nucleus 23H :,-3.322881,-0.22012,2.022858,29.75,34.97,27.86,26.41,38.12,18.2,5.67,-3.86,9.9,21.21,26.41,27.86,34.97,0,8.56,-0.66
nf_cut_3_0_opt_disp_struct_7.xyz,Nucleus 0C :,-0.868363,-0.568334,2.039886,161.1,188.1,138.88,156.33,255.6,239.82,243.07,-67.3,-104.35,-83.52,138.88,156.33,188.1,0,49.22,-0.29
nf_cut_3_0_opt_disp_struct_7.xyz,Nucleus 1C :,1.212562,-0.506909,-0.259772,34.1,175.27,-74.22,1.25,236.69,260.69,270.23,-61.47,-334.96,-268.89,-74.22,1.25,175.27,0,249.49,-0.4
nf_cut_3_0_opt_disp_struct_7.xyz,Nucleus 2C :,-4.020237,-4.327352,-3.436365,45.54,-65.42,40.3,161.74,272.16,260.62,243.01,-326.73,-231.11,-81.33,-65.42,40.3,161.74,0,227.16,-0.07
nf_cut_3_0_opt_disp_struct_7.xyz,Nucleus 3C :,-4.240286,-3.974,-4.449382,46.4,-69.63,34.1,174.73,270.92,260.71,231.14,-330.62,-236.52,-56.43,-69.63,34.1,174.73,0,244.36,-0.15
nf_cut_3_0_opt_disp_struct_7.xyz,Nucleus 4C :,-4.771391,-3.919579,-2.754067,50.68,-62.81,177.27,37.58,227.28,258.36,274.01,-50.06,-321.13,-236.41,-62.81,37.58,177.27,0,240.08,-0.16
nf_cut_3_0_opt_disp_struct_7.xyz,Nucleus 5C :,-2.61563,-3.925682,-3.086521,45.92,-70.26,33.02,175.0,271.59,259.68,231.61,-330.4,-238.08,-56.65,-70.26,33.02,175.0,0,245.26,-0.16
nf_cut_3_0_opt_disp_struct_7.xyz,Nucleus 6C :,-1.625847,-4.514729,-3.50384,45.06,-66.09,38.09,163.17,270.94,261.39,243.23,-327.98,-232.32,-80.09,-66.09,38.09,163.17,0,229.26,-0.09
nf_cut_3_0_opt_disp_struct_7.xyz,Nucleus 15C :,-2.504359,-2.835454,-2.278521,163.4,191.35,155.99,142.85,258.38,230.98,219.39,-64.88,-73.5,-80.19,142.85,155.99,191.35,0,48.5,-0.46
nf_cut_3_0_opt_disp_struct_7.xyz,Nucleus 18C :,-3.299842,-2.251297,-2.129489,4.32,-89.69,8.35,94.3,270.09,257.87,211.61,-349.3,-259.7,-117.61,-89.69,8.35,94.3,0,183.99,0.07
nf_cut_3_0_opt_disp_struct_7.xyz,Nucleus 20N :,-1.592478,-2.428588,-2.215035,145.58,45.27,244.51,146.97,312.68,326.18,334.66,-280.91,-85.01,-170.85,45.27,146.97,244.51,0,199.24,0.02
nf_cut_3_0_opt_disp_struct_7.xyz,Nucleus 19O :,-4.092503,-5.416554,-3.448927,-104.87,-402.9,-230.1,318.4,426.91,387.74,392.68,-828.55,-619.12,-74.27,-402.9,-230.1,318.4,0,721.3,-0.52
nf_cut_3_0_opt_disp_struct_8.xyz,Nucleus 7H :,0.966333,0.411993,0.28816,29.12,34.42,28.7,24.24,41.85,28.19,28.65,-8.78,0.5,-3.04,24.24,28.7,34.42,0,10.18,-0.12
nf_cut_3_0_opt_disp_struct_8.xyz,Nucleus 8H :,-0.515261,0.645699,0.295952,29.04,34.43,28.54,24.15,42.41,27.58,28.58,-9.28,0.97,-3.14,24.15,28.54,34.43,0,10.28,-0.15
nf_cut_3_0_opt_disp_struct_8.xyz,Nucleus 9H :,-1.115666,1.418057,-0.706058,23.84,28.37,22.37,20.78,46.27,32.29,29.71,-24.01,-3.98,-8.76,20.78,22.37,28.37,0,7.59,-0.58
nf_cut_3_0_opt_disp_struct_8.xyz,Nucleus 10H :,-2.497705,1.613895,-0.71512,23.84,27.06,23.36,21.09,47.13,30.17,15.68,-23.78,-3.15,5.47,21.09,23.36,27.06,0,5.97,-0.24
nf_cut_3_0_opt_disp_struct_8.xyz,Nucleus 11H :,-3.291989,1.030616,0.270234,23.97,21.23,23.81,26.87,8.95,44.42,32.65,-20.63,12.3,-5.78,21.23,23.81,26.87,0,5.64,-0.09
nf_cut_3_0_opt_disp_struct_8.xyz,Nucleus 12H :,-2.705475,0.247332,1.262597,23.8,27.04,23.3,21.05,46.59,30.63,16.4,-23.29,-3.66,4.72,21.05,23.3,27.04,0,5.99,-0.25
nf_cut_3_0_opt_disp_struct_8.xyz,Nucleus 13H :,-1.323386,0.050639,1.272692,23.8,28.4,22.29,20.7,46.92,31.69,30.35,-24.79,-3.32,-9.46,20.7,22.29,28.4,0,7.7,-0.59
nf_cut_3_0_opt_disp_struct_8.xyz,Nucleus 14H :,1.497342,1.235147,-0.196276,28.72,34.22,26.13,25.8,42.95,31.12,28.65,-2.42,-3.48,-10.66,25.8,26.13,34.22,0,8.42,-0.92
nf_cut_3_0_opt_disp_struct_8.xyz,Nucleus 16H :,1.355175,0.297863,1.303343,29.62,34.16,27.07,27.63,38.09,18.26,9.97,-4.86,8.84,18.57,27.07,27.63,34.16,0,7.09,-0.84
nf_cut_3_0_opt_disp_struct_8.xyz,Nucleus 17H :,-0.498345,1.87096,-1.476437,30.01,25.73,33.66,30.64,42.04,10.61,25.46,-8.94,15.5,5.37,25.73,30.64,33.66,0,7.93,0.24
nf_cut_3_0_opt_disp_struct_8.xyz,Nucleus 21H :,-2.952317,2.218191,-1.493952,27.43,33.66,26.55,22.09,49.93,30.45,37.8,-0.09,-22.78,-13.01,22.09,26.55,33.66,0,11.57,-0.23
nf_cut_3_0_opt_disp_struct_8.xyz,Nucleus 22H :,-4.366284,1.191897,0.268462,27.73,35.71,24.17,23.31,32.44,45.93,48.45,-5.99,-13.72,-23.92,23.31,24.17,35.71,0,12.4,-0.86
nf_cut_3_0_opt_disp_struct_8.xyz,Nucleus 23H :,-3.322881,-0.22012,2.022858,29.73,34.92,27.86,26.4,38.06,17.93,4.86,-3.85,10.15,22.03,26.4,27.86,34.92,0,8.52,-0.66
nf_cut_3_0_opt_disp_struct_8.xyz,Nucleus 0C :,-0.868363,-0.568334,2.039886,161.1,188.11,138.84,156.36,255.52,239.73,243.05,-67.23,-104.36,-83.4,138.84,156.36,188.11,0,49.27,-0.29
nf_cut_3_0_opt_disp_struct_8.xyz,Nucleus 1C :,1.212562,-0.506909,-0.259772,34.16,175.19,-74.2,1.5,236.6,260.68,270.0,-61.46,-334.92,-268.41,-74.2,1.5,175.19,0,249.39,-0.39
nf_cut_3_0_opt_disp_struct_8.xyz,Nucleus 2C :,-4.047264,-4.531765,-3.577733,45.52,-65.45,40.39,161.62,272.01,260.58,242.98,-326.67,-230.92,-81.41,-65.45,40.39,161.62,0,227.07,-0.07
nf_cut_3_0_opt_disp_struct_8.xyz,Nucleus 3C :,-4.267313,-4.178413,-4.59075,46.37,-69.64,34.14,174.62,270.84,260.59,231.08,-330.49,-236.42,-56.48,-69.64,34.14,174.62,0,244.26,-0.15
nf_cut_3_0_opt_disp_struct_8.xyz,Nucleus 4C :,-4.798418,-4.123991,-2.895435,50.59,-62.9,177.18,37.5,227.15,258.29,273.8,-50.04,-321.14,-236.29,-62.9,37.5,177.18,0,240.08,-0.16
nf_cut_3_0_opt_disp_struct_8.xyz,Nucleus 5C :,-2.642656,-4.130094,-3.22789,45.98,-70.17,33.22,174.89,271.55,259.63,231.58,-330.22,-237.87,-56.72,-70.17,33.22,174.89,0,245.06,-0.16
nf_cut_3_0_opt_disp_struct_8.xyz,Nucleus 6C :,-1.652874,-4.719142,-3.645209,45.15,-65.97,38.37,163.06,270.87,261.4,243.18,-327.83,-232.02,-80.16,-65.97,38.37,163.06,0,229.03,-0.09
nf_cut_3_0_opt_disp_struct_8.xyz,Nucleus 15C :,-2.531386,-3.039867,-2.41989,163.37,191.32,155.92,142.86,258.55,230.81,218.78,-65.0,-73.22,-79.82,142.86,155.92,191.32,0,48.46,-0.46
nf_cut_3_0_opt_disp_struct_8.xyz,Nucleus 18C :,-3.326869,-2.45571,-2.270857,4.3,-89.91,8.51,94.31,270.31,257.63,210.64,-349.29,-259.75,-116.64,-89.91,8.51,94.31,0,184.22,0.07
nf_cut_3_0_opt_disp_struct_8.xyz,Nucleus 20N :,-1.619505,-2.633,-2.356403,145.68,45.71,244.34,147.0,312.82,326.44,334.8,-280.76,-84.73,-171.51,45.71,147.0,244.34,0,198.63,0.02
nf_cut_3_0_opt_disp_struct_8.xyz,Nucleus 19O :,-4.119529,-5.620966,-3.590295,-105.33,-403.79,-230.66,318.45,427.07,387.42,391.88,-829.58,-619.38,-73.41,-403.79,-230.66,318.45,0,722.24,-0.52
nf_cut_3_0_opt_disp_struct_9.xyz,Nucleus 7H :,0.966333,0.411993,0.28816,29.12,34.41,28.71,24.25,41.82,28.18,28.63,-8.77,0.52,-3.0,24.25,28.71,34.41,0,10.16,-0.12
nf_cut_3_0_opt_disp_struct_9.xyz,Nucleus 8H :,-0.515261,0.645699,0.295952,29.04,34.42,28.55,24.16,42.39,27.57,28.56,-9.28,0.99,-3.1,24.16,28.55,34.42,0,10.26,-0.14
nf_cut_3_0_opt_disp_struct_9.xyz,Nucleus 9H :,-1.115666,1.418057,-0.706058,23.84,28.4,22.35,20.78,46.2,32.27,29.67,-23.95,-3.92,-8.74,20.78,22.35,28.4,0,7.62,-0.59
nf_cut_3_0_opt_disp_struct_9.xyz,Nucleus 10H :,-2.497705,1.613895,-0.71512,23.83,27.08,23.35,21.07,47.03,30.18,15.61,-23.69,-3.13,5.5,21.07,23.35,27.08,0,6.01,-0.24
nf_cut_3_0_opt_disp_struct_9.xyz,Nucleus 11H :,-3.291989,1.030616,0.270234,23.97,21.2,23.8,26.9,8.87,44.38,32.6,-20.59,12.35,-5.71,21.2,23.8,26.9,0,5.7,-0.09
nf_cut_3_0_opt_disp_struct_9.xyz,Nucleus 12H :,-2.705475,0.247332,1.262597,23.8,27.06,23.31,21.03,46.51,30.66,16.36,-23.2,-3.65,4.73,21.03,23.31,27.06,0,6.03,-0.24
nf_cut_3_0_opt_disp_struct_9.xyz,Nucleus 13H :,-1.323386,0.050639,1.272692,23.8,28.42,22.27,20.72,46.86,31.69,30.32,-24.72,-3.29,-9.45,20.72,22.27,28.42,0,7.7,-0.6
nf_cut_3_0_opt_disp_struct_9.xyz,Nucleus 14H :,1.497342,1.235147,-0.196276,28.72,34.25,26.11,25.81,42.93,31.08,28.61,-2.37,-3.45,-10.63,25.81,26.11,34.25,0,8.44,-0.93
nf_cut_3_0_opt_disp_struct_9.xyz,Nucleus 16H :,1.355175,0.297863,1.303343,29.61,34.14,27.08,27.6,38.02,18.17,9.31,-4.87,8.93,19.25,27.08,27.6,34.14,0,7.06,-0.85
nf_cut_3_0_opt_disp_struct_9.xyz,Nucleus 17H :,-0.498345,1.87096,-1.476437,29.99,25.75,33.69,30.54,42.21,10.26,25.46,-9.12,15.89,5.3,25.75,30.54,33.69,0,7.94,0.21
nf_cut_3_0_opt_disp_struct_9.xyz,Nucleus 21H :,-2.952317,2.218191,-1.493952,27.35,33.36,26.52,22.16,50.44,30.21,38.38,-0.16,-23.32,-13.51,22.16,26.52,33.36,0,11.2,-0.22
nf_cut_3_0_opt_disp_struct_9.xyz,Nucleus 22H :,-4.366284,1.191897,0.268462,27.64,35.51,24.03,23.38,32.46,46.02,48.96,-24.69,-13.72,-6.11,23.38,24.03,35.51,0,12.13,-0.89
nf_cut_3_0_opt_disp_struct_9.xyz,Nucleus 23H :,-3.322881,-0.22012,2.022858,29.71,34.88,27.87,26.39,38.0,17.66,4.06,-3.84,10.41,22.84,26.39,27.87,34.88,0,8.49,-0.65
nf_cut_3_0_opt_disp_struct_9.xyz,Nucleus 0C :,-0.868363,-0.568334,2.039886,161.11,188.12,138.81,156.4,255.46,239.65,243.04,-67.16,-104.37,-83.29,138.81,156.4,188.12,0,49.31,-0.29
nf_cut_3_0_opt_disp_struct_9.xyz,Nucleus 1C :,1.212562,-0.506909,-0.259772,34.22,175.12,-74.16,1.71,236.52,260.68,269.78,-61.45,-334.89,-267.98,-74.16,1.71,175.12,0,249.28,-0.39
nf_cut_3_0_opt_disp_struct_9.xyz,Nucleus 2C :,-4.074291,-4.736178,-3.719102,45.5,-65.47,40.45,161.53,271.86,260.52,242.95,-326.59,-230.76,-81.47,-65.47,40.45,161.53,0,227.0,-0.07
nf_cut_3_0_opt_disp_struct_9.xyz,Nucleus 3C :,-4.294339,-4.382825,-4.732119,46.34,-69.66,34.16,174.53,270.74,260.46,231.03,-330.35,-236.34,-56.52,-69.66,34.16,174.53,0,244.19,-0.15
nf_cut_3_0_opt_disp_struct_9.xyz,Nucleus 4C :,-4.825445,-4.328404,-3.036804,50.51,-62.98,177.1,37.42,227.03,258.22,273.59,-50.01,-321.13,-236.16,-62.98,37.42,177.1,0,240.08,-0.16
nf_cut_3_0_opt_disp_struct_9.xyz,Nucleus 5C :,-2.669683,-4.334507,-3.369258,46.02,-70.1,33.37,174.8,271.48,259.57,231.55,-330.05,-237.69,-56.78,-70.1,33.37,174.8,0,244.9,-0.15
nf_cut_3_0_opt_disp_struct_9.xyz,Nucleus 6C :,-1.679901,-4.923554,-3.786577,45.22,-65.88,38.58,162.96,270.81,261.37,243.14,-327.67,-231.77,-80.22,-65.88,38.58,162.96,0,228.84,-0.09
nf_cut_3_0_opt_disp_struct_9.xyz,Nucleus 15C :,-2.558413,-3.244279,-2.561258,163.34,191.29,155.87,142.87,258.72,230.63,218.17,-65.1,-72.94,-79.45,142.87,155.87,191.29,0,48.42,-0.46
nf_cut_3_0_opt_disp_struct_9.xyz,Nucleus 18C :,-3.353895,-2.660122,-2.412226,4.29,-90.1,8.65,94.32,270.53,257.41,209.67,-349.26,-259.82,-115.66,-90.1,8.65,94.32,0,184.42,0.07
nf_cut_3_0_opt_disp_struct_9.xyz,Nucleus 20N :,-1.646532,-2.837413,-2.497771,145.79,46.1,244.2,147.08,312.97,326.67,335.0,-280.64,-84.46,-172.16,46.1,147.08,244.2,0,198.1,0.02
nf_cut_3_0_opt_disp_struct_9.xyz,Nucleus 19O :,-4.146556,-5.825379,-3.731664,-105.71,-404.52,-231.12,318.5,427.21,387.12,391.18,-830.43,-619.56,-72.65,-404.52,-231.12,318.5,0,723.02,-0.52
nw_cut_3_0_1f_opt.xyz,Nucleus 1H :,0.979332,-0.028792,-1.304036,29.08,35.29,23.37,28.58,40.96,25.69,28.4,-6.87,1.44,-2.39,23.37,28.58,35.29,0,11.92,-0.13
nw_cut_3_0_1f_opt.xyz,Nucleus 2H :,1.768432,0.613439,-1.703564,28.69,34.42,23.93,27.72,45.54,24.09,27.4,-12.23,1.97,-0.72,23.93,27.72,34.42,0,10.49,-0.28
nw_cut_3_0_1f_opt.xyz,Nucleus 6H :,1.194778,-1.057743,-1.611738,23.69,16.01,24.34,30.72,48.81,13.83,29.31,-18.58,2.55,-4.84,16.01,24.34,30.72,0,14.71,0.13
nw_cut_3_0_1f_opt.xyz,Nucleus 12H :,0.894284,0.096199,0.174476,24.2,20.58,24.49,27.52,47.78,19.78,30.61,-23.63,1.26,-3.2,20.58,24.49,27.52,0,6.94,0.13
nw_cut_3_0_1f_opt.xyz,Nucleus 14H :,1.668507,0.916225,0.972095,23.74,20.06,26.36,24.8,6.75,33.65,43.09,13.6,-7.3,-18.57,20.06,24.8,26.36,0,6.3,0.5
nw_cut_3_0_1f_opt.xyz,Nucleus 16H :,1.280536,0.74489,2.273389,23.96,19.6,27.66,24.61,9.32,31.48,48.52,-24.18,-3.83,10.56,19.6,24.61,27.66,0,8.06,0.24
nw_cut_3_0_1f_opt.xyz,Nucleus 17H :,1.694874,1.197222,3.069312,24.15,20.58,25.23,26.63,44.24,27.94,30.6,-18.96,-7.19,-4.2,20.58,25.23,26.63,0,6.05,0.54
nw_cut_3_0_1f_opt.xyz,Nucleus 18H :,0.25926,-0.172935,2.348578,28.65,35.1,27.26,23.58,41.82,26.73,32.09,0.08,-9.5,-5.29,23.58,27.26,35.1,0,11.52,-0.36
nw_cut_3_0_1f_opt.xyz,Nucleus 20H :,-0.008141,-0.596968,1.044476,30.32,36.27,27.96,26.73,40.72,18.84,13.64,-4.62,9.04,13.33,26.73,27.96,36.27,0,9.54,-0.74
nw_cut_3_0_1f_opt.xyz,Nucleus 21H :,-1.031453,-1.547241,0.857845,30.8,25.19,32.33,34.88,22.87,36.2,39.35,-6.0,-2.92,2.91,25.19,32.33,34.88,0,9.69,0.47
nw_cut_3_0_1f_opt.xyz,Nucleus 25H :,-1.337246,-1.990907,-0.370503,27.42,45.28,15.15,21.83,57.42,22.55,26.49,7.63,-10.83,-21.01,15.15,21.83,45.28,0,30.13,-0.56
nw_cut_3_0_1f_opt.xyz,Nucleus 26H :,-1.744451,-2.043297,1.950498,27.33,43.8,22.37,15.82,45.44,30.52,26.23,1.7,-13.23,-8.66,15.82,22.37,43.8,0,27.98,-0.53
nw_cut_3_0_1f_opt.xyz,Nucleus 27H :,-2.520057,-2.779802,1.771363,30.07,34.76,28.4,27.04,38.33,20.36,22.62,-4.34,4.89,8.34,27.04,28.4,34.76,0,7.72,-0.65
nw_cut_3_0_1f_opt.xyz,Nucleus 0C :,-1.451464,-1.600948,3.238023,170.77,186.69,160.52,165.11,258.25,236.46,238.57,-68.12,-74.53,-78.3,160.52,165.11,186.69,0,26.17,-0.65
nw_cut_3_0_1f_opt.xyz,Nucleus 3C :,-2.008519,-1.996295,4.08035,62.74,149.24,52.51,-13.54,242.22,263.72,273.97,-93.09,-221.06,-277.55,-13.54,52.51,149.24,0,162.78,-0.19
nw_cut_3_0_1f_opt.xyz,Nucleus 4C :,-0.443667,-0.655863,3.46124,55.07,-30.15,128.3,67.05,275.07,256.51,260.06,-295.64,-130.91,-199.89,-30.15,67.05,128.3,0,158.45,0.23
nw_cut_3_0_1f_opt.xyz,Nucleus 7C :,-0.205862,-0.325668,4.466364,34.28,137.66,-46.77,11.94,263.81,269.88,271.92,-130.49,-318.53,-253.77,-46.77,11.94,137.66,0,184.43,-0.36
nw_cut_3_0_1f_opt.xyz,Nucleus 8C :,2.458218,1.600311,0.699262,59.04,164.38,20.12,-7.37,234.24,266.81,261.56,-70.37,-241.54,-273.57,-7.37,20.12,164.38,0,171.75,-0.68
nw_cut_3_0_1f_opt.xyz,Nucleus 9C :,0.037036,0.254181,-1.785377,10.56,-70.81,75.94,26.54,236.25,264.14,270.04,-340.7,-160.82,-237.23,-70.81,26.54,75.94,0,146.75,0.33
nw_cut_3_0_1f_opt.xyz,Nucleus 11C :,3.016559,-3.892213,1.519956,65.52,166.68,-22.6,52.48,241.33,262.82,275.17,-75.64,-289.21,-217.91,-22.6,52.48,166.68,0,189.28,-0.21
nw_cut_3_0_1f_opt.xyz,Nucleus 13C :,3.946314,-4.181175,2.0139,51.06,175.04,35.97,-57.84,278.26,222.2,252.57,-48.05,-241.49,-310.31,-57.84,35.97,175.04,0,232.88,-0.19
nw_cut_3_0_1f_opt.xyz,Nucleus 15C :,3.155446,-2.935449,1.007882,62.16,174.16,42.41,-30.08,242.52,273.0,266.85,-68.61,-230.24,-297.04,-30.08,42.41,174.16,0,204.24,-0.29
nw_cut_3_0_1f_opt.xyz,Nucleus 19C :,1.902768,-3.87164,2.527413,164.01,191.46,158.83,141.74,256.77,234.51,243.47,-64.35,-84.61,-93.77,141.74,158.83,191.46,0,49.72,-0.31
nw_cut_3_0_1f_opt.xyz,Nucleus 22C :,1.784057,-4.708522,3.41422,5.15,-84.98,94.22,6.21,201.1,250.73,270.67,-106.93,-337.64,-262.48,-84.98,6.21,94.22,0,179.2,0.02
nw_cut_3_0_1f_opt.xyz,Nucleus 5N :,1.004505,-2.858664,2.384669,113.35,47.62,169.78,122.66,299.77,335.76,329.31,-130.44,-212.98,-281.36,47.62,122.66,169.78,0,122.16,0.23
nw_cut_3_0_1f_opt.xyz,Nucleus 24N :,1.014276,-2.332837,1.535187,134.6,6.99,232.27,164.53,293.96,328.06,346.69,-322.67,-109.03,-133.23,6.99,164.53,232.27,0,225.28,0.4
nw_cut_3_0_1f_opt.xyz,Nucleus 23O :,0.148911,-2.949432,2.896733,-86.92,324.33,-211.74,-373.35,344.69,382.14,426.96,-21.1,-595.18,-798.28,-373.35,-211.74,324.33,0,697.68,-0.54
nw_cut_3_0_1f_opt.xyz,Nucleus 10F :,2.792817,-4.659476,0.771157,296.82,396.32,213.88,280.27,483.77,457.96,467.42,-70.49,-245.03,-203.16,213.88,280.27,396.32,0,182.44,-0.27
nw_cut_3_0_1f_opt_disp_struct_0.xyz,Nucleus 1H :,0.979332,-0.028792,-1.304036,29.09,35.29,23.4,28.58,41.05,25.89,28.69,-6.97,1.01,-2.41,23.4,28.58,35.29,0,11.89,-0.13
nw_cut_3_0_1f_opt_disp_struct_0.xyz,Nucleus 2H :,1.768432,0.613439,-1.703564,28.71,34.44,23.94,27.75,45.73,24.7,27.34,-12.3,1.6,-0.94,23.94,27.75,34.44,0,10.5,-0.27
nw_cut_3_0_1f_opt_disp_struct_0.xyz,Nucleus 6H :,1.194778,-1.057743,-1.611738,23.78,16.08,24.48,30.79,49.27,14.01,29.28,-18.99,-4.7,2.47,16.08,24.48,30.79,0,14.71,0.14
nw_cut_3_0_1f_opt_disp_struct_0.xyz,Nucleus 12H :,0.894284,0.096199,0.174476,24.28,20.63,24.75,27.46,48.03,19.61,30.8,-23.62,1.48,-3.46,20.63,24.75,27.46,0,6.83,0.21
nw_cut_3_0_1f_opt_disp_struct_0.xyz,Nucleus 14H :,1.668507,0.916225,0.972095,23.83,20.14,26.36,24.98,6.87,33.29,43.37,13.55,-6.94,-18.66,20.14,24.98,26.36,0,6.22,0.55
nw_cut_3_0_1f_opt_disp_struct_0.xyz,Nucleus 16H :,1.280536,0.74489,2.273389,24.05,19.65,27.57,24.94,9.54,31.24,48.76,-24.1,-3.68,10.4,19.65,24.94,27.57,0,7.92,0.34
nw_cut_3_0_1f_opt_disp_struct_0.xyz,Nucleus 17H :,1.694874,1.197222,3.069312,24.18,20.63,25.27,26.65,44.42,28.07,30.97,-19.09,-7.26,-4.56,20.63,25.27,26.65,0,6.02,0.54
nw_cut_3_0_1f_opt_disp_struct_0.xyz,Nucleus 18H :,0.25926,-0.172935,2.348578,28.66,35.09,27.27,23.62,41.89,26.99,32.15,-0.18,-9.41,-5.46,23.62,27.27,35.09,0,11.47,-0.36
nw_cut_3_0_1f_opt_disp_struct_0.xyz,Nucleus 20H :,-0.008141,-0.596968,1.044476,30.2,36.07,27.89,26.64,40.43,18.57,12.9,-4.53,9.21,14.02,26.64,27.89,36.07,0,9.43,-0.73
nw_cut_3_0_1f_opt_disp_struct_0.xyz,Nucleus 21H :,-1.031453,-1.547241,0.857845,30.65,25.17,32.35,34.43,23.48,35.98,39.21,-6.13,-2.86,2.27,25.17,32.35,34.43,0,9.26,0.55
nw_cut_3_0_1f_opt_disp_struct_0.xyz,Nucleus 25H :,-1.337246,-1.990907,-0.370503,28.37,43.15,18.04,23.92,55.57,26.21,31.45,4.43,-12.86,-19.68,18.04,23.92,43.15,0,25.11,-0.53
nw_cut_3_0_1f_opt_disp_struct_0.xyz,Nucleus 26H :,-1.744451,-2.043297,1.950498,28.29,41.29,24.63,18.96,42.05,33.26,24.92,2.52,-8.48,-9.37,18.96,24.63,41.29,0,22.33,-0.49
nw_cut_3_0_1f_opt_disp_struct_0.xyz,Nucleus 27H :,-2.520057,-2.779802,1.771363,29.97,34.65,28.28,26.98,38.32,19.62,22.44,9.03,5.02,-4.52,26.98,28.28,34.65,0,7.67,-0.66
nw_cut_3_0_1f_opt_disp_struct_0.xyz,Nucleus 0C :,-1.451464,-1.600948,3.238023,170.74,186.62,160.52,165.09,258.27,236.95,238.49,-67.96,-74.91,-78.61,160.52,165.09,186.62,0,26.1,-0.65
nw_cut_3_0_1f_opt_disp_struct_0.xyz,Nucleus 3C :,-2.008519,-1.996295,4.08035,62.84,149.3,53.1,-13.88,242.03,274.56,263.93,-92.78,-221.24,-277.98,-13.88,53.1,149.3,0,163.18,-0.18
nw_cut_3_0_1f_opt_disp_struct_0.xyz,Nucleus 4C :,-0.443667,-0.655863,3.46124,55.31,-29.92,128.22,67.62,275.15,256.96,259.84,-295.37,-130.77,-199.88,-29.92,67.62,128.22,0,158.14,0.23
nw_cut_3_0_1f_opt_disp_struct_0.xyz,Nucleus 7C :,-0.205862,-0.325668,4.466364,36.03,137.68,-43.33,13.74,263.67,270.18,272.57,-130.27,-315.71,-252.35,-43.33,13.74,137.68,0,181.01,-0.37
nw_cut_3_0_1f_opt_disp_struct_0.xyz,Nucleus 8C :,2.458218,1.600311,0.699262,60.34,164.07,21.99,-5.04,235.1,268.43,262.88,-71.25,-241.61,-272.53,-5.04,21.99,164.07,0,169.11,-0.68
nw_cut_3_0_1f_opt_disp_struct_0.xyz,Nucleus 9C :,0.037036,0.254181,-1.785377,11.68,-67.59,75.9,26.74,236.67,264.7,270.82,-338.21,-160.93,-237.98,-67.59,26.74,75.9,0,143.49,0.31
nw_cut_3_0_1f_opt_disp_struct_0.xyz,Nucleus 11C :,3.183498,-4.076525,1.545655,67.6,166.67,-19.05,55.19,239.61,263.37,274.9,-73.99,-285.65,-215.43,-19.05,55.19,166.67,0,185.72,-0.2
nw_cut_3_0_1f_opt_disp_struct_0.xyz,Nucleus 13C :,4.113253,-4.365487,2.039599,52.13,174.8,38.04,-56.46,220.44,276.98,253.13,-46.38,-238.23,-309.56,-56.46,38.04,174.8,0,231.26,-0.18
nw_cut_3_0_1f_opt_disp_struct_0.xyz,Nucleus 15C :,3.322386,-3.11976,1.033581,65.06,174.22,46.6,-25.64,241.17,272.75,267.08,-67.33,-225.77,-292.73,-25.64,46.6,174.22,0,199.86,-0.28
nw_cut_3_0_1f_opt_disp_struct_0.xyz,Nucleus 19C :,2.069708,-4.055951,2.553112,163.9,191.41,158.27,142.03,257.14,234.67,242.82,-64.8,-84.38,-93.73,142.03,158.27,191.41,0,49.38,-0.34
nw_cut_3_0_1f_opt_disp_struct_0.xyz,Nucleus 22C :,1.950997,-4.892833,3.43992,4.56,-86.77,94.0,6.45,199.87,251.17,270.33,-105.91,-339.7,-262.08,-86.77,6.45,94.0,0,180.77,0.03
nw_cut_3_0_1f_opt_disp_struct_0.xyz,Nucleus 5N :,1.171444,-3.042976,2.410368,114.65,49.97,169.75,124.24,299.68,335.93,329.81,-130.58,-211.52,-279.35,49.97,124.24,169.75,0,119.78,0.24
nw_cut_3_0_1f_opt_disp_struct_0.xyz,Nucleus 24N :,1.181216,-2.517148,1.560886,140.0,23.16,240.01,156.83,294.44,326.81,344.64,-305.62,-98.63,-141.64,23.16,156.83,240.01,0,216.85,0.23
nw_cut_3_0_1f_opt_disp_struct_0.xyz,Nucleus 23O :,0.31585,-3.133744,2.922432,-93.55,322.17,-219.0,-383.83,342.98,381.55,426.78,-21.52,-601.8,-808.66,-383.83,-219.0,322.17,0,706.0,-0.53
nw_cut_3_0_1f_opt_disp_struct_0.xyz,Nucleus 10F :,2.959757,-4.843787,0.796856,298.68,396.6,217.1,282.33,484.5,458.38,467.35,-70.32,-242.23,-201.64,217.1,282.33,396.6,0,179.5,-0.27
nw_cut_3_0_1f_opt_disp_struct_1.xyz,Nucleus 1H :,0.979332,-0.028792,-1.304036,29.1,35.28,23.42,28.59,41.1,26.08,28.86,-7.04,0.73,-2.43,23.42,28.59,35.28,0,11.86,-0.13
nw_cut_3_0_1f_opt_disp_struct_1.xyz,Nucleus 2H :,1.768432,0.613439,-1.703564,28.72,34.46,23.96,27.74,45.83,25.16,27.28,-12.32,1.42,-1.19,23.96,27.74,34.46,0,10.5,-0.28
nw_cut_3_0_1f_opt_disp_struct_1.xyz,Nucleus 6H :,1.194778,-1.057743,-1.611738,23.83,16.13,24.57,30.8,49.55,14.13,29.28,-19.26,-4.61,2.4,16.13,24.57,30.8,0,14.67,0.15
nw_cut_3_0_1f_opt_disp_struct_1.xyz,Nucleus 12H :,0.894284,0.096199,0.174476,24.32,20.67,24.83,27.45,48.2,19.33,31.15,-23.69,1.79,-3.83,20.67,24.83,27.45,0,6.78,0.23
nw_cut_3_0_1f_opt_disp_struct_1.xyz,Nucleus 14H :,1.668507,0.916225,0.972095,23.87,20.19,26.41,25.01,6.72,33.15,43.55,13.72,-6.75,-18.78,20.19,25.01,26.41,0,6.22,0.55
nw_cut_3_0_1f_opt_disp_struct_1.xyz,Nucleus 16H :,1.280536,0.74489,2.273389,24.1,19.71,27.55,25.05,9.69,31.16,48.88,-24.08,-3.61,10.28,19.71,25.05,27.55,0,7.84,0.36
nw_cut_3_0_1f_opt_disp_struct_1.xyz,Nucleus 17H :,1.694874,1.197222,3.069312,24.21,20.67,25.29,26.67,44.54,28.19,31.15,-19.19,-7.33,-4.72,20.67,25.29,26.67,0,6.0,0.54
nw_cut_3_0_1f_opt_disp_struct_1.xyz,Nucleus 18H :,0.25926,-0.172935,2.348578,28.66,35.07,27.27,23.65,41.97,27.16,32.19,-0.36,-9.41,-5.56,23.65,27.27,35.07,0,11.42,-0.37
nw_cut_3_0_1f_opt_disp_struct_1.xyz,Nucleus 20H :,-0.008141,-0.596968,1.044476,30.11,35.89,27.86,26.58,40.17,18.31,12.15,-4.46,9.42,14.74,26.58,27.86,35.89,0,9.31,-0.73
nw_cut_3_0_1f_opt_disp_struct_1.xyz,Nucleus 21H :,-1.031453,-1.547241,0.857845,30.54,25.22,32.3,34.1,23.77,35.68,39.26,-6.29,-2.79,1.98,25.22,32.3,34.1,0,8.88,0.59
nw_cut_3_0_1f_opt_disp_struct_1.xyz,Nucleus 25H :,-1.337246,-1.990907,-0.370503,28.66,41.33,19.63,25.02,54.19,28.17,34.42,2.39,-14.26,-18.94,19.63,25.02,41.33,0,21.7,-0.5
nw_cut_3_0_1f_opt_disp_struct_1.xyz,Nucleus 26H :,-1.744451,-2.043297,1.950498,28.6,39.4,25.69,20.72,39.69,34.99,25.01,2.64,-6.62,-9.91,20.72,25.69,39.4,0,18.68,-0.47
nw_cut_3_0_1f_opt_disp_struct_1.xyz,Nucleus 27H :,-2.520057,-2.779802,1.771363,29.9,34.55,28.19,26.97,38.27,18.92,22.27,9.7,5.17,-4.63,26.97,28.19,34.55,0,7.58,-0.68
nw_cut_3_0_1f_opt_disp_struct_1.xyz,Nucleus 0C :,-1.451464,-1.600948,3.238023,170.72,186.57,160.53,165.06,258.2,237.34,238.46,-78.72,-75.21,-67.9,160.53,165.06,186.57,0,26.04,-0.65
nw_cut_3_0_1f_opt_disp_struct_1.xyz,Nucleus 3C :,-2.008519,-1.996295,4.08035,62.87,149.33,53.41,-14.12,241.97,274.88,264.02,-92.66,-221.34,-278.25,-14.12,53.41,149.33,0,163.45,-0.17
nw_cut_3_0_1f_opt_disp_struct_1.xyz,Nucleus 4C :,-0.443667,-0.655863,3.46124,55.6,-29.56,128.17,68.18,275.09,257.45,259.34,-294.89,-130.61,-199.58,-29.56,68.18,128.17,0,157.73,0.24
nw_cut_3_0_1f_opt_disp_struct_1.xyz,Nucleus 7C :,-0.205862,-0.325668,4.466364,37.03,137.53,-41.39,14.94,263.37,270.55,273.04,-130.3,-314.24,-251.34,-41.39,14.94,137.53,0,178.92,-0.37
nw_cut_3_0_1f_opt_disp_struct_1.xyz,Nucleus 8C :,2.458218,1.600311,0.699262,60.94,163.79,22.88,-3.84,235.72,269.48,263.79,-72.08,-242.12,-271.96,-3.84,22.88,163.79,0,167.63,-0.68
nw_cut_3_0_1f_opt_disp_struct_1.xyz,Nucleus 9C :,0.037036,0.254181,-1.785377,12.23,-66.07,75.73,27.02,236.82,265.54,271.19,-337.11,-161.13,-238.62,-66.07,27.02,75.73,0,141.8,0.31
nw_cut_3_0_1f_opt_disp_struct_1.xyz,Nucleus 11C :,3.350438,-4.260836,1.571355,68.77,166.48,-17.21,57.03,238.47,263.65,275.05,-73.0,-283.93,-213.94,-17.21,57.03,166.48,0,183.69,-0.19
nw_cut_3_0_1f_opt_disp_struct_1.xyz,Nucleus 13C :,4.280193,-4.549798,2.065298,52.66,174.49,39.41,-55.92,218.95,276.07,253.6,-45.1,-236.06,-309.47,-55.92,39.41,174.49,0,230.41,-0.17
nw_cut_3_0_1f_opt_disp_struct_1.xyz,Nucleus 15C :,3.489326,-3.304072,1.059281,66.87,174.06,49.63,-23.09,239.89,272.46,267.18,-66.31,-222.41,-290.21,-23.09,49.63,174.06,0,197.15,-0.26
nw_cut_3_0_1f_opt_disp_struct_1.xyz,Nucleus 19C :,2.236648,-4.240263,2.578812,163.81,191.34,157.85,142.23,257.47,234.47,242.2,-65.2,-84.08,-93.44,142.23,157.85,191.34,0,49.11,-0.36
nw_cut_3_0_1f_opt_disp_struct_1.xyz,Nucleus 22C :,2.117936,-5.077145,3.465619,4.34,-87.85,93.9,6.96,198.64,251.51,270.38,-104.8,-340.93,-261.78,-87.85,6.96,93.9,0,181.75,0.04
nw_cut_3_0_1f_opt_disp_struct_1.xyz,Nucleus 5N :,1.338384,-3.227287,2.436067,115.5,51.51,169.69,125.29,299.46,336.06,330.09,-130.58,-210.55,-277.98,51.51,125.29,169.69,0,118.18,0.25
nw_cut_3_0_1f_opt_disp_struct_1.xyz,Nucleus 24N :,1.348155,-2.70146,1.586586,142.7,32.33,243.47,152.3,293.74,325.24,343.71,-295.3,-93.41,-145.88,32.33,152.3,243.47,0,211.14,0.14
nw_cut_3_0_1f_opt_disp_struct_1.xyz,Nucleus 23O :,0.48279,-3.318055,2.948132,-97.58,320.88,-223.41,-390.2,341.63,381.13,426.68,-21.43,-605.78,-814.96,-390.2,-223.41,320.88,0,711.08,-0.53
nw_cut_3_0_1f_opt_disp_struct_1.xyz,Nucleus 10F :,3.126696,-5.028099,0.822556,299.82,396.73,219.16,283.58,485.1,458.6,467.33,-70.39,-240.37,-200.81,219.16,283.58,396.73,0,177.57,-0.27
nw_cut_3_0_1f_opt_disp_struct_10.xyz,Nucleus 1H :,0.979332,-0.028792,-1.304036,29.16,35.19,23.51,28.77,40.85,26.39,29.14,-6.76,0.28,-2.42,23.51,28.77,35.19,0,11.68,-0.1
nw_cut_3_0_1f_opt_disp_struct_10.xyz,Nucleus 2H :,1.768432,0.613439,-1.703564,28.76,23.98,27.61,34.69,45.5,25.59,26.94,-11.7,1.73,-1.77,23.98,27.61,34.69,0,10.71,-0.32
nw_cut_3_0_1f_opt_disp_struct_10.xyz,Nucleus 6H :,1.194778,-1.057743,-1.611738,23.98,16.25,24.85,30.85,49.54,14.48,29.79,-19.1,2.0,-4.76,16.25,24.85,30.85,0,14.6,0.18
nw_cut_3_0_1f_opt_disp_struct_10.xyz,Nucleus 12H :,0.894284,0.096199,0.174476,24.35,20.67,24.71,27.68,47.59,18.37,31.52,-22.91,2.42,-3.93,20.67,24.71,27.68,0,7.01,0.15
nw_cut_3_0_1f_opt_disp_struct_10.xyz,Nucleus 14H :,1.668507,0.916225,0.972095,23.94,20.14,26.87,24.8,5.78,33.02,43.77,14.41,-6.16,-19.0,20.14,24.8,26.87,0,6.73,0.38
nw_cut_3_0_1f_opt_disp_struct_10.xyz,Nucleus 16H :,1.280536,0.74489,2.273389,24.24,19.78,27.87,25.06,10.23,31.66,47.97,9.64,-3.8,-23.0,19.78,25.06,27.87,0,8.09,0.3
nw_cut_3_0_1f_opt_disp_struct_10.xyz,Nucleus 17H :,1.694874,1.197222,3.069312,24.32,20.81,25.3,26.86,44.63,28.44,31.24,-19.27,-7.5,-4.58,20.81,25.3,26.86,0,6.05,0.49
nw_cut_3_0_1f_opt_disp_struct_10.xyz,Nucleus 18H :,0.25926,-0.172935,2.348578,28.69,34.93,27.35,23.78,41.92,27.07,32.03,-0.28,-9.33,-5.35,23.78,27.35,34.93,0,11.15,-0.36
nw_cut_3_0_1f_opt_disp_struct_10.xyz,Nucleus 20H :,-0.008141,-0.596968,1.044476,29.77,35.0,27.86,26.44,38.86,16.57,5.79,-4.22,11.13,21.16,26.44,27.86,35.0,0,8.56,-0.67
nw_cut_3_0_1f_opt_disp_struct_10.xyz,Nucleus 21H :,-1.031453,-1.547241,0.857845,30.08,25.62,30.88,33.73,41.75,32.96,23.07,-9.07,-1.5,3.04,25.62,30.88,33.73,0,8.11,0.3
nw_cut_3_0_1f_opt_disp_struct_10.xyz,Nucleus 25H :,-1.337246,-1.990907,-0.370503,27.43,34.04,26.24,22.01,31.96,47.46,50.08,-2.46,-25.59,-19.15,22.01,26.24,34.04,0,12.03,-0.3
nw_cut_3_0_1f_opt_disp_struct_10.xyz,Nucleus 26H :,-1.744451,-2.043297,1.950498,27.56,34.83,23.33,24.51,42.61,35.58,32.11,-2.08,-13.65,-11.9,23.33,24.51,34.83,0,11.5,-0.8
nw_cut_3_0_1f_opt_disp_struct_10.xyz,Nucleus 27H :,-2.520057,-2.779802,1.771363,29.62,34.12,27.67,27.08,38.01,13.13,20.99,15.51,6.51,-5.27,27.08,27.67,34.12,0,7.04,-0.83
nw_cut_3_0_1f_opt_disp_struct_10.xyz,Nucleus 0C :,-1.451464,-1.600948,3.238023,170.66,186.52,160.64,164.83,257.44,238.04,237.48,-78.05,-75.2,-67.73,160.64,164.83,186.52,0,25.88,-0.68
nw_cut_3_0_1f_opt_disp_struct_10.xyz,Nucleus 3C :,-2.008519,-1.996295,4.08035,62.44,149.17,53.24,-15.09,240.47,273.02,263.44,-91.33,-219.68,-278.58,-15.09,53.24,149.17,0,164.26,-0.17
nw_cut_3_0_1f_opt_disp_struct_10.xyz,Nucleus 4C :,-0.443667,-0.655863,3.46124,56.85,-27.95,127.9,70.59,273.96,258.11,258.67,-292.8,-130.79,-196.62,-27.95,70.59,127.9,0,155.85,0.26
nw_cut_3_0_1f_opt_disp_struct_10.xyz,Nucleus 7C :,-0.205862,-0.325668,4.466364,38.13,136.57,-39.37,17.19,271.67,266.4,264.46,-129.0,-311.0,-248.14,-39.37,17.19,136.57,0,175.94,-0.36
nw_cut_3_0_1f_opt_disp_struct_10.xyz,Nucleus 8C :,2.458218,1.600311,0.699262,60.71,162.63,22.7,-3.2,235.22,268.8,264.45,-72.86,-243.25,-270.23,-3.2,22.7,162.63,0,165.83,-0.69
nw_cut_3_0_1f_opt_disp_struct_10.xyz,Nucleus 9C :,0.037036,0.254181,-1.785377,12.11,-65.83,74.61,27.56,234.4,265.89,268.4,-159.8,-238.37,-334.18,-65.83,27.56,74.61,0,140.44,0.33
nw_cut_3_0_1f_opt_disp_struct_10.xyz,Nucleus 11C :,4.852895,-5.919639,1.802649,69.91,165.19,-15.52,60.05,238.34,263.35,273.13,-73.37,-281.0,-210.74,-15.52,60.05,165.19,0,180.71,-0.16
nw_cut_3_0_1f_opt_disp_struct_10.xyz,Nucleus 13C :,5.78265,-6.208601,2.296592,52.44,173.02,41.12,-56.82,218.35,273.59,254.66,-45.39,-232.26,-311.62,-56.82,41.12,173.02,0,229.84,-0.15
nw_cut_3_0_1f_opt_disp_struct_10.xyz,Nucleus 15C :,4.991783,-4.962874,1.290575,70.12,172.78,56.34,-18.76,239.76,271.27,265.05,-67.26,-214.59,-283.87,-18.76,56.34,172.78,0,191.54,-0.22
nw_cut_3_0_1f_opt_disp_struct_10.xyz,Nucleus 19C :,3.739104,-5.899066,2.810106,163.35,191.08,156.26,142.72,260.88,230.68,238.46,-68.46,-81.49,-90.0,142.72,156.26,191.08,0,48.36,-0.44
nw_cut_3_0_1f_opt_disp_struct_10.xyz,Nucleus 22C :,3.620393,-6.735947,3.696913,4.1,-90.81,94.02,9.1,190.59,251.99,270.18,-96.7,-343.81,-259.95,-90.81,9.1,94.02,0,184.83,0.08
nw_cut_3_0_1f_opt_disp_struct_10.xyz,Nucleus 5N :,2.840841,-4.88609,2.667361,117.81,55.71,169.13,128.58,299.3,335.98,329.86,-130.51,-207.27,-273.93,55.71,128.58,169.13,0,113.42,0.28
nw_cut_3_0_1f_opt_disp_struct_10.xyz,Nucleus 24N :,2.850612,-4.360263,1.81788,145.34,45.38,244.32,146.31,296.17,328.52,342.14,-284.55,-86.95,-159.3,45.38,146.31,244.32,0,198.94,0.01
nw_cut_3_0_1f_opt_disp_struct_10.xyz,Nucleus 23O :,1.985247,-4.976858,3.179426,-105.92,319.65,-232.84,-404.56,330.25,380.34,427.58,-11.07,-614.88,-829.97,-404.56,-232.84,319.65,0,724.21,-0.53
nw_cut_3_0_1f_opt_disp_struct_10.xyz,Nucleus 10F :,4.629153,-6.686902,1.05385,301.53,396.83,222.0,285.75,486.37,459.71,466.71,-69.93,-237.97,-200.3,222.0,285.75,396.83,0,174.83,-0.27
nw_cut_3_0_1f_opt_disp_struct_11.xyz,Nucleus 1H :,0.979332,-0.028792,-1.304036,29.16,35.19,23.51,28.78,40.82,26.39,29.16,-6.73,0.27,-2.43,23.51,28.78,35.19,0,11.68,-0.1
nw_cut_3_0_1f_opt_disp_struct_11.xyz,Nucleus 2H :,1.768432,0.613439,-1.703564,28.76,23.97,27.61,34.71,45.45,25.56,26.92,-11.65,1.78,-1.78,23.97,27.61,34.71,0,10.74,-0.32
nw_cut_3_0_1f_opt_disp_struct_11.xyz,Nucleus 6H :,1.194778,-1.057743,-1.611738,23.99,16.24,24.87,30.86,49.48,14.48,29.81,-19.01,1.98,-4.77,16.24,24.87,30.86,0,14.62,0.18
nw_cut_3_0_1f_opt_disp_struct_11.xyz,Nucleus 12H :,0.894284,0.096199,0.174476,24.36,20.66,24.72,27.7,47.48,18.33,31.47,-22.78,2.43,-3.86,20.66,24.72,27.7,0,7.04,0.15
nw_cut_3_0_1f_opt_disp_struct_11.xyz,Nucleus 14H :,1.668507,0.916225,0.972095,23.94,20.13,26.9,24.8,5.75,32.93,43.76,14.42,-6.05,-18.99,20.13,24.8,26.9,0,6.77,0.38
nw_cut_3_0_1f_opt_disp_struct_11.xyz,Nucleus 16H :,1.280536,0.74489,2.273389,24.24,19.76,27.88,25.07,10.24,31.68,47.86,9.61,-3.81,-22.87,19.76,25.07,27.88,0,8.12,0.31
nw_cut_3_0_1f_opt_disp_struct_11.xyz,Nucleus 17H :,1.694874,1.197222,3.069312,24.33,20.81,25.3,26.87,44.61,28.43,31.24,-19.24,-7.5,-4.57,20.81,25.3,26.87,0,6.06,0.48
nw_cut_3_0_1f_opt_disp_struct_11.xyz,Nucleus 18H :,0.25926,-0.172935,2.348578,28.69,34.92,27.36,23.79,41.91,27.05,32.03,-0.25,-9.34,-5.33,23.79,27.36,34.92,0,11.13,-0.36
nw_cut_3_0_1f_opt_disp_struct_11.xyz,Nucleus 20H :,-0.008141,-0.596968,1.044476,29.74,34.94,27.86,26.42,38.78,16.35,5.09,-4.21,11.36,21.85,26.42,27.86,34.94,0,8.52,-0.66
nw_cut_3_0_1f_opt_disp_struct_11.xyz,Nucleus 21H :,-1.031453,-1.547241,0.857845,30.06,25.66,30.78,33.74,42.05,32.75,22.84,-9.41,-1.37,3.31,25.66,30.78,33.74,0,8.08,0.27
nw_cut_3_0_1f_opt_disp_struct_11.xyz,Nucleus 25H :,-1.337246,-1.990907,-0.370503,27.36,33.74,26.25,22.08,32.0,48.13,50.43,-2.56,-26.57,-19.37,22.08,26.25,33.74,0,11.66,-0.29
nw_cut_3_0_1f_opt_disp_struct_11.xyz,Nucleus 26H :,-1.744451,-2.043297,1.950498,27.49,34.74,23.38,24.34,43.1,32.01,36.37,-2.29,-14.29,-12.45,23.38,24.34,34.74,0,11.36,-0.83
nw_cut_3_0_1f_opt_disp_struct_11.xyz,Nucleus 27H :,-2.520057,-2.779802,1.771363,29.61,34.1,27.63,27.09,38.01,12.52,20.83,16.13,6.67,-5.34,27.09,27.63,34.1,0,7.01,-0.85
nw_cut_3_0_1f_opt_disp_struct_11.xyz,Nucleus 0C :,-1.451464,-1.600948,3.238023,170.66,186.52,160.65,164.81,257.41,238.03,237.44,-78.01,-75.18,-67.7,160.65,164.81,186.52,0,25.87,-0.68
nw_cut_3_0_1f_opt_disp_struct_11.xyz,Nucleus 3C :,-2.008519,-1.996295,4.08035,62.42,149.15,53.22,-15.12,240.41,272.88,263.4,-91.29,-219.55,-278.6,-15.12,53.22,149.15,0,164.27,-0.17
nw_cut_3_0_1f_opt_disp_struct_11.xyz,Nucleus 4C :,-0.443667,-0.655863,3.46124,56.89,-27.89,127.87,70.69,273.91,258.0,258.8,-292.75,-130.85,-196.44,-27.89,70.69,127.87,0,155.76,0.27
nw_cut_3_0_1f_opt_disp_struct_11.xyz,Nucleus 7C :,-0.205862,-0.325668,4.466364,38.14,136.53,-39.35,17.24,271.4,266.47,264.31,-128.96,-310.71,-248.1,-39.35,17.24,136.53,0,175.88,-0.36
nw_cut_3_0_1f_opt_disp_struct_11.xyz,Nucleus 8C :,2.458218,1.600311,0.699262,60.68,162.58,22.67,-3.22,235.2,268.31,264.51,-72.86,-243.12,-270.0,-3.22,22.67,162.58,0,165.8,-0.69
nw_cut_3_0_1f_opt_disp_struct_11.xyz,Nucleus 9C :,0.037036,0.254181,-1.785377,12.08,-65.87,74.56,27.56,234.28,265.77,268.06,-159.73,-238.26,-333.87,-65.87,27.56,74.56,0,140.43,0.33
nw_cut_3_0_1f_opt_disp_struct_11.xyz,Nucleus 11C :,5.019834,-6.10395,1.828348,69.89,165.12,-15.52,60.08,238.32,263.27,272.88,-73.39,-280.79,-210.61,-15.52,60.08,165.12,0,180.64,-0.16
nw_cut_3_0_1f_opt_disp_struct_11.xyz,Nucleus 13C :,5.94959,-6.392912,2.322292,52.43,172.94,41.18,-56.82,218.3,273.33,254.67,-45.42,-231.96,-311.62,-56.82,41.18,172.94,0,229.76,-0.15
nw_cut_3_0_1f_opt_disp_struct_11.xyz,Nucleus 15C :,5.158722,-5.147186,1.316274,70.17,172.71,56.49,-18.68,239.78,271.25,264.86,-67.35,-214.38,-283.65,-18.68,56.49,172.71,0,191.39,-0.21
nw_cut_3_0_1f_opt_disp_struct_11.xyz,Nucleus 19C :,3.906044,-6.083377,2.835805,163.33,191.07,156.17,142.75,261.22,230.17,238.1,-68.71,-81.22,-89.56,142.75,156.17,191.07,0,48.32,-0.44
nw_cut_3_0_1f_opt_disp_struct_11.xyz,Nucleus 22C :,3.787333,-6.920259,3.722612,4.09,-90.96,94.03,9.19,189.76,251.98,270.27,-95.87,-343.9,-259.99,-90.96,9.19,94.03,0,184.99,0.08
nw_cut_3_0_1f_opt_disp_struct_11.xyz,Nucleus 5N :,3.00778,-5.070401,2.693061,117.89,55.85,169.09,128.72,299.27,335.95,329.79,-130.48,-207.1,-273.76,55.85,128.72,169.09,0,113.24,0.29
nw_cut_3_0_1f_opt_disp_struct_11.xyz,Nucleus 24N :,3.017552,-4.544574,1.843579,145.38,45.63,244.18,146.33,296.33,328.88,342.35,-284.57,-86.73,-160.12,45.63,146.33,244.18,0,198.55,0.01
nw_cut_3_0_1f_opt_disp_struct_11.xyz,Nucleus 23O :,2.152186,-5.161169,3.205125,-106.3,319.47,-233.15,-405.21,329.65,380.25,427.62,-10.64,-615.13,-830.65,-405.21,-233.15,319.47,0,724.68,-0.53
nw_cut_3_0_1f_opt_disp_struct_11.xyz,Nucleus 10F :,4.796093,-6.871213,1.079549,301.55,396.8,222.04,285.81,486.33,459.73,466.67,-69.9,-237.93,-200.24,222.04,285.81,396.8,0,174.76,-0.27
nw_cut_3_0_1f_opt_disp_struct_12.xyz,Nucleus 1H :,0.979332,-0.028792,-1.304036,29.16,35.19,23.51,28.79,40.79,26.39,29.17,-6.69,0.27,-2.44,23.51,28.79,35.19,0,11.68,-0.1
nw_cut_3_0_1f_opt_disp_struct_12.xyz,Nucleus 2H :,1.768432,0.613439,-1.703564,28.76,23.96,27.6,34.72,45.4,25.54,26.9,-11.6,1.82,-1.78,23.96,27.6,34.72,0,10.76,-0.32
nw_cut_3_0_1f_opt_disp_struct_12.xyz,Nucleus 6H :,1.194778,-1.057743,-1.611738,23.99,16.24,24.87,30.87,49.41,14.48,29.83,-18.92,1.97,-4.78,16.24,24.87,30.87,0,14.63,0.18
nw_cut_3_0_1f_opt_disp_struct_12.xyz,Nucleus 12H :,0.894284,0.096199,0.174476,24.36,20.64,24.72,27.72,47.37,18.3,31.43,-22.66,2.44,-3.8,20.64,24.72,27.72,0,7.08,0.15
nw_cut_3_0_1f_opt_disp_struct_12.xyz,Nucleus 14H :,1.668507,0.916225,0.972095,23.94,20.11,26.92,24.8,5.73,32.84,43.75,14.43,-5.94,-18.97,20.11,24.8,26.92,0,6.81,0.38
nw_cut_3_0_1f_opt_disp_struct_12.xyz,Nucleus 16H :,1.280536,0.74489,2.273389,24.24,19.75,27.9,25.07,10.25,31.7,47.75,9.58,-3.81,-22.75,19.75,25.07,27.9,0,8.15,0.31
nw_cut_3_0_1f_opt_disp_struct_12.xyz,Nucleus 17H :,1.694874,1.197222,3.069312,24.33,20.81,25.3,26.88,44.59,28.43,31.24,-19.21,-7.5,-4.55,20.81,25.3,26.88,0,6.07,0.48
nw_cut_3_0_1f_opt_disp_struct_12.xyz,Nucleus 18H :,0.25926,-0.172935,2.348578,28.7,34.92,27.37,23.8,41.91,27.03,32.02,-0.22,-9.35,-5.31,23.8,27.37,34.92,0,11.12,-0.36
nw_cut_3_0_1f_opt_disp_struct_12.xyz,Nucleus 20H :,-0.008141,-0.596968,1.044476,29.73,34.9,27.86,26.42,38.7,16.12,4.39,-4.2,22.57,11.59,26.42,27.86,34.9,0,8.48,-0.66
nw_cut_3_0_1f_opt_disp_struct_12.xyz,Nucleus 21H :,-1.031453,-1.547241,0.857845,30.04,25.68,30.68,33.75,42.35,32.56,22.61,-9.74,-1.25,3.59,25.68,30.68,33.75,0,8.07,0.24
nw_cut_3_0_1f_opt_disp_struct_12.xyz,Nucleus 25H :,-1.337246,-1.990907,-0.370503,27.29,33.48,26.26,22.13,32.03,48.58,50.99,-2.63,-27.53,-19.58,22.13,26.26,33.48,0,11.35,-0.27
nw_cut_3_0_1f_opt_disp_struct_12.xyz,Nucleus 26H :,-1.744451,-2.043297,1.950498,27.43,34.67,23.43,24.19,43.56,31.88,37.18,-2.45,-15.0,-12.88,23.43,24.19,34.67,0,11.24,-0.86
nw_cut_3_0_1f_opt_disp_struct_12.xyz,Nucleus 27H :,-2.520057,-2.779802,1.771363,29.59,34.09,27.59,27.1,38.02,11.91,20.67,16.75,6.84,-5.41,27.1,27.59,34.09,0,6.99,-0.86
nw_cut_3_0_1f_opt_disp_struct_12.xyz,Nucleus 0C :,-1.451464,-1.600948,3.238023,170.66,186.53,160.66,164.8,257.38,238.02,237.4,-77.97,-75.16,-67.68,160.66,164.8,186.53,0,25.87,-0.68
nw_cut_3_0_1f_opt_disp_struct_12.xyz,Nucleus 3C :,-2.008519,-1.996295,4.08035,62.39,149.12,53.2,-15.16,240.36,272.75,263.37,-91.27,-219.43,-278.63,-15.16,53.2,149.12,0,164.28,-0.17
nw_cut_3_0_1f_opt_disp_struct_12.xyz,Nucleus 4C :,-0.443667,-0.655863,3.46124,56.93,-27.84,127.86,70.77,273.85,257.89,258.93,-292.71,-130.88,-196.29,-27.84,70.77,127.86,0,155.7,0.27
nw_cut_3_0_1f_opt_disp_struct_12.xyz,Nucleus 7C :,-0.205862,-0.325668,4.466364,38.14,136.5,-39.35,17.27,271.18,266.55,264.15,-128.91,-310.47,-248.08,-39.35,17.27,136.5,0,175.85,-0.36
nw_cut_3_0_1f_opt_disp_struct_12.xyz,Nucleus 8C :,2.458218,1.600311,0.699262,60.64,162.52,22.63,-3.23,235.18,267.91,264.55,-72.88,-243.03,-269.82,-3.23,22.63,162.52,0,165.75,-0.69
nw_cut_3_0_1f_opt_disp_struct_12.xyz,Nucleus 9C :,0.037036,0.254181,-1.785377,12.05,-65.9,74.51,27.54,234.18,265.67,267.78,-159.67,-238.18,-333.62,-65.9,27.54,74.51,0,140.41,0.33
nw_cut_3_0_1f_opt_disp_struct_12.xyz,Nucleus 11C :,5.186774,-6.288262,1.854048,69.88,165.07,-15.52,60.09,238.3,263.19,272.68,-73.39,-280.62,-210.52,-15.52,60.09,165.07,0,180.59,-0.16
nw_cut_3_0_1f_opt_disp_struct_12.xyz,Nucleus 13C :,6.116529,-6.577224,2.347991,52.43,172.9,41.22,-56.83,218.25,273.12,254.67,-45.41,-231.71,-311.64,-56.83,41.22,172.9,0,229.73,-0.15
nw_cut_3_0_1f_opt_disp_struct_12.xyz,Nucleus 15C :,5.325662,-5.331497,1.341973,70.22,172.67,56.6,-18.62,239.8,271.24,264.7,-67.41,-214.21,-283.46,-18.62,56.6,172.67,0,191.29,-0.21
nw_cut_3_0_1f_opt_disp_struct_12.xyz,Nucleus 19C :,4.072984,-6.267688,2.861504,163.31,191.06,156.1,142.77,261.56,229.67,237.75,-68.95,-80.95,-89.15,142.77,156.1,191.06,0,48.29,-0.45
nw_cut_3_0_1f_opt_disp_struct_12.xyz,Nucleus 22C :,3.954272,-7.10457,3.748312,4.06,-91.07,94.05,9.21,188.94,251.97,270.39,-95.04,-343.94,-260.12,-91.07,9.21,94.05,0,185.12,0.08
nw_cut_3_0_1f_opt_disp_struct_12.xyz,Nucleus 5N :,3.17472,-5.254713,2.71876,117.96,55.97,169.07,128.85,299.23,335.93,329.71,-130.43,-206.95,-273.58,55.97,128.85,169.07,0,113.1,0.29
nw_cut_3_0_1f_opt_disp_struct_12.xyz,Nucleus 24N :,3.184491,-4.728885,1.869278,145.44,45.85,244.06,146.4,296.3,329.16,342.63,-284.55,-86.47,-160.76,45.85,146.4,244.06,0,198.21,0.01
nw_cut_3_0_1f_opt_disp_struct_12.xyz,Nucleus 23O :,2.319126,-5.345481,3.230824,-106.44,319.58,-233.36,-405.54,329.05,380.16,427.68,-9.91,-615.27,-831.02,-405.54,-233.36,319.58,0,725.12,-0.53
nw_cut_3_0_1f_opt_disp_struct_12.xyz,Nucleus 10F :,4.963033,-7.055525,1.105248,301.55,396.77,222.05,285.83,486.29,459.74,466.63,-69.9,-237.9,-200.21,222.05,285.83,396.77,0,174.72,-0.27
nw_cut_3_0_1f_opt_disp_struct_13.xyz,Nucleus 1H :,0.979332,-0.028792,-1.304036,29.17,35.19,23.51,28.8,40.76,26.39,29.18,-6.66,0.27,-2.44,23.51,28.8,35.19,0,11.68,-0.1
nw_cut_3_0_1f_opt_disp_struct_13.xyz,Nucleus 2H :,1.768432,0.613439,-1.703564,28.76,23.95,27.6,34.73,45.36,25.51,26.88,-11.55,1.86,-1.78,23.95,27.6,34.73,0,10.78,-0.32
nw_cut_3_0_1f_opt_disp_struct_13.xyz,Nucleus 6H :,1.194778,-1.057743,-1.611738,24.0,16.23,24.89,30.88,49.34,14.48,29.85,-18.84,1.95,-4.78,16.23,24.89,30.88,0,14.65,0.18
nw_cut_3_0_1f_opt_disp_struct_13.xyz,Nucleus 12H :,0.894284,0.096199,0.174476,24.36,20.63,24.73,27.73,47.27,18.27,31.38,-22.54,2.44,-3.74,20.63,24.73,27.73,0,7.1,0.16
nw_cut_3_0_1f_opt_disp_struct_13.xyz,Nucleus 14H :,1.668507,0.916225,0.972095,23.95,20.1,26.93,24.81,5.7,32.75,43.74,14.44,-5.83,-18.96,20.1,24.81,26.93,0,6.83,0.38
nw_cut_3_0_1f_opt_disp_struct_13.xyz,Nucleus 16H :,1.280536,0.74489,2.273389,24.25,19.74,27.92,25.08,10.26,31.71,47.64,9.55,-3.8,-22.63,19.74,25.08,27.92,0,8.18,0.3
nw_cut_3_0_1f_opt_disp_struct_13.xyz,Nucleus 17H :,1.694874,1.197222,3.069312,24.33,20.81,25.3,26.89,44.57,28.42,31.23,-19.18,-7.51,-4.53,20.81,25.3,26.89,0,6.08,0.48
nw_cut_3_0_1f_opt_disp_struct_13.xyz,Nucleus 18H :,0.25926,-0.172935,2.348578,28.7,34.91,27.38,23.8,41.9,27.01,32.02,-0.2,-9.36,-5.28,23.8,27.38,34.91,0,11.11,-0.36
nw_cut_3_0_1f_opt_disp_struct_13.xyz,Nucleus 20H :,-0.008141,-0.596968,1.044476,29.71,34.86,27.87,26.41,38.64,15.89,3.68,-4.2,23.29,11.83,26.41,27.87,34.86,0,8.45,-0.65
nw_cut_3_0_1f_opt_disp_struct_13.xyz,Nucleus 21H :,-1.031453,-1.547241,0.857845,30.02,25.7,30.59,33.76,42.64,32.38,22.38,-10.07,-1.14,3.86,25.7,30.59,33.76,0,8.06,0.21
nw_cut_3_0_1f_opt_disp_struct_13.xyz,Nucleus 25H :,-1.337246,-1.990907,-0.370503,27.24,33.26,26.27,22.18,32.06,48.89,51.71,-2.7,-28.46,-19.81,22.18,26.27,33.26,0,11.08,-0.26
nw_cut_3_0_1f_opt_disp_struct_13.xyz,Nucleus 26H :,-1.744451,-2.043297,1.950498,27.38,34.62,23.47,24.06,44.0,31.75,37.97,-2.58,-15.78,-13.23,23.47,24.06,34.62,0,11.15,-0.89
nw_cut_3_0_1f_opt_disp_struct_13.xyz,Nucleus 27H :,-2.520057,-2.779802,1.771363,29.58,34.07,27.56,27.11,38.05,11.3,20.5,17.38,7.01,-5.49,27.11,27.56,34.07,0,6.96,-0.87
nw_cut_3_0_1f_opt_disp_struct_13.xyz,Nucleus 0C :,-1.451464,-1.600948,3.238023,170.66,186.54,160.67,164.78,257.34,238.02,237.37,-77.93,-75.15,-67.66,160.67,164.78,186.54,0,25.87,-0.68
nw_cut_3_0_1f_opt_disp_struct_13.xyz,Nucleus 3C :,-2.008519,-1.996295,4.08035,62.36,149.1,53.17,-15.18,240.31,272.63,263.34,-91.23,-219.32,-278.62,-15.18,53.17,149.1,0,164.28,-0.17
nw_cut_3_0_1f_opt_disp_struct_13.xyz,Nucleus 4C :,-0.443667,-0.655863,3.46124,56.96,-27.8,127.83,70.85,273.79,257.77,259.06,-292.69,-130.93,-196.14,-27.8,70.85,127.83,0,155.63,0.27
nw_cut_3_0_1f_opt_disp_struct_13.xyz,Nucleus 7C :,-0.205862,-0.325668,4.466364,38.14,136.46,-39.34,17.3,270.99,266.61,264.01,-128.9,-310.25,-248.05,-39.34,17.3,136.46,0,175.8,-0.36
nw_cut_3_0_1f_opt_disp_struct_13.xyz,Nucleus 8C :,2.458218,1.600311,0.699262,60.63,162.5,22.63,-3.24,235.15,267.56,264.59,-72.85,-242.92,-269.64,-3.24,22.63,162.5,0,165.74,-0.69
nw_cut_3_0_1f_opt_disp_struct_13.xyz,Nucleus 9C :,0.037036,0.254181,-1.785377,12.03,-65.93,74.48,27.53,234.11,265.57,267.52,-159.63,-238.1,-333.39,-65.93,27.53,74.48,0,140.41,0.33
nw_cut_3_0_1f_opt_disp_struct_13.xyz,Nucleus 11C :,5.353714,-6.472573,1.879747,69.87,165.03,-15.52,60.11,238.28,263.11,272.49,-73.4,-280.44,-210.42,-15.52,60.11,165.03,0,180.55,-0.16
nw_cut_3_0_1f_opt_disp_struct_13.xyz,Nucleus 13C :,6.283469,-6.761535,2.37369,52.43,172.84,41.27,-56.83,218.2,272.92,254.68,-45.42,-231.47,-311.63,-56.83,41.27,172.84,0,229.67,-0.15
nw_cut_3_0_1f_opt_disp_struct_13.xyz,Nucleus 15C :,5.492601,-5.515809,1.367673,70.25,172.61,56.7,-18.56,239.82,271.22,264.54,-67.48,-214.05,-283.29,-18.56,56.7,172.61,0,191.17,-0.21
nw_cut_3_0_1f_opt_disp_struct_13.xyz,Nucleus 19C :,4.239923,-6.452,2.887204,163.29,191.05,156.04,142.78,261.9,229.2,237.42,-69.19,-80.7,-88.77,142.78,156.04,191.05,0,48.27,-0.45
nw_cut_3_0_1f_opt_disp_struct_13.xyz,Nucleus 22C :,4.121212,-7.288882,3.774011,4.05,-91.17,94.07,9.26,188.11,251.94,270.52,-94.2,-343.98,-260.24,-91.17,9.26,94.07,0,185.24,0.08
nw_cut_3_0_1f_opt_disp_struct_13.xyz,Nucleus 5N :,3.34166,-5.439024,2.744459,118.01,56.05,169.03,128.94,299.19,335.91,329.62,-130.42,-206.85,-273.43,56.05,128.94,169.03,0,112.98,0.29
nw_cut_3_0_1f_opt_disp_struct_13.xyz,Nucleus 24N :,3.351431,-4.913197,1.894978,145.46,46.02,243.95,146.41,296.12,329.41,342.99,-284.59,-86.2,-161.35,46.02,146.41,243.95,0,197.93,0.01
nw_cut_3_0_1f_opt_disp_struct_13.xyz,Nucleus 23O :,2.486066,-5.529792,3.256524,-106.67,319.58,-233.61,-405.97,328.34,380.06,427.75,-9.2,-615.43,-831.51,-405.97,-233.61,319.58,0,725.55,-0.52
nw_cut_3_0_1f_opt_disp_struct_13.xyz,Nucleus 10F :,5.129972,-7.239836,1.130948,301.57,396.76,222.05,285.89,486.23,459.74,466.6,-69.87,-237.88,-200.12,222.05,285.89,396.76,0,174.71,-0.27
nw_cut_3_0_1f_opt_disp_struct_14.xyz,Nucleus 1H :,0.979332,-0.028792,-1.304036,29.17,35.19,23.51,28.81,40.74,26.39,29.18,-6.63,0.27,-2.44,23.51,28.81,35.19,0,11.68,-0.09
nw_cut_3_0_1f_opt_disp_struct_14.xyz,Nucleus 2H :,1.768432,0.613439,-1.703564,28.76,23.94,27.59,34.74,45.3,25.47,26.86,-11.5,1.9,-1.77,23.94,27.59,34.74,0,10.8,-0.33
nw_cut_3_0_1f_opt_disp_struct_14.xyz,Nucleus 6H :,1.194778,-1.057743,-1.611738,24.01,16.23,24.9,30.89,49.27,14.48,29.86,-18.75,1.94,-4.78,16.23,24.9,30.89,0,14.66,0.18
nw_cut_3_0_1f_opt_disp_struct_14.xyz,Nucleus 12H :,0.894284,0.096199,0.174476,24.36,20.61,24.73,27.74,47.17,18.25,31.33,-22.43,2.44,-3.68,20.61,24.73,27.74,0,7.13,0.16
nw_cut_3_0_1f_opt_disp_struct_14.xyz,Nucleus 14H :,1.668507,0.916225,0.972095,23.95,20.08,26.95,24.81,5.68,32.66,43.73,14.44,-5.73,-18.94,20.08,24.81,26.95,0,6.87,0.38
nw_cut_3_0_1f_opt_disp_struct_14.xyz,Nucleus 16H :,1.280536,0.74489,2.273389,24.25,19.72,27.93,25.09,10.26,31.72,47.54,9.53,-3.79,-22.52,19.72,25.09,27.93,0,8.21,0.31
nw_cut_3_0_1f_opt_disp_struct_14.xyz,Nucleus 17H :,1.694874,1.197222,3.069312,24.34,20.81,25.31,26.89,44.55,28.42,31.22,-19.15,-7.51,-4.51,20.81,25.31,26.89,0,6.08,0.48
nw_cut_3_0_1f_opt_disp_struct_14.xyz,Nucleus 18H :,0.25926,-0.172935,2.348578,28.7,34.91,27.38,23.81,41.9,27.0,32.0,-0.17,-9.36,-5.26,23.81,27.38,34.91,0,11.1,-0.36
nw_cut_3_0_1f_opt_disp_struct_14.xyz,Nucleus 20H :,-0.008141,-0.596968,1.044476,29.7,34.82,27.87,26.4,38.58,15.65,2.98,-4.2,24.01,12.08,26.4,27.87,34.82,0,8.42,-0.65
nw_cut_3_0_1f_opt_disp_struct_14.xyz,Nucleus 21H :,-1.031453,-1.547241,0.857845,30.0,25.72,30.51,33.77,42.94,32.21,22.13,-10.4,-1.03,4.14,25.72,30.51,33.77,0,8.05,0.19
nw_cut_3_0_1f_opt_disp_struct_14.xyz,Nucleus 25H :,-1.337246,-1.990907,-0.370503,27.18,33.07,26.27,22.21,32.07,49.13,52.51,-2.75,-29.38,-20.04,22.21,26.27,33.07,0,10.86,-0.25
nw_cut_3_0_1f_opt_disp_struct_14.xyz,Nucleus 26H :,-1.744451,-2.043297,1.950498,27.34,34.57,23.5,23.95,31.63,44.44,38.74,-2.69,-16.57,-13.53,23.5,23.95,34.57,0,11.07,-0.92
nw_cut_3_0_1f_opt_disp_struct_14.xyz,Nucleus 27H :,-2.520057,-2.779802,1.771363,29.57,34.06,27.53,27.12,38.07,10.68,20.34,18.01,7.18,-5.58,27.12,27.53,34.06,0,6.94,-0.88
nw_cut_3_0_1f_opt_disp_struct_14.xyz,Nucleus 0C :,-1.451464,-1.600948,3.238023,170.66,186.54,160.68,164.77,257.31,238.03,237.33,-77.89,-75.14,-67.65,160.68,164.77,186.54,0,25.86,-0.68
nw_cut_3_0_1f_opt_disp_struct_14.xyz,Nucleus 3C :,-2.008519,-1.996295,4.08035,62.34,149.08,53.16,-15.21,240.27,272.52,263.3,-91.21,-219.22,-278.63,-15.21,53.16,149.08,0,164.29,-0.17
nw_cut_3_0_1f_opt_disp_struct_14.xyz,Nucleus 4C :,-0.443667,-0.655863,3.46124,56.99,-27.77,127.82,70.91,273.74,257.67,259.16,-292.65,-130.95,-196.0,-27.77,70.91,127.82,0,155.59,0.27
nw_cut_3_0_1f_opt_disp_struct_14.xyz,Nucleus 7C :,-0.205862,-0.325668,4.466364,38.14,136.43,-39.33,17.32,270.82,266.65,263.9,-128.88,-310.05,-248.02,-39.33,17.32,136.43,0,175.76,-0.36
nw_cut_3_0_1f_opt_disp_struct_14.xyz,Nucleus 8C :,2.458218,1.600311,0.699262,60.6,162.45,22.61,-3.25,235.12,267.26,264.6,-72.85,-242.84,-269.48,-3.25,22.61,162.45,0,165.7,-0.69
nw_cut_3_0_1f_opt_disp_struct_14.xyz,Nucleus 9C :,0.037036,0.254181,-1.785377,12.01,-65.95,74.45,27.52,234.04,265.49,267.29,-159.6,-238.03,-333.18,-65.95,27.52,74.45,0,140.4,0.33
nw_cut_3_0_1f_opt_disp_struct_14.xyz,Nucleus 11C :,5.520653,-6.656885,1.905446,69.87,164.99,-15.51,60.12,238.26,263.04,272.32,-73.4,-280.28,-210.33,-15.51,60.12,164.99,0,180.5,-0.16
nw_cut_3_0_1f_opt_disp_struct_14.xyz,Nucleus 13C :,6.450408,-6.945846,2.39939,52.42,172.8,41.31,-56.84,218.16,272.74,254.68,-45.41,-231.25,-311.62,-56.84,41.31,172.8,0,229.64,-0.15
nw_cut_3_0_1f_opt_disp_struct_14.xyz,Nucleus 15C :,5.659541,-5.70012,1.393372,70.28,172.57,56.79,-18.51,239.83,271.19,264.39,-67.53,-213.91,-283.13,-18.51,56.79,172.57,0,191.08,-0.21
nw_cut_3_0_1f_opt_disp_struct_14.xyz,Nucleus 19C :,4.406863,-6.636311,2.912903,163.27,191.04,155.98,142.79,262.23,228.73,237.11,-69.41,-80.44,-88.4,142.79,155.98,191.04,0,48.25,-0.45
nw_cut_3_0_1f_opt_disp_struct_14.xyz,Nucleus 22C :,4.288151,-7.473193,3.79971,4.03,-91.26,94.08,9.28,187.27,251.91,270.66,-93.36,-343.99,-260.38,-91.26,9.28,94.08,0,185.34,0.08
nw_cut_3_0_1f_opt_disp_struct_14.xyz,Nucleus 5N :,3.508599,-5.623336,2.770159,118.06,56.14,169.01,129.04,299.15,335.9,329.53,-130.38,-206.75,-273.26,56.14,129.04,169.01,0,112.87,0.29
nw_cut_3_0_1f_opt_disp_struct_14.xyz,Nucleus 24N :,3.518371,-5.097508,1.920677,145.51,46.21,243.87,146.46,295.97,329.66,343.42,-284.62,-85.92,-161.97,46.21,146.46,243.87,0,197.66,0.01
nw_cut_3_0_1f_opt_disp_struct_14.xyz,Nucleus 23O :,2.653005,-5.714104,3.282223,-106.81,319.64,-233.79,-406.27,327.65,379.96,427.82,-8.45,-615.53,-831.87,-406.27,-233.79,319.64,0,725.91,-0.52
nw_cut_3_0_1f_opt_disp_struct_14.xyz,Nucleus 10F :,5.296912,-7.424147,1.156647,301.56,396.73,222.05,285.89,486.16,459.73,466.57,-69.86,-237.86,-200.06,222.05,285.89,396.73,0,174.68,-0.27
nw_cut_3_0_1f_opt_disp_struct_15.xyz,Nucleus 1H :,0.979332,-0.028792,-1.304036,29.17,35.19,23.5,28.82,40.72,26.39,29.17,-6.61,0.28,-2.43,23.5,28.82,35.19,0,11.69,-0.09
nw_cut_3_0_1f_opt_disp_struct_15.xyz,Nucleus 2H :,1.768432,0.613439,-1.703564,28.75,23.92,27.59,34.75,45.25,25.44,26.84,-11.45,1.94,-1.76,23.92,27.59,34.75,0,10.83,-0.32
nw_cut_3_0_1f_opt_disp_struct_15.xyz,Nucleus 6H :,1.194778,-1.057743,-1.611738,24.01,16.22,24.91,30.9,49.2,14.48,29.86,-18.67,1.93,-4.78,16.22,24.91,30.9,0,14.68,0.18
nw_cut_3_0_1f_opt_disp_struct_15.xyz,Nucleus 12H :,0.894284,0.096199,0.174476,24.36,20.6,24.74,27.75,47.08,18.22,31.29,-22.32,2.45,-3.64,20.6,24.74,27.75,0,7.15,0.16
nw_cut_3_0_1f_opt_disp_struct_15.xyz,Nucleus 14H :,1.668507,0.916225,0.972095,23.95,20.07,26.96,24.81,5.66,32.57,43.72,14.44,-5.63,-18.93,20.07,24.81,26.96,0,6.89,0.37
nw_cut_3_0_1f_opt_disp_struct_15.xyz,Nucleus 16H :,1.280536,0.74489,2.273389,24.25,19.71,27.94,25.1,10.26,31.72,47.45,9.52,-3.78,-22.41,19.71,25.1,27.94,0,8.23,0.31
nw_cut_3_0_1f_opt_disp_struct_15.xyz,Nucleus 17H :,1.694874,1.197222,3.069312,24.34,20.8,25.31,26.9,44.53,28.41,31.2,-19.13,-7.51,-4.48,20.8,25.31,26.9,0,6.1,0.48
nw_cut_3_0_1f_opt_disp_struct_15.xyz,Nucleus 18H :,0.25926,-0.172935,2.348578,28.7,34.9,27.39,23.81,41.89,26.98,31.98,-0.15,-9.37,-5.23,23.81,27.39,34.9,0,11.09,-0.35
nw_cut_3_0_1f_opt_disp_struct_15.xyz,Nucleus 20H :,-0.008141,-0.596968,1.044476,29.69,34.79,27.87,26.4,38.53,15.41,2.27,-4.2,24.73,12.32,26.4,27.87,34.79,0,8.39,-0.65
nw_cut_3_0_1f_opt_disp_struct_15.xyz,Nucleus 21H :,-1.031453,-1.547241,0.857845,29.98,25.73,30.44,33.78,43.23,32.05,21.88,-10.72,-0.93,4.43,25.73,30.44,33.78,0,8.05,0.17
nw_cut_3_0_1f_opt_disp_struct_15.xyz,Nucleus 25H :,-1.337246,-1.990907,-0.370503,27.14,32.9,26.28,22.25,32.08,49.33,53.36,-2.79,-30.29,-20.27,22.25,26.28,32.9,0,10.65,-0.24
nw_cut_3_0_1f_opt_disp_struct_15.xyz,Nucleus 26H :,-1.744451,-2.043297,1.950498,27.3,34.53,23.52,23.86,31.53,44.87,39.46,-2.78,-17.37,-13.81,23.52,23.86,34.53,0,11.01,-0.94
nw_cut_3_0_1f_opt_disp_struct_15.xyz,Nucleus 27H :,-2.520057,-2.779802,1.771363,29.56,34.05,27.5,27.13,38.11,10.07,20.17,18.64,7.36,-5.66,27.13,27.5,34.05,0,6.92,-0.89
nw_cut_3_0_1f_opt_disp_struct_15.xyz,Nucleus 0C :,-1.451464,-1.600948,3.238023,170.67,186.55,160.69,164.76,257.27,238.03,237.3,-77.84,-75.13,-67.63,160.69,164.76,186.55,0,25.86,-0.69
nw_cut_3_0_1f_opt_disp_struct_15.xyz,Nucleus 3C :,-2.008519,-1.996295,4.08035,62.32,149.06,53.14,-15.23,240.23,272.42,263.27,-91.19,-219.14,-278.62,-15.23,53.14,149.06,0,164.29,-0.17
nw_cut_3_0_1f_opt_disp_struct_15.xyz,Nucleus 4C :,-0.443667,-0.655863,3.46124,57.01,-27.74,127.8,70.97,273.68,257.59,259.24,-292.63,-130.97,-195.87,-27.74,70.97,127.8,0,155.54,0.27
nw_cut_3_0_1f_opt_disp_struct_15.xyz,Nucleus 7C :,-0.205862,-0.325668,4.466364,38.14,136.41,-39.33,17.33,270.68,266.67,263.8,-128.87,-309.88,-247.98,-39.33,17.33,136.41,0,175.74,-0.36
nw_cut_3_0_1f_opt_disp_struct_15.xyz,Nucleus 8C :,2.458218,1.600311,0.699262,60.59,162.43,22.6,-3.26,235.08,267.02,264.61,-72.84,-242.77,-269.34,-3.26,22.6,162.43,0,165.69,-0.69
nw_cut_3_0_1f_opt_disp_struct_15.xyz,Nucleus 9C :,0.037036,0.254181,-1.785377,11.98,-65.97,74.42,27.5,233.99,265.42,267.09,-159.57,-237.98,-332.99,-65.97,27.5,74.42,0,140.39,0.33
nw_cut_3_0_1f_opt_disp_struct_15.xyz,Nucleus 11C :,5.687593,-6.841196,1.931146,69.86,164.96,-15.51,60.14,238.24,262.96,272.19,-73.41,-280.13,-210.26,-15.51,60.14,164.96,0,180.47,-0.16
nw_cut_3_0_1f_opt_disp_struct_15.xyz,Nucleus 13C :,6.617348,-7.130158,2.425089,52.43,172.77,41.36,-56.83,218.12,272.57,254.67,-45.41,-231.06,-311.61,-56.83,41.36,172.77,0,229.6,-0.14
nw_cut_3_0_1f_opt_disp_struct_15.xyz,Nucleus 15C :,5.826481,-5.884432,1.419071,70.31,172.53,56.86,-18.47,239.84,271.17,264.26,-67.57,-213.78,-282.99,-18.47,56.86,172.53,0,191.0,-0.21
nw_cut_3_0_1f_opt_disp_struct_15.xyz,Nucleus 19C :,4.573803,-6.820623,2.938602,163.26,191.04,155.93,142.8,262.57,228.24,236.8,-69.61,-80.18,-88.04,142.8,155.93,191.04,0,48.24,-0.46
nw_cut_3_0_1f_opt_disp_struct_15.xyz,Nucleus 22C :,4.455091,-7.657505,3.82541,4.02,-91.34,94.09,9.31,186.42,251.87,270.82,-92.51,-344.0,-260.53,-91.34,9.31,94.09,0,185.43,0.09
nw_cut_3_0_1f_opt_disp_struct_15.xyz,Nucleus 5N :,3.675539,-5.807647,2.795858,118.1,56.21,168.98,129.11,299.12,335.89,329.44,-130.37,-206.67,-273.11,56.21,129.11,168.98,0,112.77,0.29
nw_cut_3_0_1f_opt_disp_struct_15.xyz,Nucleus 24N :,3.68531,-5.28182,1.946376,145.56,46.38,243.78,146.51,295.79,329.88,343.9,-284.65,-85.65,-162.61,46.38,146.51,243.78,0,197.4,0.01
nw_cut_3_0_1f_opt_disp_struct_15.xyz,Nucleus 23O :,2.819945,-5.898415,3.307922,-106.97,319.66,-233.98,-406.58,326.98,379.87,427.89,-7.76,-615.62,-832.25,-406.58,-233.98,319.66,0,726.24,-0.52
nw_cut_3_0_1f_opt_disp_struct_15.xyz,Nucleus 10F :,5.463851,-7.608459,1.182346,301.56,396.71,222.05,285.91,486.09,459.72,466.55,-69.85,-237.84,-199.99,222.05,285.91,396.71,0,174.66,-0.27
nw_cut_3_0_1f_opt_disp_struct_16.xyz,Nucleus 1H :,0.979332,-0.028792,-1.304036,29.17,35.19,23.5,28.83,40.7,26.39,29.15,-6.58,0.29,-2.43,23.5,28.83,35.19,0,11.69,-0.09
nw_cut_3_0_1f_opt_disp_struct_16.xyz,Nucleus 2H :,1.768432,0.613439,-1.703564,28.75,23.91,27.59,34.76,45.2,25.41,26.83,-11.41,1.98,-1.74,23.91,27.59,34.76,0,10.85,-0.32
nw_cut_3_0_1f_opt_disp_struct_16.xyz,Nucleus 6H :,1.194778,-1.057743,-1.611738,24.01,16.22,24.91,30.9,49.13,14.48,29.86,-18.59,1.92,-4.77,16.22,24.91,30.9,0,14.68,0.18
nw_cut_3_0_1f_opt_disp_struct_16.xyz,Nucleus 12H :,0.894284,0.096199,0.174476,24.37,20.59,24.75,27.76,46.99,18.2,31.26,-22.22,2.45,-3.59,20.59,24.75,27.76,0,7.17,0.16
nw_cut_3_0_1f_opt_disp_struct_16.xyz,Nucleus 14H :,1.668507,0.916225,0.972095,23.95,20.06,26.98,24.82,5.64,32.49,43.71,14.45,-5.53,-18.91,20.06,24.82,26.98,0,6.92,0.38
nw_cut_3_0_1f_opt_disp_struct_16.xyz,Nucleus 16H :,1.280536,0.74489,2.273389,24.25,19.7,27.95,25.1,10.26,31.71,47.35,9.51,-3.76,-22.31,19.7,25.1,27.95,0,8.25,0.31
nw_cut_3_0_1f_opt_disp_struct_16.xyz,Nucleus 17H :,1.694874,1.197222,3.069312,24.34,20.8,25.31,26.91,44.51,28.4,31.18,-19.1,-7.52,-4.45,20.8,25.31,26.91,0,6.11,0.48
nw_cut_3_0_1f_opt_disp_struct_16.xyz,Nucleus 18H :,0.25926,-0.172935,2.348578,28.7,34.9,27.4,23.81,41.88,26.96,31.97,-0.13,-9.37,-5.2,23.81,27.4,34.9,0,11.09,-0.35
nw_cut_3_0_1f_opt_disp_struct_16.xyz,Nucleus 20H :,-0.008141,-0.596968,1.044476,29.68,34.76,27.88,26.39,38.49,15.17,1.55,-4.2,25.45,12.57,26.39,27.88,34.76,0,8.37,-0.65
nw_cut_3_0_1f_opt_disp_struct_16.xyz,Nucleus 21H :,-1.031453,-1.547241,0.857845,29.97,25.75,30.38,33.79,43.53,31.91,21.63,-11.05,-0.83,4.72,25.75,30.38,33.79,0,8.04,0.15
nw_cut_3_0_1f_opt_disp_struct_16.xyz,Nucleus 25H :,-1.337246,-1.990907,-0.370503,27.11,32.76,26.28,22.28,32.09,49.52,54.22,-2.81,-31.19,-20.51,22.28,26.28,32.76,0,10.48,-0.24
nw_cut_3_0_1f_opt_disp_struct_16.xyz,Nucleus 26H :,-1.744451,-2.043297,1.950498,27.27,34.5,23.52,23.79,31.44,45.31,40.15,-2.85,-18.17,-14.06,23.52,23.79,34.5,0,10.98,-0.95
nw_cut_3_0_1f_opt_disp_struct_16.xyz,Nucleus 27H :,-2.520057,-2.779802,1.771363,29.55,34.04,27.48,27.13,38.15,9.46,20.0,19.27,7.53,-5.75,27.13,27.48,34.04,0,6.91,-0.9
nw_cut_3_0_1f_opt_disp_struct_16.xyz,Nucleus 0C :,-1.451464,-1.600948,3.238023,170.67,186.56,160.69,164.75,257.23,238.04,237.27,-77.79,-75.13,-67.62,160.69,164.75,186.56,0,25.87,-0.69
nw_cut_3_0_1f_opt_disp_struct_16.xyz,Nucleus 3C :,-2.008519,-1.996295,4.08035,62.31,149.05,53.13,-15.25,240.2,272.33,263.23,-91.17,-219.06,-278.6,-15.25,53.13,149.05,0,164.3,-0.17
nw_cut_3_0_1f_opt_disp_struct_16.xyz,Nucleus 4C :,-0.443667,-0.655863,3.46124,57.03,-27.71,127.79,71.01,273.63,257.52,259.29,-292.6,-130.99,-195.76,-27.71,71.01,127.79,0,155.5,0.27
nw_cut_3_0_1f_opt_disp_struct_16.xyz,Nucleus 7C :,-0.205862,-0.325668,4.466364,38.14,136.38,-39.32,17.35,270.56,266.67,263.73,-128.88,-309.74,-247.94,-39.32,17.35,136.38,0,175.7,-0.35
nw_cut_3_0_1f_opt_disp_struct_16.xyz,Nucleus 8C :,2.458218,1.600311,0.699262,60.58,162.4,22.59,-3.26,235.05,266.83,264.6,-72.82,-242.72,-269.21,-3.26,22.59,162.4,0,165.66,-0.69
nw_cut_3_0_1f_opt_disp_struct_16.xyz,Nucleus 9C :,0.037036,0.254181,-1.785377,11.97,-65.98,74.4,27.49,233.96,265.38,266.92,-159.56,-237.94,-332.84,-65.98,27.49,74.4,0,140.38,0.33
nw_cut_3_0_1f_opt_disp_struct_16.xyz,Nucleus 11C :,5.854533,-7.025507,1.956845,69.86,164.93,-15.51,60.15,238.22,262.89,272.07,-73.41,-280.0,-210.2,-15.51,60.15,164.93,0,180.44,-0.16
nw_cut_3_0_1f_opt_disp_struct_16.xyz,Nucleus 13C :,6.784288,-7.314469,2.450788,52.43,172.73,41.39,-56.83,218.08,272.43,254.67,-45.41,-230.88,-311.6,-56.83,41.39,172.73,0,229.56,-0.14
nw_cut_3_0_1f_opt_disp_struct_16.xyz,Nucleus 15C :,5.99342,-6.068743,1.444771,70.32,172.49,56.92,-18.44,239.84,271.14,264.13,-67.6,-213.67,-282.86,-18.44,56.92,172.49,0,190.93,-0.21
nw_cut_3_0_1f_opt_disp_struct_16.xyz,Nucleus 19C :,4.740742,-7.004934,2.964302,163.24,191.03,155.89,142.81,262.89,227.76,236.5,-69.8,-79.93,-87.71,142.81,155.89,191.03,0,48.22,-0.46
nw_cut_3_0_1f_opt_disp_struct_16.xyz,Nucleus 22C :,4.622031,-7.841816,3.851109,4.01,-91.41,94.1,9.33,185.56,251.82,270.98,-91.65,-343.99,-260.69,-91.41,9.33,94.1,0,185.51,0.09
nw_cut_3_0_1f_opt_disp_struct_16.xyz,Nucleus 5N :,3.842478,-5.991959,2.821557,118.13,56.27,168.95,129.17,299.09,335.88,329.35,-130.36,-206.6,-272.96,56.27,129.17,168.95,0,112.68,0.29
nw_cut_3_0_1f_opt_disp_struct_16.xyz,Nucleus 24N :,3.85225,-5.466131,1.972076,145.59,46.52,243.71,146.54,295.55,330.09,344.41,-284.7,-85.37,-163.22,46.52,146.54,243.71,0,197.19,0.01
nw_cut_3_0_1f_opt_disp_struct_16.xyz,Nucleus 23O :,2.986884,-6.082726,3.333622,-107.1,319.68,-234.14,-406.85,326.25,379.76,427.98,-7.03,-615.68,-832.6,-406.85,-234.14,319.68,0,726.53,-0.52
nw_cut_3_0_1f_opt_disp_struct_16.xyz,Nucleus 10F :,5.630791,-7.79277,1.208046,301.55,396.7,222.04,285.92,486.01,459.7,466.53,-69.85,-237.82,-199.91,222.04,285.92,396.7,0,174.66,-0.27
nw_cut_3_0_1f_opt_disp_struct_17.xyz,Nucleus 1H :,0.979332,-0.028792,-1.304036,29.17,35.19,23.5,28.83,40.68,26.38,29.13,-6.56,0.31,-2.42,23.5,28.83,35.19,0,11.69,-0.09
nw_cut_3_0_1f_opt_disp_struct_17.xyz,Nucleus 2H :,1.768432,0.613439,-1.703564,28.75,23.9,27.59,34.77,45.15,25.37,26.81,-11.37,2.01,-1.72,23.9,27.59,34.77,0,10.87,-0.32
nw_cut_3_0_1f_opt_disp_struct_17.xyz,Nucleus 6H :,1.194778,-1.057743,-1.611738,24.01,16.21,24.92,30.91,49.06,14.48,29.86,-18.51,1.91,-4.76,16.21,24.92,30.91,0,14.7,0.19
nw_cut_3_0_1f_opt_disp_struct_17.xyz,Nucleus 12H :,0.894284,0.096199,0.174476,24.36,20.58,24.75,27.76,46.91,18.18,31.22,-22.13,2.45,-3.55,20.58,24.75,27.76,0,7.18,0.16
nw_cut_3_0_1f_opt_disp_struct_17.xyz,Nucleus 14H :,1.668507,0.916225,0.972095,23.95,20.05,26.99,24.82,5.63,32.41,43.7,14.45,-5.44,-18.89,20.05,24.82,26.99,0,6.94,0.38
nw_cut_3_0_1f_opt_disp_struct_17.xyz,Nucleus 16H :,1.280536,0.74489,2.273389,24.25,19.69,27.96,25.11,10.26,31.7,47.27,9.5,-3.75,-22.21,19.69,25.11,27.96,0,8.27,0.31
nw_cut_3_0_1f_opt_disp_struct_17.xyz,Nucleus 17H :,1.694874,1.197222,3.069312,24.34,20.8,25.31,26.92,44.49,28.4,31.15,-19.08,-7.52,-4.42,20.8,25.31,26.92,0,6.12,0.48
nw_cut_3_0_1f_opt_disp_struct_17.xyz,Nucleus 18H :,0.25926,-0.172935,2.348578,28.7,34.89,27.4,23.82,41.88,26.93,31.95,-0.11,-9.37,-5.17,23.82,27.4,34.89,0,11.07,-0.35
nw_cut_3_0_1f_opt_disp_struct_17.xyz,Nucleus 20H :,-0.008141,-0.596968,1.044476,29.67,34.73,27.88,26.39,38.44,14.92,0.83,-4.2,26.18,12.82,26.39,27.88,34.73,0,8.34,-0.64
nw_cut_3_0_1f_opt_disp_struct_17.xyz,Nucleus 21H :,-1.031453,-1.547241,0.857845,29.96,25.76,30.32,33.79,43.82,31.77,21.38,-11.37,-0.73,5.01,25.76,30.32,33.79,0,8.03,0.13
nw_cut_3_0_1f_opt_disp_struct_17.xyz,Nucleus 25H :,-1.337246,-1.990907,-0.370503,27.07,32.63,26.28,22.31,32.09,55.09,49.71,-2.84,-32.09,-20.75,22.31,26.28,32.63,0,10.32,-0.23
nw_cut_3_0_1f_opt_disp_struct_17.xyz,Nucleus 26H :,-1.744451,-2.043297,1.950498,27.24,34.48,23.5,23.75,31.36,45.76,40.8,-2.92,-18.97,-14.31,23.5,23.75,34.48,0,10.98,-0.95
nw_cut_3_0_1f_opt_disp_struct_17.xyz,Nucleus 27H :,-2.520057,-2.779802,1.771363,29.54,34.03,27.46,27.14,38.2,8.84,19.83,19.9,7.71,-5.85,27.14,27.46,34.03,0,6.89,-0.91
nw_cut_3_0_1f_opt_disp_struct_17.xyz,Nucleus 0C :,-1.451464,-1.600948,3.238023,170.67,186.56,160.7,164.74,257.19,238.04,237.23,-77.75,-75.12,-67.6,160.7,164.74,186.56,0,25.86,-0.69
nw_cut_3_0_1f_opt_disp_struct_17.xyz,Nucleus 3C :,-2.008519,-1.996295,4.08035,62.3,149.03,53.12,-15.26,240.17,272.24,263.2,-91.16,-218.98,-278.58,-15.26,53.12,149.03,0,164.29,-0.17
nw_cut_3_0_1f_opt_disp_struct_17.xyz,Nucleus 4C :,-0.443667,-0.655863,3.46124,57.04,-27.69,127.77,71.05,273.58,257.45,259.32,-292.58,-131.01,-195.64,-27.69,71.05,127.77,0,155.46,0.27
nw_cut_3_0_1f_opt_disp_struct_17.xyz,Nucleus 7C :,-0.205862,-0.325668,4.466364,38.13,136.36,-39.32,17.36,270.46,266.66,263.67,-128.89,-309.61,-247.89,-39.32,17.36,136.36,0,175.68,-0.35
nw_cut_3_0_1f_opt_disp_struct_17.xyz,Nucleus 8C :,2.458218,1.600311,0.699262,60.57,162.39,22.58,-3.27,235.01,266.66,264.59,-72.79,-242.67,-269.09,-3.27,22.58,162.39,0,165.66,-0.69
nw_cut_3_0_1f_opt_disp_struct_17.xyz,Nucleus 9C :,0.037036,0.254181,-1.785377,11.96,-66.0,74.38,27.49,233.93,265.33,266.76,-159.55,-237.9,-332.7,-66.0,27.49,74.38,0,140.38,0.33
nw_cut_3_0_1f_opt_disp_struct_17.xyz,Nucleus 11C :,6.021472,-7.209819,1.982544,69.86,164.9,-15.5,60.17,238.2,262.82,271.97,-73.41,-279.88,-210.14,-15.5,60.17,164.9,0,180.4,-0.16
nw_cut_3_0_1f_opt_disp_struct_17.xyz,Nucleus 13C :,6.951227,-7.498781,2.476488,52.44,172.7,41.43,-56.82,218.05,272.29,254.66,-45.4,-230.71,-311.58,-56.82,41.43,172.7,0,229.52,-0.14
nw_cut_3_0_1f_opt_disp_struct_17.xyz,Nucleus 15C :,6.16036,-6.253054,1.47047,70.34,172.46,56.98,-18.41,239.84,271.12,264.01,-67.63,-213.56,-282.75,-18.41,56.98,172.46,0,190.87,-0.21
nw_cut_3_0_1f_opt_disp_struct_17.xyz,Nucleus 19C :,4.907682,-7.189246,2.990001,163.23,191.02,155.84,142.82,263.22,227.3,236.22,-69.97,-79.68,-87.4,142.82,155.84,191.02,0,48.2,-0.46
nw_cut_3_0_1f_opt_disp_struct_17.xyz,Nucleus 22C :,4.78897,-8.026127,3.876808,4.0,-91.48,94.11,9.36,184.7,251.77,271.15,-90.8,-343.98,-260.85,-91.48,9.36,94.11,0,185.59,0.09
nw_cut_3_0_1f_opt_disp_struct_17.xyz,Nucleus 5N :,4.009418,-6.17627,2.847257,118.16,56.32,168.93,129.22,299.07,335.86,329.27,-130.36,-206.54,-272.83,56.32,129.22,168.93,0,112.61,0.29
nw_cut_3_0_1f_opt_disp_struct_17.xyz,Nucleus 24N :,4.01919,-5.650443,1.997775,145.61,46.64,243.63,146.55,295.25,330.3,344.96,-284.79,-85.09,-163.8,46.64,146.55,243.63,0,196.99,0.01
nw_cut_3_0_1f_opt_disp_struct_17.xyz,Nucleus 23O :,3.153824,-6.267038,3.359321,-107.25,319.67,-234.29,-407.12,325.44,379.66,428.08,-6.23,-615.72,-832.96,-407.12,-234.29,319.67,0,726.79,-0.52
nw_cut_3_0_1f_opt_disp_struct_17.xyz,Nucleus 10F :,5.797731,-7.977082,1.233745,301.55,396.69,222.03,285.93,485.93,459.68,466.51,-69.84,-237.81,-199.83,222.03,285.93,396.69,0,174.66,-0.27
nw_cut_3_0_1f_opt_disp_struct_18.xyz,Nucleus 1H :,0.979332,-0.028792,-1.304036,29.18,35.2,23.5,28.84,40.66,26.38,29.11,-6.54,0.33,-2.41,23.5,28.84,35.2,0,11.7,-0.09
nw_cut_3_0_1f_opt_disp_struct_18.xyz,Nucleus 2H :,1.768432,0.613439,-1.703564,28.75,23.89,27.59,34.77,45.1,25.34,26.79,-11.33,2.05,-1.7,23.89,27.59,34.77,0,10.88,-0.32
nw_cut_3_0_1f_opt_disp_struct_18.xyz,Nucleus 6H :,1.194778,-1.057743,-1.611738,24.02,16.21,24.93,30.91,48.99,14.48,29.86,-18.43,1.9,-4.75,16.21,24.93,30.91,0,14.7,0.19
nw_cut_3_0_1f_opt_disp_struct_18.xyz,Nucleus 12H :,0.894284,0.096199,0.174476,24.37,20.57,24.76,27.77,46.83,18.17,31.19,-22.04,2.46,-3.51,20.57,24.76,27.77,0,7.2,0.16
nw_cut_3_0_1f_opt_disp_struct_18.xyz,Nucleus 14H :,1.668507,0.916225,0.972095,23.95,20.04,27.0,24.82,5.61,32.33,43.69,14.46,-5.35,-18.88,20.04,24.82,27.0,0,6.96,0.38
nw_cut_3_0_1f_opt_disp_struct_18.xyz,Nucleus 16H :,1.280536,0.74489,2.273389,24.25,19.68,27.97,25.11,10.25,31.69,47.18,9.49,-3.72,-22.12,19.68,25.11,27.97,0,8.29,0.31
nw_cut_3_0_1f_opt_disp_struct_18.xyz,Nucleus 17H :,1.694874,1.197222,3.069312,24.34,20.8,25.31,26.92,44.47,28.4,31.13,-19.05,-7.52,-4.39,20.8,25.31,26.92,0,6.12,0.48
nw_cut_3_0_1f_opt_disp_struct_18.xyz,Nucleus 18H :,0.25926,-0.172935,2.348578,28.71,34.89,27.41,23.82,41.87,26.91,31.92,-0.08,-9.37,-5.14,23.82,27.41,34.89,0,11.07,-0.35
nw_cut_3_0_1f_opt_disp_struct_18.xyz,Nucleus 20H :,-0.008141,-0.596968,1.044476,29.66,34.71,27.88,26.39,38.41,14.67,0.11,-4.21,26.91,13.08,26.39,27.88,34.71,0,8.32,-0.64
nw_cut_3_0_1f_opt_disp_struct_18.xyz,Nucleus 21H :,-1.031453,-1.547241,0.857845,29.95,25.77,30.27,33.8,44.11,31.64,21.12,-11.69,-0.64,5.3,25.77,30.27,33.8,0,8.03,0.12
nw_cut_3_0_1f_opt_disp_struct_18.xyz,Nucleus 25H :,-1.337246,-1.990907,-0.370503,27.04,32.52,26.28,22.33,32.09,55.96,49.9,-2.85,-32.98,-20.99,22.33,26.28,32.52,0,10.19,-0.22
nw_cut_3_0_1f_opt_disp_struct_18.xyz,Nucleus 26H :,-1.744451,-2.043297,1.950498,27.22,34.45,23.73,23.47,31.29,46.24,41.4,-2.97,-19.77,-14.54,23.47,23.73,34.45,0,10.98,-0.95
nw_cut_3_0_1f_opt_disp_struct_18.xyz,Nucleus 27H :,-2.520057,-2.779802,1.771363,29.54,34.03,27.44,27.14,38.25,8.22,19.66,20.53,7.89,-5.94,27.14,27.44,34.03,0,6.89,-0.91
nw_cut_3_0_1f_opt_disp_struct_18.xyz,Nucleus 0C :,-1.451464,-1.600948,3.238023,170.67,186.57,160.71,164.73,257.15,238.05,237.2,-77.7,-75.11,-67.59,160.71,164.73,186.57,0,25.86,-0.69
nw_cut_3_0_1f_opt_disp_struct_18.xyz,Nucleus 3C :,-2.008519,-1.996295,4.08035,62.28,149.02,53.1,-15.27,240.14,272.15,263.17,-91.15,-218.9,-278.56,-15.27,53.1,149.02,0,164.29,-0.17
nw_cut_3_0_1f_opt_disp_struct_18.xyz,Nucleus 4C :,-0.443667,-0.655863,3.46124,57.06,-27.68,127.76,71.09,273.54,257.4,259.35,-292.56,-131.01,-195.54,-27.68,71.09,127.76,0,155.44,0.27
nw_cut_3_0_1f_opt_disp_struct_18.xyz,Nucleus 7C :,-0.205862,-0.325668,4.466364,38.13,136.34,-39.32,17.37,270.36,266.64,263.62,-128.89,-309.5,-247.84,-39.32,17.37,136.34,0,175.66,-0.35
nw_cut_3_0_1f_opt_disp_struct_18.xyz,Nucleus 8C :,2.458218,1.600311,0.699262,60.56,162.37,22.58,-3.27,234.98,266.51,264.57,-72.78,-242.63,-268.97,-3.27,22.58,162.37,0,165.64,-0.69
nw_cut_3_0_1f_opt_disp_struct_18.xyz,Nucleus 9C :,0.037036,0.254181,-1.785377,11.95,-66.0,74.36,27.48,233.91,265.3,266.61,-159.55,-237.87,-332.57,-66.0,27.48,74.36,0,140.36,0.33
nw_cut_3_0_1f_opt_disp_struct_18.xyz,Nucleus 11C :,6.188412,-7.39413,2.008244,69.85,164.88,-15.5,60.18,238.19,262.76,271.87,-73.41,-279.76,-210.09,-15.5,60.18,164.88,0,180.38,-0.16
nw_cut_3_0_1f_opt_disp_struct_18.xyz,Nucleus 13C :,7.118167,-7.683092,2.502187,52.44,172.68,41.46,-56.81,218.02,272.16,254.65,-45.39,-230.55,-311.56,-56.81,41.46,172.68,0,229.49,-0.14
nw_cut_3_0_1f_opt_disp_struct_18.xyz,Nucleus 15C :,6.3273,-6.437366,1.496169,70.36,172.43,57.03,-18.38,239.84,271.09,263.89,-67.66,-213.45,-282.64,-18.38,57.03,172.43,0,190.81,-0.21
nw_cut_3_0_1f_opt_disp_struct_18.xyz,Nucleus 19C :,5.074621,-7.373557,3.0157,163.22,191.02,155.81,142.83,263.54,226.83,235.94,-70.13,-79.44,-87.1,142.83,155.81,191.02,0,48.19,-0.46
nw_cut_3_0_1f_opt_disp_struct_18.xyz,Nucleus 22C :,4.95591,-8.210439,3.902508,3.99,-91.53,94.12,9.37,183.84,251.71,271.32,-89.94,-343.96,-261.02,-91.53,9.37,94.12,0,185.65,0.09
nw_cut_3_0_1f_opt_disp_struct_18.xyz,Nucleus 5N :,4.176358,-6.360581,2.872956,118.18,56.36,168.91,129.27,299.05,335.85,329.18,-130.36,-206.48,-272.7,56.36,129.27,168.91,0,112.55,0.3
nw_cut_3_0_1f_opt_disp_struct_18.xyz,Nucleus 24N :,4.186129,-5.834754,2.023474,145.64,46.75,243.58,146.58,294.95,330.49,345.53,-284.88,-84.8,-164.39,46.75,146.58,243.58,0,196.83,0.01
nw_cut_3_0_1f_opt_disp_struct_18.xyz,Nucleus 23O :,3.320764,-6.451349,3.38502,-107.35,319.69,-234.42,-407.33,324.64,379.55,428.18,-5.42,-615.74,-833.26,-407.33,-234.42,319.69,0,727.02,-0.52
nw_cut_3_0_1f_opt_disp_struct_18.xyz,Nucleus 10F :,5.96467,-8.161393,1.259444,301.55,396.68,222.02,285.94,485.85,459.66,466.5,-69.83,-237.79,-199.76,222.02,285.94,396.68,0,174.66,-0.27
nw_cut_3_0_1f_opt_disp_struct_19.xyz,Nucleus 1H :,0.979332,-0.028792,-1.304036,29.18,35.2,23.5,28.85,40.65,26.38,29.09,-6.52,0.35,-2.4,23.5,28.85,35.2,0,11.7,-0.08
nw_cut_3_0_1f_opt_disp_struct_19.xyz,Nucleus 2H :,1.768432,0.613439,-1.703564,28.75,23.89,27.59,34.78,45.05,25.31,26.77,-11.29,2.09,-1.67,23.89,27.59,34.78,0,10.89,-0.32
nw_cut_3_0_1f_opt_disp_struct_19.xyz,Nucleus 6H :,1.194778,-1.057743,-1.611738,24.02,16.2,24.93,30.92,48.92,14.48,29.86,-18.36,1.89,-4.74,16.2,24.93,30.92,0,14.72,0.19
nw_cut_3_0_1f_opt_disp_struct_19.xyz,Nucleus 12H :,0.894284,0.096199,0.174476,24.37,20.56,24.76,27.78,46.75,18.15,31.16,-21.95,2.46,-3.47,20.56,24.76,27.78,0,7.22,0.16
nw_cut_3_0_1f_opt_disp_struct_19.xyz,Nucleus 14H :,1.668507,0.916225,0.972095,23.96,20.03,27.01,24.83,5.6,32.25,43.68,14.46,-5.26,-18.86,20.03,24.83,27.01,0,6.98,0.37
nw_cut_3_0_1f_opt_disp_struct_19.xyz,Nucleus 16H :,1.280536,0.74489,2.273389,24.26,19.67,27.98,25.12,10.25,31.67,47.1,9.48,-3.7,-22.03,19.67,25.12,27.98,0,8.31,0.31
nw_cut_3_0_1f_opt_disp_struct_19.xyz,Nucleus 17H :,1.694874,1.197222,3.069312,24.34,20.79,25.31,26.93,44.44,28.39,31.1,-19.03,-7.52,-4.36,20.79,25.31,26.93,0,6.14,0.47
nw_cut_3_0_1f_opt_disp_struct_19.xyz,Nucleus 18H :,0.25926,-0.172935,2.348578,28.71,34.89,27.41,23.82,41.87,26.89,31.9,-0.06,-9.36,-5.11,23.82,27.41,34.89,0,11.07,-0.35
nw_cut_3_0_1f_opt_disp_struct_19.xyz,Nucleus 20H :,-0.008141,-0.596968,1.044476,29.65,34.68,27.89,26.38,38.38,14.42,-0.61,-4.22,27.64,13.34,26.38,27.89,34.68,0,8.3,-0.64
nw_cut_3_0_1f_opt_disp_struct_19.xyz,Nucleus 21H :,-1.031453,-1.547241,0.857845,29.94,25.78,30.22,33.81,44.4,31.51,20.86,-12.01,-0.55,5.6,25.78,30.22,33.81,0,8.03,0.1
nw_cut_3_0_1f_opt_disp_struct_19.xyz,Nucleus 25H :,-1.337246,-1.990907,-0.370503,27.02,32.43,26.28,22.36,32.08,56.84,50.09,-2.86,-33.86,-21.22,22.36,26.28,32.43,0,10.07,-0.22
nw_cut_3_0_1f_opt_disp_struct_19.xyz,Nucleus 26H :,-1.744451,-2.043297,1.950498,27.19,34.43,23.73,23.42,31.24,46.74,41.96,-3.01,-20.56,-14.77,23.42,23.73,34.43,0,11.01,-0.94
nw_cut_3_0_1f_opt_disp_struct_19.xyz,Nucleus 27H :,-2.520057,-2.779802,1.771363,29.53,34.02,27.42,27.14,38.3,7.6,19.48,21.17,8.07,-6.04,27.14,27.42,34.02,0,6.88,-0.92
nw_cut_3_0_1f_opt_disp_struct_19.xyz,Nucleus 0C :,-1.451464,-1.600948,3.238023,170.67,186.57,160.71,164.72,257.11,238.05,237.16,-77.65,-75.11,-67.57,160.71,164.72,186.57,0,25.86,-0.69
nw_cut_3_0_1f_opt_disp_struct_19.xyz,Nucleus 3C :,-2.008519,-1.996295,4.08035,62.27,149.01,53.1,-15.29,240.12,272.06,263.14,-91.13,-218.83,-278.54,-15.29,53.1,149.01,0,164.3,-0.17
nw_cut_3_0_1f_opt_disp_struct_19.xyz,Nucleus 4C :,-0.443667,-0.655863,3.46124,57.07,-27.66,127.75,71.12,273.49,257.34,259.37,-292.54,-131.02,-195.44,-27.66,71.12,127.75,0,155.41,0.27
nw_cut_3_0_1f_opt_disp_struct_19.xyz,Nucleus 7C :,-0.205862,-0.325668,4.466364,38.13,136.33,-39.31,17.38,270.28,266.62,263.58,-128.9,-309.39,-247.79,-39.31,17.38,136.33,0,175.64,-0.35
nw_cut_3_0_1f_opt_disp_struct_19.xyz,Nucleus 8C :,2.458218,1.600311,0.699262,60.55,162.35,22.57,-3.27,234.95,266.37,264.55,-72.76,-242.59,-268.86,-3.27,22.57,162.35,0,165.62,-0.69
nw_cut_3_0_1f_opt_disp_struct_19.xyz,Nucleus 9C :,0.037036,0.254181,-1.785377,11.93,-66.01,74.34,27.47,233.89,265.26,266.48,-159.55,-237.84,-332.45,-66.01,27.47,74.34,0,140.35,0.33
nw_cut_3_0_1f_opt_disp_struct_19.xyz,Nucleus 11C :,6.355351,-7.578442,2.033943,69.85,164.86,-15.49,60.19,238.17,262.7,271.77,-73.41,-279.65,-210.04,-15.49,60.19,164.86,0,180.35,-0.16
nw_cut_3_0_1f_opt_disp_struct_19.xyz,Nucleus 13C :,7.285107,-7.867404,2.527886,52.44,172.65,41.49,-56.81,217.99,272.04,254.64,-45.39,-230.4,-311.54,-56.81,41.49,172.65,0,229.46,-0.14
nw_cut_3_0_1f_opt_disp_struct_19.xyz,Nucleus 15C :,6.494239,-6.621677,1.521869,70.37,172.41,57.07,-18.36,239.84,271.06,263.78,-67.67,-213.35,-282.54,-18.36,57.07,172.41,0,190.77,-0.21
nw_cut_3_0_1f_opt_disp_struct_19.xyz,Nucleus 19C :,5.241561,-7.557868,3.0414,163.21,191.02,155.77,142.84,263.86,226.35,235.67,-70.26,-79.19,-86.8,142.84,155.77,191.02,0,48.18,-0.46
nw_cut_3_0_1f_opt_disp_struct_19.xyz,Nucleus 22C :,5.12285,-8.39475,3.928207,3.98,-91.58,94.13,9.39,182.97,251.65,271.51,-89.07,-343.93,-261.2,-91.58,9.39,94.13,0,185.71,0.09
nw_cut_3_0_1f_opt_disp_struct_19.xyz,Nucleus 5N :,4.343297,-6.544893,2.898655,118.2,56.4,168.89,129.31,299.03,335.84,329.11,-130.36,-206.43,-272.58,56.4,129.31,168.89,0,112.49,0.3
nw_cut_3_0_1f_opt_disp_struct_19.xyz,Nucleus 24N :,4.353069,-6.019065,2.049174,145.66,46.86,243.52,146.6,294.63,330.68,346.13,-284.97,-84.51,-164.96,46.86,146.6,243.52,0,196.66,0.01
nw_cut_3_0_1f_opt_disp_struct_19.xyz,Nucleus 23O :,3.487703,-6.635661,3.41072,-107.45,319.7,-234.53,-407.51,323.85,379.44,428.28,-4.63,-615.73,-833.55,-407.51,-234.53,319.7,0,727.21,-0.52
nw_cut_3_0_1f_opt_disp_struct_19.xyz,Nucleus 10F :,6.13161,-8.345704,1.285144,301.54,396.66,222.01,285.94,485.78,459.64,466.48,-69.83,-237.78,-199.69,222.01,285.94,396.66,0,174.65,-0.27
nw_cut_3_0_1f_opt_disp_struct_2.xyz,Nucleus 1H :,0.979332,-0.028792,-1.304036,29.1,35.26,23.43,28.61,41.11,26.21,28.94,-7.07,0.56,-2.45,23.43,28.61,35.26,0,11.83,-0.12
nw_cut_3_0_1f_opt_disp_struct_2.xyz,Nucleus 2H :,1.768432,0.613439,-1.703564,28.73,34.49,23.98,27.73,45.84,25.43,27.22,-12.3,1.36,-1.37,23.98,27.73,34.49,0,10.51,-0.29
nw_cut_3_0_1f_opt_disp_struct_2.xyz,Nucleus 6H :,1.194778,-1.057743,-1.611738,23.87,16.16,24.63,30.81,49.7,14.23,29.33,-19.4,-4.58,2.34,16.16,24.63,30.81,0,14.65,0.16
nw_cut_3_0_1f_opt_disp_struct_2.xyz,Nucleus 12H :,0.894284,0.096199,0.174476,24.33,20.7,24.83,27.46,48.29,19.04,31.5,-23.74,2.09,-4.19,20.7,24.83,27.46,0,6.76,0.22
nw_cut_3_0_1f_opt_disp_struct_2.xyz,Nucleus 14H :,1.668507,0.916225,0.972095,23.89,20.23,26.47,24.98,6.45,33.17,43.65,13.99,-6.72,-18.86,20.23,24.98,26.47,0,6.24,0.52
nw_cut_3_0_1f_opt_disp_struct_2.xyz,Nucleus 16H :,1.280536,0.74489,2.273389,24.14,19.76,27.57,25.08,9.82,31.21,48.9,-24.05,-3.64,10.18,19.76,25.08,27.57,0,7.81,0.36
nw_cut_3_0_1f_opt_disp_struct_2.xyz,Nucleus 17H :,1.694874,1.197222,3.069312,24.23,20.7,25.3,26.7,44.61,28.29,31.22,-19.27,-7.38,-4.76,20.7,25.3,26.7,0,6.0,0.54
nw_cut_3_0_1f_opt_disp_struct_2.xyz,Nucleus 18H :,0.25926,-0.172935,2.348578,28.66,35.04,27.28,23.67,42.02,27.23,32.2,-0.45,-9.43,-5.58,23.67,27.28,35.04,0,11.37,-0.36
nw_cut_3_0_1f_opt_disp_struct_2.xyz,Nucleus 20H :,-0.008141,-0.596968,1.044476,30.05,35.73,27.85,26.56,39.94,18.08,11.42,-4.4,9.63,15.48,26.56,27.85,35.73,0,9.17,-0.72
nw_cut_3_0_1f_opt_disp_struct_2.xyz,Nucleus 21H :,-1.031453,-1.547241,0.857845,30.45,25.27,32.17,33.9,23.88,35.33,39.41,-6.49,-2.68,1.89,25.27,32.17,33.9,0,8.63,0.6
nw_cut_3_0_1f_opt_disp_struct_2.xyz,Nucleus 25H :,-1.337246,-1.990907,-0.370503,28.62,39.8,20.49,25.58,53.08,29.24,36.43,1.06,-15.41,-18.53,20.49,25.58,39.8,0,19.31,-0.47
nw_cut_3_0_1f_opt_disp_struct_2.xyz,Nucleus 26H :,-1.744451,-2.043297,1.950498,28.6,38.03,26.06,21.71,25.91,38.12,36.2,2.23,-6.29,-10.36,21.71,26.06,38.03,0,16.32,-0.47
nw_cut_3_0_1f_opt_disp_struct_2.xyz,Nucleus 27H :,-2.520057,-2.779802,1.771363,29.85,34.46,28.12,26.96,38.2,18.24,22.11,10.39,5.33,-4.72,26.96,28.12,34.46,0,7.5,-0.69
nw_cut_3_0_1f_opt_disp_struct_2.xyz,Nucleus 0C :,-1.451464,-1.600948,3.238023,170.7,186.53,160.55,165.02,258.08,237.56,238.41,-78.68,-75.36,-67.91,160.55,165.02,186.53,0,25.98,-0.66
nw_cut_3_0_1f_opt_disp_struct_2.xyz,Nucleus 3C :,-2.008519,-1.996295,4.08035,62.86,149.32,53.55,-14.3,241.93,274.96,264.02,-92.62,-221.31,-278.4,-14.3,53.55,149.32,0,163.62,-0.17
nw_cut_3_0_1f_opt_disp_struct_2.xyz,Nucleus 4C :,-0.443667,-0.655863,3.46124,55.86,-29.21,128.13,68.66,274.98,257.95,258.75,-294.41,-130.52,-199.16,-29.21,68.66,128.13,0,157.34,0.24
nw_cut_3_0_1f_opt_disp_struct_2.xyz,Nucleus 7C :,-0.205862,-0.325668,4.466364,37.57,137.35,-40.36,15.72,263.29,270.43,273.25,-130.24,-313.45,-250.56,-40.36,15.72,137.35,0,177.71,-0.37
nw_cut_3_0_1f_opt_disp_struct_2.xyz,Nucleus 8C :,2.458218,1.600311,0.699262,61.16,163.55,23.2,-3.28,235.92,270.03,264.24,-72.55,-242.63,-271.54,-3.28,23.2,163.55,0,166.83,-0.68
nw_cut_3_0_1f_opt_disp_struct_2.xyz,Nucleus 9C :,0.037036,0.254181,-1.785377,12.45,-65.45,75.53,27.26,236.52,266.3,271.17,-161.08,-239.05,-336.53,-65.45,27.26,75.53,0,140.98,0.32
nw_cut_3_0_1f_opt_disp_struct_2.xyz,Nucleus 11C :,3.517378,-4.445148,1.597054,69.39,166.24,-16.28,58.22,237.95,263.75,275.41,-72.66,-283.19,-213.08,-16.28,58.22,166.24,0,182.52,-0.18
nw_cut_3_0_1f_opt_disp_struct_2.xyz,Nucleus 13C :,4.447133,-4.734109,2.090998,52.84,174.16,40.19,-55.83,218.26,275.68,253.88,-44.65,-234.97,-309.68,-55.83,40.19,174.16,0,229.99,-0.17
nw_cut_3_0_1f_opt_disp_struct_2.xyz,Nucleus 15C :,3.656265,-3.488383,1.08498,67.99,173.84,51.71,-21.58,239.19,272.37,267.11,-65.88,-220.2,-288.62,-21.58,51.71,173.84,0,195.42,-0.25
nw_cut_3_0_1f_opt_disp_struct_2.xyz,Nucleus 19C :,2.403587,-4.424574,2.604511,163.72,191.28,157.54,142.35,257.84,234.13,241.67,-65.62,-83.75,-93.1,142.35,157.54,191.28,0,48.93,-0.38
nw_cut_3_0_1f_opt_disp_struct_2.xyz,Nucleus 22C :,2.284876,-5.261456,3.491318,4.26,-88.5,93.88,7.41,197.48,251.69,270.43,-103.67,-341.64,-261.5,-88.5,7.41,93.88,0,182.38,0.05
nw_cut_3_0_1f_opt_disp_struct_2.xyz,Nucleus 5N :,1.505324,-3.411599,2.461767,116.1,52.62,169.62,126.07,299.23,336.13,330.21,-130.49,-209.82,-276.94,52.62,126.07,169.62,0,117.0,0.26
nw_cut_3_0_1f_opt_disp_struct_2.xyz,Nucleus 24N :,1.515095,-2.885771,1.612285,144.08,37.54,244.97,149.74,293.16,324.4,343.15,-289.44,-90.66,-148.36,37.54,149.74,244.97,0,207.43,0.08
nw_cut_3_0_1f_opt_disp_struct_2.xyz,Nucleus 23O :,0.649729,-3.502367,2.973831,-99.78,320.38,-225.95,-393.77,340.09,380.9,426.73,-20.38,-608.11,-818.57,-393.77,-225.95,320.38,0,714.15,-0.53
nw_cut_3_0_1f_opt_disp_struct_2.xyz,Nucleus 10F :,3.293636,-5.21241,0.848255,300.51,396.82,220.4,284.32,485.54,458.74,467.25,-70.4,-239.2,-200.39,220.4,284.32,396.82,0,176.42,-0.28
nw_cut_3_0_1f_opt_disp_struct_3.xyz,Nucleus 1H :,0.979332,-0.028792,-1.304036,29.11,35.24,23.45,28.64,41.09,26.3,28.97,-7.06,0.46,-2.43,23.45,28.64,35.24,0,11.79,-0.12
nw_cut_3_0_1f_opt_disp_struct_3.xyz,Nucleus 2H :,1.768432,0.613439,-1.703564,28.74,34.52,24.0,27.71,45.81,25.56,27.16,-12.22,1.39,-1.47,24.0,27.71,34.52,0,10.52,-0.29
nw_cut_3_0_1f_opt_disp_struct_3.xyz,Nucleus 6H :,1.194778,-1.057743,-1.611738,23.9,16.2,24.68,30.81,49.76,14.31,29.4,-19.47,-4.59,2.28,16.2,24.68,30.81,0,14.61,0.16
nw_cut_3_0_1f_opt_disp_struct_3.xyz,Nucleus 12H :,0.894284,0.096199,0.174476,24.34,20.72,24.8,27.49,48.31,18.84,31.72,-23.75,2.27,-4.38,20.72,24.8,27.49,0,6.77,0.2
nw_cut_3_0_1f_opt_disp_struct_3.xyz,Nucleus 14H :,1.668507,0.916225,0.972095,23.91,20.24,26.54,24.94,6.22,33.27,43.7,14.2,-6.74,-18.93,20.24,24.94,26.54,0,6.3,0.49
nw_cut_3_0_1f_opt_disp_struct_3.xyz,Nucleus 16H :,1.280536,0.74489,2.273389,24.16,19.79,27.61,25.07,9.92,31.31,48.85,-23.98,-3.7,10.07,19.79,25.07,27.61,0,7.82,0.35
nw_cut_3_0_1f_opt_disp_struct_3.xyz,Nucleus 17H :,1.694874,1.197222,3.069312,24.25,20.73,25.31,26.72,44.65,28.35,31.23,-19.33,-7.41,-4.74,20.73,25.31,26.72,0,5.99,0.53
nw_cut_3_0_1f_opt_disp_struct_3.xyz,Nucleus 18H :,0.25926,-0.172935,2.348578,28.67,35.02,27.29,23.69,42.03,27.25,32.17,-0.48,-9.41,-5.56,23.69,27.29,35.02,0,11.33,-0.37
nw_cut_3_0_1f_opt_disp_struct_3.xyz,Nucleus 20H :,-0.008141,-0.596968,1.044476,29.98,35.59,27.83,26.52,39.73,17.89,10.7,-4.35,9.81,16.18,26.52,27.83,35.59,0,9.07,-0.71
nw_cut_3_0_1f_opt_disp_struct_3.xyz,Nucleus 21H :,-1.031453,-1.547241,0.857845,30.38,25.34,32.01,33.78,23.89,34.98,39.63,-6.74,-2.53,1.9,25.34,32.01,33.78,0,8.44,0.58
nw_cut_3_0_1f_opt_disp_struct_3.xyz,Nucleus 25H :,-1.337246,-1.990907,-0.370503,28.47,38.54,21.01,25.87,52.14,29.96,38.19,0.12,-16.64,-18.35,21.01,25.87,38.54,0,17.53,-0.44
nw_cut_3_0_1f_opt_disp_struct_3.xyz,Nucleus 26H :,-1.744451,-2.043297,1.950498,28.47,37.05,26.07,22.28,27.01,37.59,36.7,1.52,-6.63,-10.79,22.28,26.07,37.05,0,14.77,-0.49
nw_cut_3_0_1f_opt_disp_struct_3.xyz,Nucleus 27H :,-2.520057,-2.779802,1.771363,29.8,34.39,28.04,26.98,38.14,17.56,21.96,11.04,5.48,-4.77,26.98,28.04,34.39,0,7.41,-0.71
nw_cut_3_0_1f_opt_disp_struct_3.xyz,Nucleus 0C :,-1.451464,-1.600948,3.238023,170.68,186.5,160.56,164.99,257.93,237.68,238.34,-78.56,-75.4,-67.94,160.56,164.99,186.5,0,25.94,-0.66
nw_cut_3_0_1f_opt_disp_struct_3.xyz,Nucleus 3C :,-2.008519,-1.996295,4.08035,62.8,149.32,53.57,-14.49,241.76,274.8,263.94,-92.45,-221.16,-278.49,-14.49,53.57,149.32,0,163.81,-0.17
nw_cut_3_0_1f_opt_disp_struct_3.xyz,Nucleus 4C :,-0.443667,-0.655863,3.46124,56.1,-28.91,128.11,69.09,274.83,258.49,258.11,-293.99,-130.45,-198.7,-28.91,69.09,128.11,0,157.02,0.25
nw_cut_3_0_1f_opt_disp_struct_3.xyz,Nucleus 7C :,-0.205862,-0.325668,4.466364,37.86,137.22,-39.86,16.21,273.29,269.6,263.58,-129.99,-313.04,-249.88,-39.86,16.21,137.22,0,177.08,-0.37
nw_cut_3_0_1f_opt_disp_struct_3.xyz,Nucleus 8C :,2.458218,1.600311,0.699262,61.14,163.32,23.2,-3.1,235.78,270.42,264.39,-72.7,-243.09,-271.37,-3.1,23.2,163.32,0,166.42,-0.68
nw_cut_3_0_1f_opt_disp_struct_3.xyz,Nucleus 9C :,0.037036,0.254181,-1.785377,12.47,-65.32,75.34,27.39,236.06,266.75,270.97,-160.87,-239.26,-336.24,-65.32,27.39,75.34,0,140.66,0.32
nw_cut_3_0_1f_opt_disp_struct_3.xyz,Nucleus 11C :,3.684317,-4.629459,1.622754,69.7,166.03,-15.85,58.93,237.88,263.76,275.61,-72.71,-282.86,-212.58,-15.85,58.93,166.03,0,181.88,-0.18
nw_cut_3_0_1f_opt_disp_struct_3.xyz,Nucleus 13C :,4.614072,-4.918421,2.116697,52.82,173.92,40.56,-56.03,218.22,275.57,254.04,-44.67,-234.57,-310.14,-56.03,40.56,173.92,0,229.95,-0.16
nw_cut_3_0_1f_opt_disp_struct_3.xyz,Nucleus 15C :,3.823205,-3.672695,1.110679,68.73,173.67,53.16,-20.63,239.01,272.32,266.89,-65.86,-218.74,-287.42,-20.63,53.16,173.67,0,194.3,-0.24
nw_cut_3_0_1f_opt_disp_struct_3.xyz,Nucleus 19C :,2.570527,-4.608886,2.63021,163.65,191.23,157.26,142.45,258.21,233.74,241.2,-66.03,-83.45,-92.73,142.45,157.26,191.23,0,48.78,-0.39
nw_cut_3_0_1f_opt_disp_struct_3.xyz,Nucleus 22C :,2.451815,-5.445767,3.517018,4.23,-89.05,93.86,7.88,196.47,251.74,270.34,-102.69,-342.21,-260.97,-89.05,7.88,93.86,0,182.91,0.06
nw_cut_3_0_1f_opt_disp_struct_3.xyz,Nucleus 5N :,1.672263,-3.59591,2.487466,116.54,53.41,169.56,126.64,299.12,336.14,330.24,-130.44,-209.25,-276.2,53.41,126.64,169.56,0,116.15,0.26
nw_cut_3_0_1f_opt_disp_struct_3.xyz,Nucleus 24N :,1.682035,-3.070083,1.637984,144.68,40.5,245.43,148.11,293.33,324.5,342.78,-286.55,-89.28,-150.73,40.5,148.11,245.43,0,204.93,0.05
nw_cut_3_0_1f_opt_disp_struct_3.xyz,Nucleus 23O :,0.816669,-3.686678,2.99953,-101.68,319.86,-228.01,-396.89,338.43,380.77,426.85,-19.22,-610.09,-821.78,-396.89,-228.01,319.86,0,716.75,-0.53
nw_cut_3_0_1f_opt_disp_struct_3.xyz,Nucleus 10F :,3.460576,-5.396722,0.873954,300.89,396.84,221.07,284.75,485.85,458.89,467.13,-70.37,-238.58,-200.25,221.07,284.75,396.84,0,175.77,-0.28
nw_cut_3_0_1f_opt_disp_struct_4.xyz,Nucleus 1H :,0.979332,-0.028792,-1.304036,29.12,35.23,23.47,28.66,41.06,26.35,28.99,-7.03,0.4,-2.41,23.47,28.66,35.23,0,11.76,-0.12
nw_cut_3_0_1f_opt_disp_struct_4.xyz,Nucleus 2H :,1.768432,0.613439,-1.703564,28.75,34.55,24.01,27.69,45.76,25.62,27.11,-12.14,1.44,-1.55,24.01,27.69,34.55,0,10.54,-0.3
nw_cut_3_0_1f_opt_disp_struct_4.xyz,Nucleus 6H :,1.194778,-1.057743,-1.611738,23.91,16.22,24.72,30.8,49.79,14.36,29.47,-19.49,2.22,-4.61,16.22,24.72,30.8,0,14.58,0.17
nw_cut_3_0_1f_opt_disp_struct_4.xyz,Nucleus 12H :,0.894284,0.096199,0.174476,24.34,20.73,24.77,27.53,48.28,18.73,31.8,-23.7,2.35,-4.42,20.73,24.77,27.53,0,6.8,0.19
nw_cut_3_0_1f_opt_disp_struct_4.xyz,Nucleus 14H :,1.668507,0.916225,0.972095,23.91,20.24,26.61,24.89,6.08,33.35,43.74,14.29,-6.75,-18.97,20.24,24.89,26.61,0,6.37,0.46
nw_cut_3_0_1f_opt_disp_struct_4.xyz,Nucleus 16H :,1.280536,0.74489,2.273389,24.18,19.81,27.66,25.06,10.0,31.4,48.75,-23.87,-3.75,9.99,19.81,25.06,27.66,0,7.85,0.34
nw_cut_3_0_1f_opt_disp_struct_4.xyz,Nucleus 17H :,1.694874,1.197222,3.069312,24.27,20.75,25.31,26.75,44.68,28.39,31.23,-19.36,-7.43,-4.71,20.75,25.31,26.75,0,6.0,0.52
nw_cut_3_0_1f_opt_disp_struct_4.xyz,Nucleus 18H :,0.25926,-0.172935,2.348578,28.67,35.0,27.3,23.71,42.01,27.24,32.13,-0.48,-9.37,-5.52,23.71,27.3,35.0,0,11.29,-0.36
nw_cut_3_0_1f_opt_disp_struct_4.xyz,Nucleus 20H :,-0.008141,-0.596968,1.044476,29.94,35.47,27.83,26.51,39.55,17.72,9.99,-4.32,9.97,16.89,26.51,27.83,35.47,0,8.96,-0.71
nw_cut_3_0_1f_opt_disp_struct_4.xyz,Nucleus 21H :,-1.031453,-1.547241,0.857845,30.31,25.39,31.82,33.73,23.86,34.63,39.9,-7.04,-2.37,1.97,25.39,31.82,33.73,0,8.34,0.54
nw_cut_3_0_1f_opt_disp_struct_4.xyz,Nucleus 25H :,-1.337246,-1.990907,-0.370503,28.28,37.5,21.32,26.02,51.37,30.55,39.92,-0.61,-17.9,-18.48,21.32,26.02,37.5,0,16.18,-0.42
nw_cut_3_0_1f_opt_disp_struct_4.xyz,Nucleus 26H :,-1.744451,-2.043297,1.950498,28.3,36.36,25.91,22.62,28.12,38.47,35.99,0.73,-7.21,-11.22,22.62,25.91,36.36,0,13.74,-0.52
nw_cut_3_0_1f_opt_disp_struct_4.xyz,Nucleus 27H :,-2.520057,-2.779802,1.771363,29.77,34.33,27.98,26.99,38.09,16.9,21.82,11.7,5.63,-4.84,26.99,27.98,34.33,0,7.34,-0.73
nw_cut_3_0_1f_opt_disp_struct_4.xyz,Nucleus 0C :,-1.451464,-1.600948,3.238023,170.67,186.49,160.57,164.96,257.8,237.72,238.27,-78.45,-75.38,-67.94,160.57,164.96,186.49,0,25.92,-0.66
nw_cut_3_0_1f_opt_disp_struct_4.xyz,Nucleus 3C :,-2.008519,-1.996295,4.08035,62.74,149.31,53.54,-14.62,241.47,274.51,263.83,-92.18,-220.92,-278.48,-14.62,53.54,149.31,0,163.93,-0.17
nw_cut_3_0_1f_opt_disp_struct_4.xyz,Nucleus 4C :,-0.443667,-0.655863,3.46124,56.27,-28.68,128.07,69.43,274.68,258.67,257.88,-293.65,-130.45,-198.3,-28.68,69.43,128.07,0,156.75,0.25
nw_cut_3_0_1f_opt_disp_struct_4.xyz,Nucleus 7C :,-0.205862,-0.325668,4.466364,38.0,137.07,-39.6,16.53,273.26,268.5,264.03,-129.72,-312.77,-249.29,-39.6,16.53,137.07,0,176.67,-0.36
nw_cut_3_0_1f_opt_disp_struct_4.xyz,Nucleus 8C :,2.458218,1.600311,0.699262,61.08,163.16,23.13,-3.04,235.53,270.69,264.41,-72.69,-243.37,-271.33,-3.04,23.13,163.16,0,166.2,-0.69
nw_cut_3_0_1f_opt_disp_struct_4.xyz,Nucleus 9C :,0.037036,0.254181,-1.785377,12.44,-65.34,75.17,27.49,235.64,266.85,270.67,-160.63,-239.24,-335.97,-65.34,27.49,75.17,0,140.51,0.32
nw_cut_3_0_1f_opt_disp_struct_4.xyz,Nucleus 11C :,3.851257,-4.81377,1.648453,69.85,165.84,-15.65,59.37,238.02,263.73,275.48,-72.92,-282.58,-212.17,-15.65,59.37,165.84,0,181.49,-0.17
nw_cut_3_0_1f_opt_disp_struct_4.xyz,Nucleus 13C :,4.781012,-5.102732,2.142396,52.76,173.72,40.76,-56.21,218.35,254.18,275.44,-44.85,-234.3,-310.56,-56.21,40.76,173.72,0,229.93,-0.16
nw_cut_3_0_1f_opt_disp_struct_4.xyz,Nucleus 15C :,3.990145,-3.857006,1.136379,69.19,173.48,54.13,-20.04,239.11,272.19,266.58,-66.1,-217.71,-286.49,-20.04,54.13,173.48,0,193.52,-0.23
nw_cut_3_0_1f_opt_disp_struct_4.xyz,Nucleus 19C :,2.737466,-4.793197,2.65591,163.6,191.21,157.04,142.54,258.62,233.36,240.77,-66.45,-83.15,-92.36,142.54,157.04,191.21,0,48.67,-0.4
nw_cut_3_0_1f_opt_disp_struct_4.xyz,Nucleus 22C :,2.618755,-5.630079,3.542717,4.22,-89.46,93.88,8.24,195.54,251.76,270.19,-101.74,-342.61,-260.49,-89.46,8.24,93.88,0,183.34,0.07
nw_cut_3_0_1f_opt_disp_struct_4.xyz,Nucleus 5N :,1.839203,-3.780222,2.513165,116.85,54.0,169.48,127.07,299.13,336.11,330.24,-130.47,-208.79,-275.67,54.0,127.07,169.48,0,115.48,0.27
nw_cut_3_0_1f_opt_disp_struct_4.xyz,Nucleus 24N :,1.848974,-3.254394,1.663684,144.89,42.13,245.41,147.13,293.96,325.09,342.53,-285.38,-88.61,-152.92,42.13,147.13,245.41,0,203.28,0.03
nw_cut_3_0_1f_opt_disp_struct_4.xyz,Nucleus 23O :,0.983609,-3.870989,3.02523,-102.91,319.62,-229.35,-398.99,336.79,380.71,426.99,-17.81,-611.42,-823.99,-398.99,-229.35,319.62,0,718.61,-0.53
nw_cut_3_0_1f_opt_disp_struct_4.xyz,Nucleus 10F :,3.627515,-5.581033,0.899654,301.12,396.88,221.45,285.04,486.05,459.08,467.01,-70.26,-238.27,-200.24,221.45,285.04,396.88,0,175.43,-0.27
nw_cut_3_0_1f_opt_disp_struct_5.xyz,Nucleus 1H :,0.979332,-0.028792,-1.304036,29.13,35.22,23.48,28.68,41.03,26.37,29.01,-6.98,0.36,-2.4,23.48,28.68,35.22,0,11.74,-0.11
nw_cut_3_0_1f_opt_disp_struct_5.xyz,Nucleus 2H :,1.768432,0.613439,-1.703564,28.75,34.57,24.01,27.67,45.72,25.64,27.07,-12.05,1.49,-1.61,24.01,27.67,34.57,0,10.56,-0.31
nw_cut_3_0_1f_opt_disp_struct_5.xyz,Nucleus 6H :,1.194778,-1.057743,-1.611738,23.93,16.23,24.75,30.81,49.78,14.41,29.54,-19.47,2.17,-4.64,16.23,24.75,30.81,0,14.58,0.17
nw_cut_3_0_1f_opt_disp_struct_5.xyz,Nucleus 12H :,0.894284,0.096199,0.174476,24.34,20.73,24.74,27.56,48.19,18.65,31.79,-23.61,2.37,-4.37,20.73,24.74,27.56,0,6.83,0.18
nw_cut_3_0_1f_opt_disp_struct_5.xyz,Nucleus 14H :,1.668507,0.916225,0.972095,23.92,20.23,26.67,24.86,6.0,33.37,43.76,14.33,-6.71,-19.0,20.23,24.86,26.67,0,6.44,0.44
nw_cut_3_0_1f_opt_disp_struct_5.xyz,Nucleus 16H :,1.280536,0.74489,2.273389,24.19,19.82,27.71,25.05,10.06,31.48,48.62,-23.73,-3.77,9.91,19.82,25.05,27.71,0,7.89,0.33
nw_cut_3_0_1f_opt_disp_struct_5.xyz,Nucleus 17H :,1.694874,1.197222,3.069312,24.28,20.77,25.3,26.77,44.69,28.41,31.23,-19.37,-7.44,-4.68,20.77,25.3,26.77,0,6.0,0.51
nw_cut_3_0_1f_opt_disp_struct_5.xyz,Nucleus 18H :,0.25926,-0.172935,2.348578,28.67,34.98,27.31,23.73,41.98,27.21,32.09,-0.45,-9.33,-5.48,23.73,27.31,34.98,0,11.25,-0.36
nw_cut_3_0_1f_opt_disp_struct_5.xyz,Nucleus 20H :,-0.008141,-0.596968,1.044476,29.89,35.36,27.83,26.49,39.4,17.55,9.29,-4.29,10.14,17.6,26.49,27.83,35.36,0,8.87,-0.7
nw_cut_3_0_1f_opt_disp_struct_5.xyz,Nucleus 21H :,-1.031453,-1.547241,0.857845,30.26,25.45,31.63,33.7,23.81,34.29,40.2,-7.36,-2.22,2.06,25.45,31.63,33.7,0,8.25,0.5
nw_cut_3_0_1f_opt_disp_struct_5.xyz,Nucleus 25H :,-1.337246,-1.990907,-0.370503,28.09,36.64,21.52,26.1,31.03,41.56,50.78,-1.18,-19.67,-18.24,21.52,26.1,36.64,0,15.12,-0.39
nw_cut_3_0_1f_opt_disp_struct_5.xyz,Nucleus 26H :,-1.744451,-2.043297,1.950498,28.13,35.87,22.84,25.67,39.37,35.34,29.18,0.0,-7.9,-11.62,22.84,25.67,35.87,0,13.03,-0.57
nw_cut_3_0_1f_opt_disp_struct_5.xyz,Nucleus 27H :,-2.520057,-2.779802,1.771363,29.74,34.28,27.92,27.01,38.06,16.26,21.69,12.34,5.77,-4.91,27.01,27.92,34.28,0,7.27,-0.75
nw_cut_3_0_1f_opt_disp_struct_5.xyz,Nucleus 0C :,-1.451464,-1.600948,3.238023,170.67,186.48,160.59,164.93,257.7,237.72,238.2,-78.36,-75.34,-67.93,160.59,164.93,186.48,0,25.89,-0.67
nw_cut_3_0_1f_opt_disp_struct_5.xyz,Nucleus 3C :,-2.008519,-1.996295,4.08035,62.68,149.29,53.49,-14.74,241.16,274.17,263.71,-91.9,-220.64,-278.48,-14.74,53.49,149.29,0,164.03,-0.17
nw_cut_3_0_1f_opt_disp_struct_5.xyz,Nucleus 4C :,-0.443667,-0.655863,3.46124,56.43,-28.48,128.04,69.72,274.53,258.77,257.78,-293.38,-130.48,-197.94,-28.48,69.72,128.04,0,156.52,0.25
nw_cut_3_0_1f_opt_disp_struct_5.xyz,Nucleus 7C :,-0.205862,-0.325668,4.466364,38.07,136.96,-39.49,16.74,273.15,267.64,264.35,-129.49,-312.55,-248.87,-39.49,16.74,136.96,0,176.45,-0.36
nw_cut_3_0_1f_opt_disp_struct_5.xyz,Nucleus 8C :,2.458218,1.600311,0.699262,61.0,163.02,23.03,-3.05,235.38,270.74,264.37,-72.7,-243.51,-271.29,-3.05,23.03,163.02,0,166.07,-0.69
nw_cut_3_0_1f_opt_disp_struct_5.xyz,Nucleus 9C :,0.037036,0.254181,-1.785377,12.38,-65.43,75.04,27.54,235.35,266.72,270.33,-160.44,-239.09,-335.73,-65.43,27.54,75.04,0,140.47,0.32
nw_cut_3_0_1f_opt_disp_struct_5.xyz,Nucleus 11C :,4.018197,-4.998082,1.674152,69.92,165.69,-15.56,59.63,238.19,263.69,275.1,-73.11,-282.29,-211.83,-15.56,59.63,165.69,0,181.25,-0.17
nw_cut_3_0_1f_opt_disp_struct_5.xyz,Nucleus 13C :,4.947952,-5.287044,2.168096,52.67,173.55,40.86,-56.4,218.44,254.32,275.21,-45.02,-234.0,-310.93,-56.4,40.86,173.55,0,229.95,-0.15
nw_cut_3_0_1f_opt_disp_struct_5.xyz,Nucleus 15C :,4.157084,-4.041317,1.162078,69.5,173.32,54.81,-19.64,239.28,271.98,266.28,-66.38,-216.91,-285.77,-19.64,54.81,173.32,0,192.96,-0.23
nw_cut_3_0_1f_opt_disp_struct_5.xyz,Nucleus 19C :,2.904406,-4.977509,2.681609,163.55,191.18,156.86,142.6,259.03,232.97,240.36,-66.86,-82.87,-92.01,142.6,156.86,191.18,0,48.58,-0.41
nw_cut_3_0_1f_opt_disp_struct_5.xyz,Nucleus 22C :,2.785695,-5.81439,3.568416,4.2,-89.79,93.89,8.5,194.66,251.79,270.08,-100.85,-342.93,-260.15,-89.79,8.5,93.89,0,183.68,0.07
nw_cut_3_0_1f_opt_disp_struct_5.xyz,Nucleus 5N :,2.006142,-3.964533,2.538865,117.1,54.46,169.41,127.44,299.19,336.08,330.21,-130.51,-208.42,-275.24,54.46,127.44,169.41,0,114.95,0.27
nw_cut_3_0_1f_opt_disp_struct_5.xyz,Nucleus 24N :,2.015914,-3.438706,1.689383,145.02,43.17,245.25,146.64,294.64,325.82,342.35,-284.89,-88.18,-154.69,43.17,146.64,245.25,0,202.08,0.02
nw_cut_3_0_1f_opt_disp_struct_5.xyz,Nucleus 23O :,1.150548,-4.055301,3.050929,-103.79,319.5,-230.33,-400.54,335.27,380.67,427.13,-16.38,-612.42,-825.64,-400.54,-230.33,319.5,0,720.04,-0.53
nw_cut_3_0_1f_opt_disp_struct_5.xyz,Nucleus 10F :,3.794455,-5.765345,0.925353,301.26,396.88,221.68,285.23,486.19,459.26,466.93,-70.17,-238.12,-200.29,221.68,285.23,396.88,0,175.2,-0.27
nw_cut_3_0_1f_opt_disp_struct_6.xyz,Nucleus 1H :,0.979332,-0.028792,-1.304036,29.13,35.21,23.49,28.7,40.99,26.38,29.03,-6.94,0.33,-2.39,23.49,28.7,35.21,0,11.72,-0.11
nw_cut_3_0_1f_opt_disp_struct_6.xyz,Nucleus 2H :,1.768432,0.613439,-1.703564,28.75,34.6,24.01,27.65,45.67,25.65,27.04,-11.97,1.54,-1.66,24.01,27.65,34.6,0,10.59,-0.31
nw_cut_3_0_1f_opt_disp_struct_6.xyz,Nucleus 6H :,1.194778,-1.057743,-1.611738,23.95,16.24,24.78,30.82,49.76,14.44,29.61,-19.42,2.12,-4.68,16.24,24.78,30.82,0,14.58,0.17
nw_cut_3_0_1f_opt_disp_struct_6.xyz,Nucleus 12H :,0.894284,0.096199,0.174476,24.35,20.73,24.72,27.59,48.08,18.59,31.74,-23.48,2.38,-4.27,20.73,24.72,27.59,0,6.86,0.16
nw_cut_3_0_1f_opt_disp_struct_6.xyz,Nucleus 14H :,1.668507,0.916225,0.972095,23.92,20.21,26.73,24.83,5.95,33.34,43.77,14.35,-6.63,-19.02,20.21,24.83,26.73,0,6.52,0.42
nw_cut_3_0_1f_opt_disp_struct_6.xyz,Nucleus 16H :,1.280536,0.74489,2.273389,24.2,19.81,27.75,25.04,10.11,31.53,48.49,-23.58,-3.79,9.84,19.81,25.04,27.75,0,7.94,0.32
nw_cut_3_0_1f_opt_disp_struct_6.xyz,Nucleus 17H :,1.694874,1.197222,3.069312,24.29,20.78,25.3,26.79,44.69,28.42,31.23,-19.37,-7.45,-4.65,20.78,25.3,26.79,0,6.01,0.5
nw_cut_3_0_1f_opt_disp_struct_6.xyz,Nucleus 18H :,0.25926,-0.172935,2.348578,28.68,34.97,27.32,23.74,41.96,27.18,32.06,-0.42,-9.3,-5.44,23.74,27.32,34.97,0,11.23,-0.36
nw_cut_3_0_1f_opt_disp_struct_6.xyz,Nucleus 20H :,-0.008141,-0.596968,1.044476,29.86,35.27,27.84,26.48,39.27,17.38,8.6,-4.27,10.31,18.3,26.48,27.84,35.27,0,8.79,-0.69
nw_cut_3_0_1f_opt_disp_struct_6.xyz,Nucleus 21H :,-1.031453,-1.547241,0.857845,30.22,25.49,31.46,33.7,23.73,33.98,40.51,-7.7,-2.06,2.19,25.49,31.46,33.7,0,8.21,0.45
nw_cut_3_0_1f_opt_disp_struct_6.xyz,Nucleus 25H :,-1.337246,-1.990907,-0.370503,27.91,35.92,21.67,26.15,31.37,43.06,50.35,-1.61,-21.05,-18.39,21.67,26.15,35.92,0,14.25,-0.37
nw_cut_3_0_1f_opt_disp_struct_6.xyz,Nucleus 26H :,-1.744451,-2.043297,1.950498,27.97,35.52,22.99,25.41,40.17,34.83,30.21,-0.61,-8.71,-11.99,22.99,25.41,35.52,0,12.53,-0.61
nw_cut_3_0_1f_opt_disp_struct_6.xyz,Nucleus 27H :,-2.520057,-2.779802,1.771363,29.71,34.24,27.86,27.02,38.04,15.62,21.56,12.98,5.91,-4.98,27.02,27.86,34.24,0,7.22,-0.77
nw_cut_3_0_1f_opt_disp_struct_6.xyz,Nucleus 0C :,-1.451464,-1.600948,3.238023,170.66,186.48,160.6,164.91,257.62,237.69,238.15,-78.29,-75.3,-67.89,160.6,164.91,186.48,0,25.88,-0.67
nw_cut_3_0_1f_opt_disp_struct_6.xyz,Nucleus 3C :,-2.008519,-1.996295,4.08035,62.62,149.26,53.43,-14.84,240.9,273.85,263.62,-91.67,-220.37,-278.48,-14.84,53.43,149.26,0,164.1,-0.17
nw_cut_3_0_1f_opt_disp_struct_6.xyz,Nucleus 4C :,-0.443667,-0.655863,3.46124,56.55,-28.33,128.01,69.96,274.38,258.76,257.83,-293.18,-130.53,-197.61,-28.33,69.96,128.01,0,156.34,0.26
nw_cut_3_0_1f_opt_disp_struct_6.xyz,Nucleus 7C :,-0.205862,-0.325668,4.466364,38.11,136.86,-39.43,16.89,272.92,267.08,264.51,-129.32,-312.28,-248.58,-39.43,16.89,136.86,0,176.29,-0.36
nw_cut_3_0_1f_opt_disp_struct_6.xyz,Nucleus 8C :,2.458218,1.600311,0.699262,60.92,162.91,22.93,-3.09,235.3,270.56,264.33,-72.74,-243.54,-271.17,-3.09,22.93,162.91,0,166.0,-0.69
nw_cut_3_0_1f_opt_disp_struct_6.xyz,Nucleus 9C :,0.037036,0.254181,-1.785377,12.31,-65.54,74.92,27.56,235.11,266.5,269.95,-160.28,-238.89,-335.45,-65.54,27.56,74.92,0,140.46,0.33
nw_cut_3_0_1f_opt_disp_struct_6.xyz,Nucleus 11C :,4.185136,-5.182393,1.699852,69.94,165.55,-15.53,59.79,238.31,263.63,274.62,-73.23,-282.0,-211.52,-15.53,59.79,165.55,0,181.08,-0.17
nw_cut_3_0_1f_opt_disp_struct_6.xyz,Nucleus 13C :,5.114891,-5.471355,2.193795,52.6,173.4,40.93,-56.54,218.47,254.43,274.88,-45.16,-233.65,-311.19,-56.54,40.93,173.4,0,229.94,-0.15
nw_cut_3_0_1f_opt_disp_struct_6.xyz,Nucleus 15C :,4.324024,-4.225629,1.187777,69.71,173.18,55.3,-19.35,239.44,271.76,266.0,-66.63,-216.24,-285.2,-19.35,55.3,173.18,0,192.53,-0.22
nw_cut_3_0_1f_opt_disp_struct_6.xyz,Nucleus 19C :,3.071346,-5.16182,2.707308,163.5,191.15,156.7,142.64,259.43,232.57,239.97,-67.24,-82.59,-91.65,142.64,156.7,191.15,0,48.51,-0.42
nw_cut_3_0_1f_opt_disp_struct_6.xyz,Nucleus 22C :,2.952634,-5.998702,3.594116,4.18,-90.07,93.92,8.7,193.82,251.85,270.03,-99.99,-343.2,-259.97,-90.07,8.7,93.92,0,183.99,0.07
nw_cut_3_0_1f_opt_disp_struct_6.xyz,Nucleus 5N :,2.173082,-4.148844,2.564564,117.31,54.83,169.35,127.75,299.25,336.06,330.15,-130.53,-208.12,-274.87,54.83,127.75,169.35,0,114.52,0.27
nw_cut_3_0_1f_opt_disp_struct_6.xyz,Nucleus 24N :,2.182853,-3.623017,1.715082,145.1,43.85,245.05,146.39,295.2,326.5,342.22,-284.7,-87.88,-156.05,43.85,146.39,245.05,0,201.2,0.02
nw_cut_3_0_1f_opt_disp_struct_6.xyz,Nucleus 23O :,1.317488,-4.239612,3.076628,-104.45,319.45,-231.08,-401.73,333.9,380.62,427.25,-15.04,-613.19,-826.91,-401.73,-231.08,319.45,0,721.18,-0.53
nw_cut_3_0_1f_opt_disp_struct_6.xyz,Nucleus 10F :,3.961395,-5.949656,0.951052,301.35,396.88,221.81,285.36,486.28,459.4,466.87,-70.1,-238.05,-200.35,221.81,285.36,396.88,0,175.07,-0.27
nw_cut_3_0_1f_opt_disp_struct_7.xyz,Nucleus 1H :,0.979332,-0.028792,-1.304036,29.14,35.2,23.5,28.72,40.95,26.39,29.06,-6.89,0.31,-2.4,23.5,28.72,35.2,0,11.7,-0.11
nw_cut_3_0_1f_opt_disp_struct_7.xyz,Nucleus 2H :,1.768432,0.613439,-1.703564,28.76,34.63,24.01,27.64,45.63,25.64,27.01,-11.89,1.59,-1.7,24.01,27.64,34.63,0,10.62,-0.32
nw_cut_3_0_1f_opt_disp_struct_7.xyz,Nucleus 6H :,1.194778,-1.057743,-1.611738,23.96,16.25,24.8,30.82,49.72,14.46,29.67,-19.35,2.08,-4.71,16.25,24.8,30.82,0,14.57,0.17
nw_cut_3_0_1f_opt_disp_struct_7.xyz,Nucleus 12H :,0.894284,0.096199,0.174476,24.35,20.72,24.71,27.62,47.96,18.53,31.69,-23.33,2.39,-4.17,20.72,24.71,27.62,0,6.9,0.16
nw_cut_3_0_1f_opt_disp_struct_7.xyz,Nucleus 14H :,1.668507,0.916225,0.972095,23.93,20.2,26.77,24.82,5.9,33.28,43.78,14.37,-6.52,-19.02,20.2,24.82,26.77,0,6.57,0.41
nw_cut_3_0_1f_opt_disp_struct_7.xyz,Nucleus 16H :,1.280536,0.74489,2.273389,24.21,19.8,27.78,25.04,10.15,31.57,48.35,-23.43,9.78,-3.79,19.8,25.04,27.78,0,7.98,0.31
nw_cut_3_0_1f_opt_disp_struct_7.xyz,Nucleus 17H :,1.694874,1.197222,3.069312,24.3,20.79,25.3,26.81,44.68,28.43,31.23,-19.35,-7.46,-4.63,20.79,25.3,26.81,0,6.02,0.5
nw_cut_3_0_1f_opt_disp_struct_7.xyz,Nucleus 18H :,0.25926,-0.172935,2.348578,28.68,34.96,27.33,23.76,41.94,27.14,32.05,-0.38,-9.3,-5.42,23.76,27.33,34.96,0,11.2,-0.36
nw_cut_3_0_1f_opt_disp_struct_7.xyz,Nucleus 20H :,-0.008141,-0.596968,1.044476,29.83,35.19,27.84,26.46,39.15,17.19,7.9,-4.25,10.5,19.01,26.46,27.84,35.19,0,8.73,-0.68
nw_cut_3_0_1f_opt_disp_struct_7.xyz,Nucleus 21H :,-1.031453,-1.547241,0.857845,30.17,25.53,31.29,33.7,23.62,40.82,33.69,-8.05,-1.92,2.36,25.53,31.29,33.7,0,8.17,0.41
nw_cut_3_0_1f_opt_disp_struct_7.xyz,Nucleus 25H :,-1.337246,-1.990907,-0.370503,27.76,35.32,21.78,26.18,31.62,44.39,50.08,-1.93,-22.32,-18.56,21.78,26.18,35.32,0,13.54,-0.35
nw_cut_3_0_1f_opt_disp_struct_7.xyz,Nucleus 26H :,-1.744451,-2.043297,1.950498,27.84,35.26,23.1,25.15,40.88,34.53,31.12,-1.12,-12.35,-9.55,23.1,25.15,35.26,0,12.16,-0.66
nw_cut_3_0_1f_opt_disp_struct_7.xyz,Nucleus 27H :,-2.520057,-2.779802,1.771363,29.68,34.2,27.8,27.04,38.03,14.99,21.42,13.61,6.05,-5.06,27.04,27.8,34.2,0,7.16,-0.79
nw_cut_3_0_1f_opt_disp_struct_7.xyz,Nucleus 0C :,-1.451464,-1.600948,3.238023,170.66,186.48,160.61,164.89,257.56,238.11,237.64,-78.22,-75.27,-67.85,160.61,164.89,186.48,0,25.87,-0.67
nw_cut_3_0_1f_opt_disp_struct_7.xyz,Nucleus 3C :,-2.008519,-1.996295,4.08035,62.56,149.24,53.37,-14.93,240.73,273.58,263.56,-91.52,-220.15,-278.51,-14.93,53.37,149.24,0,164.17,-0.17
nw_cut_3_0_1f_opt_disp_struct_7.xyz,Nucleus 4C :,-0.443667,-0.655863,3.46124,56.65,-28.2,127.99,70.16,274.24,258.7,257.93,-293.03,-130.59,-197.31,-28.2,70.16,127.99,0,156.19,0.26
nw_cut_3_0_1f_opt_disp_struct_7.xyz,Nucleus 7C :,-0.205862,-0.325668,4.466364,38.12,136.77,-39.4,17.0,272.62,266.73,264.58,-129.2,-311.97,-248.4,-39.4,17.0,136.77,0,176.17,-0.36
nw_cut_3_0_1f_opt_disp_struct_7.xyz,Nucleus 8C :,2.458218,1.600311,0.699262,60.84,162.81,22.84,-3.12,235.29,270.23,264.33,-72.81,-243.53,-270.99,-3.12,22.84,162.81,0,165.93,-0.69
nw_cut_3_0_1f_opt_disp_struct_7.xyz,Nucleus 9C :,0.037036,0.254181,-1.785377,12.25,-65.63,74.82,27.57,234.91,266.3,269.55,-160.14,-238.72,-335.14,-65.63,27.57,74.82,0,140.45,0.33
nw_cut_3_0_1f_opt_disp_struct_7.xyz,Nucleus 11C :,4.352076,-5.366705,1.725551,69.94,165.44,-15.52,59.89,238.36,263.56,274.15,-73.29,-281.71,-211.27,-15.52,59.89,165.44,0,180.96,-0.17
nw_cut_3_0_1f_opt_disp_struct_7.xyz,Nucleus 13C :,5.281831,-5.655666,2.219494,52.54,173.28,40.98,-56.65,218.46,254.53,274.53,-45.25,-233.27,-311.38,-56.65,40.98,173.28,0,229.93,-0.15
nw_cut_3_0_1f_opt_disp_struct_7.xyz,Nucleus 15C :,4.490964,-4.40994,1.213477,69.86,173.06,55.67,-19.15,239.58,271.57,265.73,-66.86,-215.68,-284.76,-19.15,55.67,173.06,0,192.21,-0.22
nw_cut_3_0_1f_opt_disp_struct_7.xyz,Nucleus 19C :,3.238285,-5.346131,2.733008,163.46,191.13,156.57,142.67,259.81,232.13,239.58,-67.58,-82.32,-91.26,142.67,156.57,191.13,0,48.46,-0.43
nw_cut_3_0_1f_opt_disp_struct_7.xyz,Nucleus 22C :,3.119574,-6.183013,3.619815,4.16,-90.3,93.94,8.85,193.0,251.9,270.02,-99.15,-343.41,-259.87,-90.3,8.85,93.94,0,184.24,0.08
nw_cut_3_0_1f_opt_disp_struct_7.xyz,Nucleus 5N :,2.340022,-4.333156,2.590263,117.48,55.13,169.3,128.02,299.3,336.05,330.08,-130.55,-207.87,-274.56,55.13,128.02,169.3,0,114.17,0.28
nw_cut_3_0_1f_opt_disp_struct_7.xyz,Nucleus 24N :,2.349793,-3.807328,1.740782,145.17,44.37,244.83,146.3,295.56,327.12,342.09,-284.61,-87.63,-157.04,44.37,146.3,244.83,0,200.46,0.02
nw_cut_3_0_1f_opt_disp_struct_7.xyz,Nucleus 23O :,1.484428,-4.423924,3.102328,-104.97,319.44,-231.67,-402.67,332.75,380.57,427.36,-13.86,-613.79,-827.93,-402.67,-231.67,319.44,0,722.11,-0.53
nw_cut_3_0_1f_opt_disp_struct_7.xyz,Nucleus 10F :,4.128334,-6.133967,0.976752,301.42,396.87,221.9,285.48,486.34,459.52,466.83,-70.05,-238.01,-200.38,221.9,285.48,396.87,0,174.97,-0.27
nw_cut_3_0_1f_opt_disp_struct_8.xyz,Nucleus 1H :,0.979332,-0.028792,-1.304036,29.15,35.2,23.5,28.74,40.91,26.39,29.08,-6.85,0.3,-2.4,23.5,28.74,35.2,0,11.7,-0.11
nw_cut_3_0_1f_opt_disp_struct_8.xyz,Nucleus 2H :,1.768432,0.613439,-1.703564,28.76,24.0,27.63,34.65,45.59,25.63,26.98,-11.82,1.64,-1.74,24.0,27.63,34.65,0,10.65,-0.32
nw_cut_3_0_1f_opt_disp_struct_8.xyz,Nucleus 6H :,1.194778,-1.057743,-1.611738,23.97,16.25,24.82,30.84,49.66,14.47,29.72,-19.27,2.05,-4.73,16.25,24.82,30.84,0,14.59,0.17
nw_cut_3_0_1f_opt_disp_struct_8.xyz,Nucleus 12H :,0.894284,0.096199,0.174476,24.35,20.7,24.71,27.65,47.83,18.47,31.63,-23.19,2.4,-4.08,20.7,24.71,27.65,0,6.95,0.16
nw_cut_3_0_1f_opt_disp_struct_8.xyz,Nucleus 14H :,1.668507,0.916225,0.972095,23.93,20.18,26.81,24.81,5.86,33.2,43.78,14.38,-6.41,-19.02,20.18,24.81,26.81,0,6.63,0.4
nw_cut_3_0_1f_opt_disp_struct_8.xyz,Nucleus 16H :,1.280536,0.74489,2.273389,24.22,19.8,27.81,25.05,10.18,31.61,48.22,-23.28,9.72,-3.8,19.8,25.05,27.81,0,8.01,0.31
nw_cut_3_0_1f_opt_disp_struct_8.xyz,Nucleus 17H :,1.694874,1.197222,3.069312,24.31,20.8,25.3,26.83,44.67,28.44,31.23,-19.32,-7.47,-4.61,20.8,25.3,26.83,0,6.03,0.49
nw_cut_3_0_1f_opt_disp_struct_8.xyz,Nucleus 18H :,0.25926,-0.172935,2.348578,28.69,34.95,27.34,23.77,41.93,27.12,32.04,-0.34,-9.3,-5.39,23.77,27.34,34.95,0,11.18,-0.36
nw_cut_3_0_1f_opt_disp_struct_8.xyz,Nucleus 20H :,-0.008141,-0.596968,1.044476,29.8,35.11,27.85,26.45,39.04,17.0,7.2,-4.24,10.7,19.72,26.45,27.85,35.11,0,8.66,-0.68
nw_cut_3_0_1f_opt_disp_struct_8.xyz,Nucleus 21H :,-1.031453,-1.547241,0.857845,30.14,25.57,31.14,33.71,41.14,33.43,23.47,-8.39,-1.77,2.56,25.57,31.14,33.71,0,8.14,0.37
nw_cut_3_0_1f_opt_disp_struct_8.xyz,Nucleus 25H :,-1.337246,-1.990907,-0.370503,27.63,34.82,21.87,26.2,31.79,45.57,49.94,-2.16,-23.49,-18.75,21.87,26.2,34.82,0,12.95,-0.33
nw_cut_3_0_1f_opt_disp_struct_8.xyz,Nucleus 26H :,-1.744451,-2.043297,1.950498,27.73,35.07,23.19,24.92,41.52,34.52,31.79,-1.52,-12.72,-10.4,23.19,24.92,35.07,0,11.88,-0.71
nw_cut_3_0_1f_opt_disp_struct_8.xyz,Nucleus 27H :,-2.520057,-2.779802,1.771363,29.66,34.17,27.75,27.05,38.02,14.37,21.28,14.24,6.2,-5.13,27.05,27.75,34.17,0,7.12,-0.8
nw_cut_3_0_1f_opt_disp_struct_8.xyz,Nucleus 0C :,-1.451464,-1.600948,3.238023,170.66,186.49,160.62,164.86,257.52,238.08,237.58,-78.15,-75.24,-67.8,160.62,164.86,186.49,0,25.87,-0.67
nw_cut_3_0_1f_opt_disp_struct_8.xyz,Nucleus 3C :,-2.008519,-1.996295,4.08035,62.51,149.21,53.32,-14.99,240.61,273.35,263.51,-91.43,-219.97,-278.53,-14.99,53.32,149.21,0,164.2,-0.17
nw_cut_3_0_1f_opt_disp_struct_8.xyz,Nucleus 4C :,-0.443667,-0.655863,3.46124,56.73,-28.1,127.96,70.33,274.12,258.63,258.07,-292.93,-130.66,-197.05,-28.1,70.33,127.96,0,156.06,0.26
nw_cut_3_0_1f_opt_disp_struct_8.xyz,Nucleus 7C :,-0.205862,-0.325668,4.466364,38.13,136.7,-39.38,17.08,272.29,266.54,264.58,-129.11,-311.63,-248.27,-39.38,17.08,136.7,0,176.08,-0.36
nw_cut_3_0_1f_opt_disp_struct_8.xyz,Nucleus 8C :,2.458218,1.600311,0.699262,60.78,162.73,22.77,-3.16,235.26,269.78,264.35,-72.84,-243.45,-270.74,-3.16,22.77,162.73,0,165.89,-0.69
nw_cut_3_0_1f_opt_disp_struct_8.xyz,Nucleus 9C :,0.037036,0.254181,-1.785377,12.2,-65.71,74.73,27.57,234.72,266.14,269.14,-160.01,-238.58,-334.81,-65.71,27.57,74.73,0,140.44,0.33
nw_cut_3_0_1f_opt_disp_struct_8.xyz,Nucleus 11C :,4.519015,-5.551016,1.75125,69.93,165.34,-15.52,59.96,238.37,263.49,273.75,-73.32,-281.45,-211.06,-15.52,59.96,165.34,0,180.86,-0.17
nw_cut_3_0_1f_opt_disp_struct_8.xyz,Nucleus 13C :,5.448771,-5.839978,2.245194,52.5,173.18,41.03,-56.72,218.44,254.59,274.18,-45.33,-232.9,-311.49,-56.72,41.03,173.18,0,229.9,-0.15
nw_cut_3_0_1f_opt_disp_struct_8.xyz,Nucleus 15C :,4.657903,-4.594252,1.239176,69.97,172.96,55.95,-18.99,239.67,271.42,265.48,-67.03,-215.22,-284.41,-18.99,55.95,172.96,0,191.95,-0.22
nw_cut_3_0_1f_opt_disp_struct_8.xyz,Nucleus 19C :,3.405225,-5.530443,2.758707,163.42,191.11,156.45,142.69,260.18,231.67,239.21,-67.9,-82.05,-90.86,142.69,156.45,191.11,0,48.42,-0.43
nw_cut_3_0_1f_opt_disp_struct_8.xyz,Nucleus 22C :,3.286514,-6.367325,3.645514,4.14,-90.5,93.96,8.96,192.19,251.95,270.05,-98.34,-343.58,-259.85,-90.5,8.96,93.96,0,184.46,0.08
nw_cut_3_0_1f_opt_disp_struct_8.xyz,Nucleus 5N :,2.506961,-4.517467,2.615963,117.62,55.38,169.24,128.24,299.32,336.03,330.01,-130.55,-207.65,-274.3,55.38,128.24,169.24,0,113.86,0.28
nw_cut_3_0_1f_opt_disp_struct_8.xyz,Nucleus 24N :,2.516733,-3.99164,1.766481,145.22,44.75,244.64,146.26,295.85,327.67,342.04,-284.6,-87.41,-157.89,44.75,146.26,244.64,0,199.89,0.02
nw_cut_3_0_1f_opt_disp_struct_8.xyz,Nucleus 23O :,1.651367,-4.608235,3.128027,-105.37,319.45,-232.13,-403.43,331.76,380.5,427.45,-12.82,-614.24,-828.76,-403.43,-232.13,319.45,0,722.88,-0.53
nw_cut_3_0_1f_opt_disp_struct_8.xyz,Nucleus 10F :,4.295274,-6.318279,1.002451,301.46,396.85,221.95,285.57,486.37,459.6,466.79,-70.02,-237.98,-200.39,221.95,285.57,396.85,0,174.9,-0.27
nw_cut_3_0_1f_opt_disp_struct_9.xyz,Nucleus 1H :,0.979332,-0.028792,-1.304036,29.15,35.19,23.51,28.76,40.88,26.39,29.11,-6.81,0.29,-2.41,23.51,28.76,35.19,0,11.68,-0.1
nw_cut_3_0_1f_opt_disp_struct_9.xyz,Nucleus 2H :,1.768432,0.613439,-1.703564,28.76,23.99,27.62,34.67,45.54,25.61,26.96,-11.76,1.69,-1.76,23.99,27.62,34.67,0,10.68,-0.32
nw_cut_3_0_1f_opt_disp_struct_9.xyz,Nucleus 6H :,1.194778,-1.057743,-1.611738,23.98,16.25,24.84,30.84,49.61,14.47,29.76,-19.19,2.03,-4.75,16.25,24.84,30.84,0,14.59,0.18
nw_cut_3_0_1f_opt_disp_struct_9.xyz,Nucleus 12H :,0.894284,0.096199,0.174476,24.36,20.69,24.71,27.67,47.71,18.41,31.58,-23.05,2.42,-4.01,20.69,24.71,27.67,0,6.98,0.15
nw_cut_3_0_1f_opt_disp_struct_9.xyz,Nucleus 14H :,1.668507,0.916225,0.972095,23.93,20.16,26.84,24.8,5.82,33.11,43.77,14.4,-6.29,-19.01,20.16,24.8,26.84,0,6.68,0.39
nw_cut_3_0_1f_opt_disp_struct_9.xyz,Nucleus 16H :,1.280536,0.74489,2.273389,24.23,19.79,27.84,25.05,10.21,31.64,48.1,9.69,-3.8,-23.14,19.79,25.05,27.84,0,8.05,0.31
nw_cut_3_0_1f_opt_disp_struct_9.xyz,Nucleus 17H :,1.694874,1.197222,3.069312,24.31,20.8,25.3,26.84,44.65,28.44,31.23,-19.3,-7.49,-4.59,20.8,25.3,26.84,0,6.04,0.49
nw_cut_3_0_1f_opt_disp_struct_9.xyz,Nucleus 18H :,0.25926,-0.172935,2.348578,28.68,34.94,27.34,23.77,41.92,27.09,32.03,-0.31,-9.31,-5.37,23.77,27.34,34.94,0,11.17,-0.36
nw_cut_3_0_1f_opt_disp_struct_9.xyz,Nucleus 20H :,-0.008141,-0.596968,1.044476,29.78,35.05,27.85,26.44,38.94,16.79,6.5,-4.23,10.91,20.43,26.44,27.85,35.05,0,8.61,-0.67
nw_cut_3_0_1f_opt_disp_struct_9.xyz,Nucleus 21H :,-1.031453,-1.547241,0.857845,30.11,25.6,31.01,33.72,41.44,33.18,23.27,-8.73,-1.63,2.8,25.6,31.01,33.72,0,8.12,0.33
nw_cut_3_0_1f_opt_disp_struct_9.xyz,Nucleus 25H :,-1.337246,-1.990907,-0.370503,27.52,34.4,21.95,26.22,31.89,46.59,49.94,-2.33,-24.57,-18.95,21.95,26.22,34.4,0,12.45,-0.31
nw_cut_3_0_1f_opt_disp_struct_9.xyz,Nucleus 26H :,-1.744451,-2.043297,1.950498,27.63,34.93,23.26,24.7,42.09,34.91,32.1,-1.83,-13.15,-11.22,23.26,24.7,34.93,0,11.67,-0.75
nw_cut_3_0_1f_opt_disp_struct_9.xyz,Nucleus 27H :,-2.520057,-2.779802,1.771363,29.64,34.14,27.71,27.07,38.01,13.75,21.14,14.87,6.35,-5.2,27.07,27.71,34.14,0,7.07,-0.82
nw_cut_3_0_1f_opt_disp_struct_9.xyz,Nucleus 0C :,-1.451464,-1.600948,3.238023,170.66,186.51,160.63,164.85,257.48,238.06,237.53,-78.1,-75.22,-67.76,160.63,164.85,186.51,0,25.88,-0.67
nw_cut_3_0_1f_opt_disp_struct_9.xyz,Nucleus 3C :,-2.008519,-1.996295,4.08035,62.48,149.2,53.28,-15.03,240.53,273.18,263.47,-91.37,-219.82,-278.54,-15.03,53.28,149.2,0,164.23,-0.17
nw_cut_3_0_1f_opt_disp_struct_9.xyz,Nucleus 4C :,-0.443667,-0.655863,3.46124,56.79,-28.02,127.91,70.47,274.04,258.6,258.14,-292.86,-130.74,-196.82,-28.02,70.47,127.91,0,155.93,0.26
nw_cut_3_0_1f_opt_disp_struct_9.xyz,Nucleus 7C :,-0.205862,-0.325668,4.466364,38.13,136.62,-39.37,17.15,271.98,266.43,264.54,-129.06,-311.31,-248.18,-39.37,17.15,136.62,0,175.99,-0.36
nw_cut_3_0_1f_opt_disp_struct_9.xyz,Nucleus 8C :,2.458218,1.600311,0.699262,60.75,162.69,22.74,-3.17,235.25,269.31,264.39,-72.85,-243.36,-270.49,-3.17,22.74,162.69,0,165.86,-0.69
nw_cut_3_0_1f_opt_disp_struct_9.xyz,Nucleus 9C :,0.037036,0.254181,-1.785377,12.16,-65.77,74.67,27.58,234.54,266.02,268.77,-159.89,-238.47,-334.49,-65.77,27.58,74.67,0,140.44,0.33
nw_cut_3_0_1f_opt_disp_struct_9.xyz,Nucleus 11C :,4.685955,-5.735328,1.77695,69.92,165.25,-15.51,60.02,238.35,263.42,273.44,-73.35,-281.22,-210.89,-15.51,60.02,165.25,0,180.76,-0.16
nw_cut_3_0_1f_opt_disp_struct_9.xyz,Nucleus 13C :,5.61571,-6.024289,2.270893,52.47,173.08,41.08,-56.76,218.4,254.63,273.88,-45.38,-232.57,-311.56,-56.76,41.08,173.08,0,229.84,-0.15
nw_cut_3_0_1f_opt_disp_struct_9.xyz,Nucleus 15C :,4.824843,-4.778563,1.264875,70.05,172.85,56.17,-18.87,239.72,271.34,265.26,-67.17,-214.87,-284.12,-18.87,56.17,172.85,0,191.72,-0.22
nw_cut_3_0_1f_opt_disp_struct_9.xyz,Nucleus 19C :,3.572165,-5.714754,2.784406,163.38,191.09,156.34,142.72,260.53,231.16,238.82,-68.18,-81.76,-90.41,142.72,156.34,191.09,0,48.37,-0.44
nw_cut_3_0_1f_opt_disp_struct_9.xyz,Nucleus 22C :,3.453453,-6.551636,3.671214,4.12,-90.69,93.98,9.07,191.38,251.98,270.1,-97.51,-343.73,-259.85,-90.69,9.07,93.98,0,184.67,0.08
nw_cut_3_0_1f_opt_disp_struct_9.xyz,Nucleus 5N :,2.673901,-4.701779,2.641662,117.71,55.54,169.17,128.41,299.32,336.01,329.93,-130.55,-207.46,-274.12,55.54,128.41,169.17,0,113.63,0.28
nw_cut_3_0_1f_opt_disp_struct_9.xyz,Nucleus 24N :,2.683672,-4.175951,1.79218,145.28,45.11,244.47,146.26,296.14,328.15,342.04,-284.57,-87.21,-158.72,45.11,146.26,244.47,0,199.36,0.01
nw_cut_3_0_1f_opt_disp_struct_9.xyz,Nucleus 23O :,1.818307,-4.792546,3.153726,-105.79,319.39,-232.56,-404.19,331.0,380.42,427.51,-12.1,-614.64,-829.56,-404.19,-232.56,319.39,0,723.58,-0.53
nw_cut_3_0_1f_opt_disp_struct_9.xyz,Nucleus 10F :,4.462214,-6.50259,1.02815,301.52,396.86,221.99,285.7,486.38,459.66,466.75,-69.95,-237.97,-200.32,221.99,285.7,396.86,0,174.87,-0.27
nw_cut_3_0_2f_opt.xyz,Nucleus 1H :,0.981603,-0.028498,-1.314615,29.08,35.34,23.38,28.53,41.09,25.52,28.31,-6.86,1.39,-2.19,23.38,28.53,35.34,0,11.96,-0.14
nw_cut_3_0_2f_opt.xyz,Nucleus 2H :,1.771506,0.614618,-1.710604,28.72,34.49,23.94,27.74,45.5,24.25,27.37,-12.07,1.76,-0.64,23.94,27.74,34.49,0,10.55,-0.28
nw_cut_3_0_2f_opt.xyz,Nucleus 6H :,1.197844,-1.056865,-1.623284,23.53,15.27,24.85,30.48,10.05,29.81,49.08,-19.1,5.59,-4.83,15.27,24.85,30.48,0,15.21,0.26
nw_cut_3_0_2f_opt.xyz,Nucleus 12H :,0.894234,0.094003,0.16423,24.29,20.52,24.94,27.41,47.61,20.27,30.38,-23.02,0.74,-3.11,20.52,24.94,27.41,0,6.89,0.28
nw_cut_3_0_2f_opt.xyz,Nucleus 14H :,1.667686,0.911859,0.966454,24.2,20.5,26.88,25.21,6.71,34.03,43.61,14.08,-7.29,-18.56,20.5,25.21,26.88,0,6.38,0.47
nw_cut_3_0_2f_opt.xyz,Nucleus 17H :,1.277211,0.738478,2.267366,24.16,20.51,25.42,26.54,44.26,26.77,30.51,-18.8,-6.07,-4.2,20.51,25.42,26.54,0,6.03,0.63
nw_cut_3_0_2f_opt.xyz,Nucleus 18H :,1.685069,1.185094,3.070334,28.68,35.17,27.26,23.61,41.85,26.91,32.11,-0.14,-9.35,-5.34,23.61,27.26,35.17,0,11.56,-0.37
nw_cut_3_0_2f_opt.xyz,Nucleus 20H :,0.256546,-0.17788,2.332857,30.25,36.25,27.89,26.61,40.9,18.73,13.35,-4.78,9.06,13.5,26.61,27.89,36.25,0,9.64,-0.73
nw_cut_3_0_2f_opt.xyz,Nucleus 21H :,-0.010903,-0.601015,1.029406,30.73,25.17,32.3,34.72,22.95,36.48,38.94,-6.04,-3.02,2.89,25.17,32.3,34.72,0,9.55,0.49
nw_cut_3_0_2f_opt.xyz,Nucleus 25H :,-1.036476,-1.551442,0.843313,27.63,44.68,15.72,22.5,56.91,24.77,26.86,5.27,-10.58,-20.33,15.72,22.5,44.68,0,28.96,-0.53
nw_cut_3_0_2f_opt.xyz,Nucleus 26H :,-1.341668,-1.994243,-0.384979,27.31,42.56,22.85,16.52,46.48,32.23,25.61,-0.48,-11.92,-10.0,16.52,22.85,42.56,0,26.04,-0.51
nw_cut_3_0_2f_opt.xyz,Nucleus 27H :,-1.752241,-2.048385,1.937243,30.04,34.67,28.49,26.95,38.24,20.92,22.7,-4.33,4.71,7.88,26.95,28.49,34.67,0,7.72,-0.6
nw_cut_3_0_2f_opt.xyz,Nucleus 0C :,-2.531144,-2.781879,1.763549,171.15,186.8,160.57,166.08,258.48,236.57,238.2,-67.71,-74.02,-78.09,160.57,166.08,186.8,0,26.23,-0.58
nw_cut_3_0_2f_opt.xyz,Nucleus 3C :,-1.459434,-1.606716,3.225493,62.23,148.4,52.45,-14.15,242.68,274.34,264.39,-94.37,-221.74,-278.59,-14.15,52.45,148.4,0,162.55,-0.18
nw_cut_3_0_2f_opt.xyz,Nucleus 4C :,-2.00573,-1.984855,4.082642,54.44,-29.76,127.91,65.16,275.09,256.31,258.81,-294.78,-130.17,-201.96,-29.76,65.16,127.91,0,157.67,0.2
nw_cut_3_0_2f_opt.xyz,Nucleus 7C :,-0.451567,-0.665956,3.432975,47.78,139.03,-11.14,15.46,274.3,261.66,267.12,-123.32,-285.13,-251.28,-11.14,15.46,139.03,0,150.17,-0.65
nw_cut_3_0_2f_opt.xyz,Nucleus 8C :,-0.173096,-0.241849,4.672149,56.55,159.98,18.19,-8.51,233.55,261.82,266.87,-74.11,-243.24,-275.22,-8.51,18.19,159.98,0,168.49,-0.68
nw_cut_3_0_2f_opt.xyz,Nucleus 9C :,2.458655,1.596247,0.698537,15.42,-63.21,77.63,31.83,238.43,264.58,270.59,-333.59,-161.28,-232.48,-63.21,31.83,77.63,0,140.84,0.35
nw_cut_3_0_2f_opt.xyz,Nucleus 11C :,0.040184,0.255565,-1.796704,66.01,163.24,-20.3,55.1,242.48,260.98,275.88,-80.35,-286.89,-214.06,-20.3,55.1,163.24,0,183.54,-0.18
nw_cut_3_0_2f_opt.xyz,Nucleus 13C :,3.023415,-3.885462,1.524279,65.72,165.55,49.51,-17.9,229.25,257.26,281.09,-64.31,-228.13,-278.01,-17.9,49.51,165.55,0,183.45,-0.27
nw_cut_3_0_2f_opt.xyz,Nucleus 15C :,3.946178,-4.209451,2.008936,22.29,84.15,30.38,-47.67,233.81,272.41,263.45,-149.71,-239.37,-313.72,-47.67,30.38,84.15,0,131.82,0.18
nw_cut_3_0_2f_opt.xyz,Nucleus 19C :,3.183241,-2.91807,1.038824,163.87,191.58,158.45,141.58,257.56,235.01,243.45,-65.12,-84.67,-94.61,141.58,158.45,191.58,0,50.0,-0.33
nw_cut_3_0_2f_opt.xyz,Nucleus 22C :,1.909692,-3.866007,2.531833,3.69,-87.11,94.25,3.94,201.68,251.17,270.44,-107.48,-340.59,-264.13,-87.11,3.94,94.25,0,181.36,0.0
nw_cut_3_0_2f_opt.xyz,Nucleus 5N :,1.792826,-4.702069,3.419658,118.55,47.04,184.73,123.89,293.82,337.41,329.54,-109.71,-212.94,-282.47,47.04,123.89,184.73,0,137.69,0.12
nw_cut_3_0_2f_opt.xyz,Nucleus 24N :,1.009296,-2.855085,2.38797,136.5,14.92,231.42,163.17,293.51,330.76,346.8,-314.16,-111.92,-135.49,14.92,163.17,231.42,0,216.5,0.37
nw_cut_3_0_2f_opt.xyz,Nucleus 23O :,0.997022,-2.370534,1.512886,-96.96,321.54,-221.54,-390.88,343.85,382.35,426.93,-23.21,-604.97,-815.83,-390.88,-221.54,321.54,0,712.42,-0.52
nw_cut_3_0_2f_opt.xyz,Nucleus 10F :,0.139397,-2.98752,2.868426,303.57,402.8,219.53,288.39,483.1,457.61,467.74,-64.19,-239.27,-194.26,219.53,288.39,402.8,0,183.27,-0.25
nw_cut_3_0_2f_opt.xyz,Nucleus 16F :,2.780675,-4.625484,0.753998,315.24,413.55,236.51,295.66,457.66,474.21,482.56,-60.08,-221.81,-186.83,236.51,295.66,413.55,0,177.04,-0.33
nw_cut_3_0_2f_opt_disp_struct_0.xyz,Nucleus 1H :,0.981603,-0.028498,-1.314615,29.09,35.34,23.41,28.53,41.17,25.71,28.62,-6.96,0.99,-2.25,23.41,28.53,35.34,0,11.93,-0.14
nw_cut_3_0_2f_opt_disp_struct_0.xyz,Nucleus 2H :,1.771506,0.614618,-1.710604,28.74,34.51,23.95,27.77,45.69,24.85,27.3,-12.15,1.42,-0.88,23.95,27.77,34.51,0,10.56,-0.28
nw_cut_3_0_2f_opt_disp_struct_0.xyz,Nucleus 6H :,1.197844,-1.056865,-1.623284,23.6,15.33,24.96,30.51,49.52,10.3,29.77,-19.5,5.41,-4.71,15.33,24.96,30.51,0,15.18,0.27
nw_cut_3_0_2f_opt_disp_struct_0.xyz,Nucleus 12H :,0.894234,0.094003,0.16423,24.37,20.58,25.16,27.37,47.82,20.07,30.62,-23.0,1.01,-3.4,20.58,25.16,27.37,0,6.79,0.35
nw_cut_3_0_2f_opt_disp_struct_0.xyz,Nucleus 14H :,1.667686,0.911859,0.966454,24.25,20.55,26.85,25.34,6.83,33.55,43.87,14.0,-6.84,-18.67,20.55,25.34,26.85,0,6.3,0.52
nw_cut_3_0_2f_opt_disp_struct_0.xyz,Nucleus 17H :,1.277211,0.738478,2.267366,24.18,20.55,25.44,26.55,44.43,26.89,30.88,-18.95,-6.15,-4.56,20.55,25.44,26.55,0,6.0,0.63
nw_cut_3_0_2f_opt_disp_struct_0.xyz,Nucleus 18H :,1.685069,1.185094,3.070334,28.69,35.16,27.26,23.64,41.92,27.17,32.17,-0.41,-9.29,-5.51,23.64,27.26,35.16,0,11.52,-0.37
nw_cut_3_0_2f_opt_disp_struct_0.xyz,Nucleus 20H :,0.256546,-0.17788,2.332857,30.14,36.06,27.84,26.53,40.6,18.46,12.61,-4.68,9.25,14.19,26.53,27.84,36.06,0,9.53,-0.72
nw_cut_3_0_2f_opt_disp_struct_0.xyz,Nucleus 21H :,-0.010903,-0.601015,1.029406,30.59,25.16,32.33,34.28,23.53,36.12,38.94,-6.2,-2.91,2.28,25.16,32.33,34.28,0,9.12,0.57
nw_cut_3_0_2f_opt_disp_struct_0.xyz,Nucleus 25H :,-1.036476,-1.551442,0.843313,28.51,42.62,18.44,24.47,55.1,28.15,31.57,2.27,-12.5,-19.07,18.44,24.47,42.62,0,24.18,-0.5
nw_cut_3_0_2f_opt_disp_struct_0.xyz,Nucleus 26H :,-1.341668,-1.994243,-0.384979,28.26,40.3,25.01,19.47,42.82,34.71,24.36,0.89,-7.58,-10.42,19.47,25.01,40.3,0,20.83,-0.47
nw_cut_3_0_2f_opt_disp_struct_0.xyz,Nucleus 27H :,-1.752241,-2.048385,1.937243,29.95,34.56,28.38,26.91,38.25,20.2,22.51,-4.52,4.86,8.55,26.91,28.38,34.56,0,7.65,-0.62
nw_cut_3_0_2f_opt_disp_struct_0.xyz,Nucleus 0C :,-2.531144,-2.781879,1.763549,171.14,186.75,160.6,166.06,258.49,237.05,238.17,-78.42,-74.33,-67.55,160.6,166.06,186.75,0,26.15,-0.58
nw_cut_3_0_2f_opt_disp_struct_0.xyz,Nucleus 3C :,-1.459434,-1.606716,3.225493,62.46,148.53,53.03,-14.17,242.53,275.08,264.49,-94.07,-222.0,-278.64,-14.17,53.03,148.53,0,162.7,-0.17
nw_cut_3_0_2f_opt_disp_struct_0.xyz,Nucleus 4C :,-2.00573,-1.984855,4.082642,54.49,-29.79,127.81,65.44,275.21,256.61,258.75,-294.74,-130.06,-202.3,-29.79,65.44,127.81,0,157.6,0.21
nw_cut_3_0_2f_opt_disp_struct_0.xyz,Nucleus 7C :,-0.451567,-0.665956,3.432975,49.64,139.09,-7.6,17.43,275.43,261.44,267.48,-123.12,-282.71,-249.58,-7.6,17.43,139.09,0,146.69,-0.66
nw_cut_3_0_2f_opt_disp_struct_0.xyz,Nucleus 8C :,-0.173096,-0.241849,4.672149,57.96,159.77,20.57,-6.47,234.36,263.21,268.42,-74.9,-242.74,-274.47,-6.47,20.57,159.77,0,166.24,-0.67
nw_cut_3_0_2f_opt_disp_struct_0.xyz,Nucleus 9C :,2.458655,1.596247,0.698537,16.69,-59.98,77.65,32.41,238.64,265.19,271.22,-330.99,-161.18,-232.81,-59.98,32.41,77.65,0,137.63,0.34
nw_cut_3_0_2f_opt_disp_struct_0.xyz,Nucleus 11C :,0.040184,0.255565,-1.796704,67.9,163.29,-17.14,57.54,240.56,261.38,275.77,-78.48,-283.66,-211.88,-17.14,57.54,163.29,0,180.43,-0.17
nw_cut_3_0_2f_opt_disp_struct_0.xyz,Nucleus 13C :,3.190153,-4.069959,1.549959,67.08,165.41,51.72,-15.88,227.38,257.98,279.29,-62.59,-224.45,-276.35,-15.88,51.72,165.41,0,181.29,-0.25
nw_cut_3_0_2f_opt_disp_struct_0.xyz,Nucleus 15C :,4.112917,-4.393948,2.034617,24.09,84.21,31.59,-43.53,233.13,271.6,263.96,-148.95,-237.49,-309.97,-43.53,31.59,84.21,0,127.74,0.18
nw_cut_3_0_2f_opt_disp_struct_0.xyz,Nucleus 19C :,3.34998,-3.102566,1.064505,163.75,191.53,157.94,141.79,257.9,235.15,242.82,-65.57,-84.41,-94.63,141.79,157.94,191.53,0,49.74,-0.35
nw_cut_3_0_2f_opt_disp_struct_0.xyz,Nucleus 22C :,2.07643,-4.050504,2.557513,3.31,-88.69,94.05,4.58,200.44,251.51,270.15,-106.46,-342.32,-263.38,-88.69,4.58,94.05,0,182.74,0.02
nw_cut_3_0_2f_opt_disp_struct_0.xyz,Nucleus 5N :,1.959564,-4.886566,3.445338,119.65,48.87,184.72,125.35,293.88,337.57,330.03,-109.98,-211.55,-281.01,48.87,125.35,184.72,0,135.85,0.13
nw_cut_3_0_2f_opt_disp_struct_0.xyz,Nucleus 24N :,1.176035,-3.039581,2.41365,141.68,29.17,239.5,156.36,293.28,328.88,344.94,-298.97,-100.7,-142.39,29.17,156.36,239.5,0,210.33,0.21
nw_cut_3_0_2f_opt_disp_struct_0.xyz,Nucleus 23O :,1.16376,-2.55503,1.538566,-102.87,319.7,-228.44,-399.86,342.27,381.68,426.75,-23.4,-611.16,-824.73,-399.86,-228.44,319.7,0,719.56,-0.52
nw_cut_3_0_2f_opt_disp_struct_0.xyz,Nucleus 10F :,0.306136,-3.172016,2.894106,305.5,403.0,223.02,290.49,483.93,458.05,467.68,-64.16,-236.2,-192.8,223.02,290.49,403.0,0,179.98,-0.25
nw_cut_3_0_2f_opt_disp_struct_0.xyz,Nucleus 16F :,2.947413,-4.80998,0.779678,318.1,413.76,242.19,298.34,458.15,472.82,483.3,-58.76,-216.34,-184.87,242.19,298.34,413.76,0,171.57,-0.35
nw_cut_3_0_2f_opt_disp_struct_1.xyz,Nucleus 1H :,0.981603,-0.028498,-1.314615,29.1,35.32,23.43,28.55,41.21,25.87,28.8,-7.03,0.73,-2.28,23.43,28.55,35.32,0,11.89,-0.14
nw_cut_3_0_2f_opt_disp_struct_1.xyz,Nucleus 2H :,1.771506,0.614618,-1.710604,28.75,34.53,23.97,27.76,45.8,25.27,27.24,-12.19,1.27,-1.11,23.97,27.76,34.53,0,10.56,-0.28
nw_cut_3_0_2f_opt_disp_struct_1.xyz,Nucleus 6H :,1.197844,-1.056865,-1.623284,23.64,15.37,25.03,30.53,49.77,10.51,29.8,-19.73,5.25,-4.65,15.37,25.03,30.53,0,15.16,0.28
nw_cut_3_0_2f_opt_disp_struct_1.xyz,Nucleus 12H :,0.894234,0.094003,0.16423,24.4,20.62,25.22,27.36,47.92,19.73,30.97,-23.01,1.37,-3.79,20.62,25.22,27.36,0,6.74,0.36
nw_cut_3_0_2f_opt_disp_struct_1.xyz,Nucleus 14H :,1.667686,0.911859,0.966454,24.27,20.6,26.85,25.36,6.68,33.39,44.04,14.17,-6.66,-18.81,20.6,25.36,26.85,0,6.25,0.52
nw_cut_3_0_2f_opt_disp_struct_1.xyz,Nucleus 17H :,1.277211,0.738478,2.267366,24.2,20.58,25.45,26.57,44.54,27.01,31.06,-19.07,-6.23,-4.72,20.58,25.45,26.57,0,5.99,0.63
nw_cut_3_0_2f_opt_disp_struct_1.xyz,Nucleus 18H :,1.685069,1.185094,3.070334,28.69,35.14,27.27,23.67,41.99,27.32,32.21,-0.56,-9.29,-5.59,23.67,27.27,35.14,0,11.47,-0.37
nw_cut_3_0_2f_opt_disp_struct_1.xyz,Nucleus 20H :,0.256546,-0.17788,2.332857,30.06,35.89,27.82,26.48,40.33,18.19,11.88,-4.59,9.48,14.9,26.48,27.82,35.89,0,9.41,-0.71
nw_cut_3_0_2f_opt_disp_struct_1.xyz,Nucleus 21H :,-0.010903,-0.601015,1.029406,30.48,25.2,32.27,33.97,23.8,35.72,39.06,-6.36,-2.79,2.01,25.2,32.27,33.97,0,8.77,0.61
nw_cut_3_0_2f_opt_disp_struct_1.xyz,Nucleus 25H :,-1.036476,-1.551442,0.843313,28.75,40.86,19.93,25.46,53.73,29.9,34.35,0.41,-13.76,-18.36,19.93,25.46,40.86,0,20.93,-0.47
nw_cut_3_0_2f_opt_disp_struct_1.xyz,Nucleus 26H :,-1.341668,-1.994243,-0.384979,28.56,38.62,25.98,21.07,40.28,36.22,24.55,1.42,-6.1,-10.7,21.07,25.98,38.62,0,17.55,-0.44
nw_cut_3_0_2f_opt_disp_struct_1.xyz,Nucleus 27H :,-1.752241,-2.048385,1.937243,29.89,34.47,28.28,26.91,38.22,19.5,22.34,-4.65,5.04,9.22,26.91,28.28,34.47,0,7.56,-0.64
nw_cut_3_0_2f_opt_disp_struct_1.xyz,Nucleus 0C :,-2.531144,-2.781879,1.763549,171.12,186.7,160.62,166.03,258.42,237.39,238.15,-78.55,-74.56,-67.5,160.62,166.03,186.7,0,26.08,-0.59
nw_cut_3_0_2f_opt_disp_struct_1.xyz,Nucleus 3C :,-1.459434,-1.606716,3.225493,62.48,148.57,53.32,-14.44,242.48,275.47,264.52,-93.96,-222.13,-278.93,-14.44,53.32,148.57,0,163.01,-0.17
nw_cut_3_0_2f_opt_disp_struct_1.xyz,Nucleus 4C :,-2.00573,-1.984855,4.082642,54.71,-29.55,127.77,65.91,275.19,256.94,258.42,-294.4,-129.88,-202.14,-29.55,65.91,127.77,0,157.32,0.21
nw_cut_3_0_2f_opt_disp_struct_1.xyz,Nucleus 7C :,-0.451567,-0.665956,3.432975,50.7,138.98,-5.53,18.64,276.17,261.12,267.66,-122.99,-281.35,-248.52,-5.53,18.64,138.98,0,144.51,-0.67
nw_cut_3_0_2f_opt_disp_struct_1.xyz,Nucleus 8C :,-0.173096,-0.241849,4.672149,58.64,159.53,21.76,-5.38,234.95,264.16,269.34,-75.69,-242.83,-274.02,-5.38,21.76,159.53,0,164.91,-0.67
nw_cut_3_0_2f_opt_disp_struct_1.xyz,Nucleus 9C :,2.458655,1.596247,0.698537,17.25,-58.6,77.49,32.85,238.64,265.95,271.51,-329.97,-161.25,-233.14,-58.6,32.85,77.49,0,136.09,0.34
nw_cut_3_0_2f_opt_disp_struct_1.xyz,Nucleus 11C :,0.040184,0.255565,-1.796704,68.97,163.13,-15.4,59.19,239.34,261.44,276.0,-77.33,-281.93,-210.6,-15.4,59.19,163.13,0,178.53,-0.16
nw_cut_3_0_2f_opt_disp_struct_1.xyz,Nucleus 13C :,3.356891,-4.254455,1.575639,67.74,165.15,53.07,-15.01,226.03,258.5,278.11,-61.52,-222.2,-275.73,-15.01,53.07,165.15,0,180.16,-0.24
nw_cut_3_0_2f_opt_disp_struct_1.xyz,Nucleus 15C :,4.279655,-4.578444,2.060297,25.18,84.11,32.62,-41.18,232.52,270.91,264.32,-148.45,-235.91,-307.84,-41.18,32.62,84.11,0,125.29,0.18
nw_cut_3_0_2f_opt_disp_struct_1.xyz,Nucleus 19C :,3.516718,-3.287063,1.090185,163.66,191.47,157.57,141.95,258.23,234.93,242.23,-65.97,-84.05,-94.38,141.95,157.57,191.47,0,49.52,-0.37
nw_cut_3_0_2f_opt_disp_struct_1.xyz,Nucleus 22C :,2.243168,-4.235,2.583193,3.21,-89.61,93.95,5.3,199.23,251.79,270.21,-105.36,-343.31,-262.92,-89.61,5.3,93.95,0,183.56,0.03
nw_cut_3_0_2f_opt_disp_struct_1.xyz,Nucleus 5N :,2.126302,-5.071062,3.471018,120.51,50.36,184.71,126.47,293.86,337.66,330.3,-110.09,-210.49,-279.7,50.36,126.47,184.71,0,134.35,0.13
nw_cut_3_0_2f_opt_disp_struct_1.xyz,Nucleus 24N :,1.342773,-3.224077,2.43933,144.15,37.02,243.07,152.37,291.86,326.62,344.33,-289.83,-94.83,-145.7,37.02,152.37,243.07,0,206.05,0.12
nw_cut_3_0_2f_opt_disp_struct_1.xyz,Nucleus 23O :,1.330498,-2.739526,1.564246,-106.32,318.49,-232.33,-405.12,340.94,381.2,426.65,-23.23,-614.58,-829.95,-405.12,-232.33,318.49,0,723.61,-0.52
nw_cut_3_0_2f_opt_disp_struct_1.xyz,Nucleus 10F :,0.472874,-3.356512,2.919786,306.55,403.12,224.91,291.62,484.59,458.29,467.65,-64.26,-234.49,-192.14,224.91,291.62,403.12,0,178.21,-0.25
nw_cut_3_0_2f_opt_disp_struct_1.xyz,Nucleus 16F :,3.114152,-4.994476,0.805358,320.02,413.88,246.17,300.02,458.54,472.01,483.82,-57.95,-212.63,-183.72,246.17,300.02,413.88,0,167.71,-0.36
nw_cut_3_0_2f_opt_disp_struct_10.xyz,Nucleus 1H :,0.981603,-0.028498,-1.314615,29.16,35.24,23.51,28.72,40.92,26.12,29.03,-6.72,0.35,-2.23,23.51,28.72,35.24,0,11.73,-0.11
nw_cut_3_0_2f_opt_disp_struct_10.xyz,Nucleus 2H :,1.771506,0.614618,-1.710604,28.78,34.75,23.99,27.61,45.51,25.56,26.83,-11.61,1.72,-1.64,23.99,27.61,34.75,0,10.76,-0.33
nw_cut_3_0_2f_opt_disp_struct_10.xyz,Nucleus 6H :,1.197844,-1.056865,-1.623284,23.79,15.48,25.28,30.61,11.16,30.31,49.6,-19.39,4.53,-4.85,15.48,25.28,30.61,0,15.13,0.3
nw_cut_3_0_2f_opt_disp_struct_10.xyz,Nucleus 12H :,0.894234,0.094003,0.16423,24.43,20.6,25.11,27.58,47.23,18.63,31.23,-22.14,2.09,-3.76,20.6,25.11,27.58,0,6.98,0.29
nw_cut_3_0_2f_opt_disp_struct_10.xyz,Nucleus 14H :,1.667686,0.911859,0.966454,24.32,20.56,27.23,25.16,6.14,33.54,44.08,14.48,-6.39,-18.88,20.56,25.16,27.23,0,6.67,0.38
nw_cut_3_0_2f_opt_disp_struct_10.xyz,Nucleus 17H :,1.277211,0.738478,2.267366,24.29,20.7,25.43,26.75,44.61,27.23,31.13,-19.14,-6.41,-4.55,20.7,25.43,26.75,0,6.05,0.57
nw_cut_3_0_2f_opt_disp_struct_10.xyz,Nucleus 18H :,1.685069,1.185094,3.070334,28.72,35.0,27.35,23.8,41.86,27.05,32.06,-0.3,-9.13,-5.39,23.8,27.35,35.0,0,11.2,-0.37
nw_cut_3_0_2f_opt_disp_struct_10.xyz,Nucleus 20H :,0.256546,-0.17788,2.332857,29.75,35.01,27.86,26.38,38.97,16.48,5.7,-4.27,11.21,21.16,26.38,27.86,35.01,0,8.63,-0.66
nw_cut_3_0_2f_opt_disp_struct_10.xyz,Nucleus 21H :,-0.010903,-0.601015,1.029406,30.02,25.61,30.82,33.64,41.51,32.78,23.1,-8.99,-1.44,3.11,25.61,30.82,33.64,0,8.03,0.3
nw_cut_3_0_2f_opt_disp_struct_10.xyz,Nucleus 25H :,-1.036476,-1.551442,0.843313,27.51,33.94,22.14,26.45,33.15,46.79,49.67,-3.44,-18.94,-24.69,22.14,26.45,33.94,0,11.8,-0.27
nw_cut_3_0_2f_opt_disp_struct_10.xyz,Nucleus 26H :,-1.341668,-1.994243,-0.384979,27.58,34.72,23.4,24.63,43.34,35.08,32.24,-2.11,-14.47,-11.33,23.4,24.63,34.72,0,11.32,-0.78
nw_cut_3_0_2f_opt_disp_struct_10.xyz,Nucleus 27H :,-1.752241,-2.048385,1.937243,29.63,34.07,27.77,27.04,38.02,13.82,20.98,-5.33,14.89,6.5,27.04,27.77,34.07,0,7.03,-0.79
nw_cut_3_0_2f_opt_disp_struct_10.xyz,Nucleus 0C :,-2.531144,-2.781879,1.763549,171.07,186.65,160.74,165.83,257.7,237.64,237.31,-77.8,-74.26,-67.36,160.74,165.83,186.65,0,25.91,-0.61
nw_cut_3_0_2f_opt_disp_struct_10.xyz,Nucleus 3C :,-1.459434,-1.606716,3.225493,62.04,148.43,53.15,-15.47,241.06,273.43,263.78,-92.66,-220.25,-279.26,-15.47,53.15,148.43,0,163.9,-0.16
nw_cut_3_0_2f_opt_disp_struct_10.xyz,Nucleus 4C :,-2.00573,-1.984855,4.082642,55.8,-28.2,127.52,68.09,274.08,257.25,258.0,-292.71,-129.84,-199.39,-28.2,68.09,127.52,0,155.72,0.24
nw_cut_3_0_2f_opt_disp_struct_10.xyz,Nucleus 7C :,-0.451567,-0.665956,3.432975,52.14,138.09,-2.5,20.84,273.79,259.44,266.58,-121.38,-276.2,-245.81,-2.5,20.84,138.09,0,140.59,-0.67
nw_cut_3_0_2f_opt_disp_struct_10.xyz,Nucleus 8C :,-0.173096,-0.241849,4.672149,58.51,158.43,22.04,-4.94,234.67,264.49,268.14,-76.51,-242.68,-272.57,-4.94,22.04,158.43,0,163.37,-0.67
nw_cut_3_0_2f_opt_disp_struct_10.xyz,Nucleus 9C :,2.458655,1.596247,0.698537,17.06,-58.64,76.4,33.42,236.08,265.85,268.77,-327.4,-159.7,-232.42,-58.64,33.42,76.4,0,135.04,0.36
nw_cut_3_0_2f_opt_disp_struct_10.xyz,Nucleus 11C :,0.040184,0.255565,-1.796704,69.9,161.95,-13.85,61.61,238.64,260.85,273.91,-76.88,-278.88,-207.92,-13.85,61.61,161.95,0,175.8,-0.14
nw_cut_3_0_2f_opt_disp_struct_10.xyz,Nucleus 13C :,4.857536,-5.914921,1.80676,67.8,163.82,54.61,-15.02,225.59,259.23,275.84,-61.84,-219.49,-275.92,-15.02,54.61,163.82,0,178.84,-0.22
nw_cut_3_0_2f_opt_disp_struct_10.xyz,Nucleus 15C :,5.780299,-6.23891,2.291418,26.89,83.06,35.25,-37.63,231.93,268.82,263.61,-148.88,-232.6,-302.19,-37.63,35.25,83.06,0,120.69,0.21
nw_cut_3_0_2f_opt_disp_struct_10.xyz,Nucleus 19C :,5.017363,-4.947529,1.321306,163.24,191.19,156.16,142.37,261.67,231.0,238.38,-69.32,-81.05,-90.97,142.37,156.16,191.19,0,48.82,-0.44
nw_cut_3_0_2f_opt_disp_struct_10.xyz,Nucleus 22C :,3.743813,-5.895466,2.814314,3.08,-92.08,94.11,7.22,191.94,251.99,269.95,-98.03,-345.28,-261.32,-92.08,7.22,94.11,0,186.19,0.07
nw_cut_3_0_2f_opt_disp_struct_10.xyz,Nucleus 5N :,3.626947,-6.731528,3.702139,122.98,54.54,184.5,129.9,294.49,337.16,330.12,-110.36,-206.7,-275.77,54.54,129.9,184.5,0,129.96,0.16
nw_cut_3_0_2f_opt_disp_struct_10.xyz,Nucleus 24N :,2.843417,-4.884544,2.670451,145.99,47.36,243.61,146.99,292.08,327.81,344.11,-280.75,-86.46,-158.82,47.36,146.99,243.61,0,196.25,0.02
nw_cut_3_0_2f_opt_disp_struct_10.xyz,Nucleus 23O :,2.831143,-4.399993,1.795367,-112.52,317.27,-239.31,-415.53,329.58,380.07,427.5,-12.8,-620.94,-840.97,-415.53,-239.31,317.27,0,732.8,-0.52
nw_cut_3_0_2f_opt_disp_struct_10.xyz,Nucleus 10F :,1.973518,-5.016979,3.150907,307.83,403.19,226.88,293.42,485.72,459.45,466.93,-63.78,-232.86,-191.97,226.88,293.42,403.19,0,176.31,-0.25
nw_cut_3_0_2f_opt_disp_struct_10.xyz,Nucleus 16F :,4.614796,-6.654943,1.036479,325.02,414.4,256.13,304.52,485.41,467.91,459.87,-53.49,-203.92,-180.74,256.13,304.52,414.4,0,158.27,-0.39
nw_cut_3_0_2f_opt_disp_struct_11.xyz,Nucleus 1H :,0.981603,-0.028498,-1.314615,29.16,35.24,23.51,28.74,40.89,26.12,29.06,-6.68,0.34,-2.24,23.51,28.74,35.24,0,11.73,-0.11
nw_cut_3_0_2f_opt_disp_struct_11.xyz,Nucleus 2H :,1.771506,0.614618,-1.710604,28.78,34.77,23.98,27.6,45.47,25.53,26.8,-11.56,1.76,-1.65,23.98,27.6,34.77,0,10.79,-0.33
nw_cut_3_0_2f_opt_disp_struct_11.xyz,Nucleus 6H :,1.197844,-1.056865,-1.623284,23.8,15.47,25.29,30.63,11.18,30.33,49.53,-19.3,4.5,-4.86,15.47,25.29,30.63,0,15.16,0.29
nw_cut_3_0_2f_opt_disp_struct_11.xyz,Nucleus 12H :,0.894234,0.094003,0.16423,24.43,20.58,25.12,27.59,47.12,18.59,31.17,-22.01,2.1,-3.68,20.58,25.12,27.59,0,7.01,0.3
nw_cut_3_0_2f_opt_disp_struct_11.xyz,Nucleus 14H :,1.667686,0.911859,0.966454,24.32,20.55,27.26,25.16,6.13,33.44,44.07,14.47,-6.28,-18.86,20.55,25.16,27.26,0,6.71,0.38
nw_cut_3_0_2f_opt_disp_struct_11.xyz,Nucleus 17H :,1.277211,0.738478,2.267366,24.3,20.7,25.43,26.76,44.59,27.23,31.13,-19.11,-6.42,-4.54,20.7,25.43,26.76,0,6.06,0.56
nw_cut_3_0_2f_opt_disp_struct_11.xyz,Nucleus 18H :,1.685069,1.185094,3.070334,28.72,34.99,27.36,23.81,41.85,27.03,32.06,-0.27,-9.14,-5.37,23.81,27.36,34.99,0,11.18,-0.36
nw_cut_3_0_2f_opt_disp_struct_11.xyz,Nucleus 20H :,0.256546,-0.17788,2.332857,29.73,34.96,27.86,26.36,38.88,16.26,5.0,-4.26,21.86,11.44,26.36,27.86,34.96,0,8.6,-0.65
nw_cut_3_0_2f_opt_disp_struct_11.xyz,Nucleus 21H :,-0.010903,-0.601015,1.029406,30.0,25.64,30.71,33.66,41.8,32.57,22.89,-9.31,-1.31,3.38,25.64,30.71,33.66,0,8.02,0.27
nw_cut_3_0_2f_opt_disp_struct_11.xyz,Nucleus 25H :,-1.036476,-1.551442,0.843313,27.44,33.65,26.46,22.2,33.16,47.43,50.05,-3.47,-19.18,-25.68,22.2,26.46,33.65,0,11.45,-0.26
nw_cut_3_0_2f_opt_disp_struct_11.xyz,Nucleus 26H :,-1.341668,-1.994243,-0.384979,27.52,34.65,23.44,24.46,43.83,32.15,35.84,-2.26,-15.03,-11.97,23.44,24.46,34.65,0,11.21,-0.82
nw_cut_3_0_2f_opt_disp_struct_11.xyz,Nucleus 27H :,-1.752241,-2.048385,1.937243,29.61,34.05,27.72,27.05,38.03,13.22,20.82,-5.4,15.5,6.67,27.05,27.72,34.05,0,7.0,-0.81
nw_cut_3_0_2f_opt_disp_struct_11.xyz,Nucleus 0C :,-2.531144,-2.781879,1.763549,171.07,186.65,160.75,165.82,257.67,237.63,237.26,-77.76,-74.24,-67.34,160.75,165.82,186.65,0,25.9,-0.61
nw_cut_3_0_2f_opt_disp_struct_11.xyz,Nucleus 3C :,-1.459434,-1.606716,3.225493,62.0,148.4,53.12,-15.52,241.0,273.28,263.75,-92.63,-220.11,-279.29,-15.52,53.12,148.4,0,163.92,-0.16
nw_cut_3_0_2f_opt_disp_struct_11.xyz,Nucleus 4C :,-2.00573,-1.984855,4.082642,55.85,-28.14,127.5,68.18,274.02,257.16,258.12,-292.66,-129.87,-199.22,-28.14,68.18,127.5,0,155.64,0.24
nw_cut_3_0_2f_opt_disp_struct_11.xyz,Nucleus 7C :,-0.451567,-0.665956,3.432975,52.16,138.05,-2.46,20.88,259.37,273.49,266.62,-121.35,-275.85,-245.81,-2.46,20.88,138.05,0,140.51,-0.67
nw_cut_3_0_2f_opt_disp_struct_11.xyz,Nucleus 8C :,-0.173096,-0.241849,4.672149,58.47,158.36,22.01,-4.97,234.67,264.41,267.8,-76.55,-242.51,-272.4,-4.97,22.01,158.36,0,163.33,-0.67
nw_cut_3_0_2f_opt_disp_struct_11.xyz,Nucleus 9C :,2.458655,1.596247,0.698537,17.02,-58.69,76.34,33.42,235.96,265.73,268.44,-327.12,-159.62,-232.31,-58.69,33.42,76.34,0,135.03,0.36
nw_cut_3_0_2f_opt_disp_struct_11.xyz,Nucleus 11C :,0.040184,0.255565,-1.796704,69.88,161.89,-13.86,61.62,238.58,260.78,273.65,-76.86,-278.67,-207.81,-13.86,61.62,161.89,0,175.75,-0.14
nw_cut_3_0_2f_opt_disp_struct_11.xyz,Nucleus 13C :,5.024274,-6.099418,1.832441,67.8,163.75,54.65,-15.01,225.51,259.25,275.55,-61.84,-219.23,-275.85,-15.01,54.65,163.75,0,178.76,-0.22
nw_cut_3_0_2f_opt_disp_struct_11.xyz,Nucleus 15C :,5.947038,-6.423407,2.317098,26.92,83.0,35.31,-37.56,231.93,268.63,263.59,-148.94,-232.44,-302.02,-37.56,35.31,83.0,0,120.56,0.21
nw_cut_3_0_2f_opt_disp_struct_11.xyz,Nucleus 19C :,5.184101,-5.132025,1.346986,163.22,191.18,156.09,142.4,262.02,230.52,238.01,-69.57,-80.77,-90.53,142.4,156.09,191.18,0,48.78,-0.44
nw_cut_3_0_2f_opt_disp_struct_11.xyz,Nucleus 22C :,3.910551,-6.079963,2.839994,3.06,-92.21,94.13,7.27,191.16,251.96,270.04,-97.26,-345.32,-261.4,-92.21,7.27,94.13,0,186.34,0.07
nw_cut_3_0_2f_opt_disp_struct_11.xyz,Nucleus 5N :,3.793685,-6.916025,3.727819,123.07,54.69,184.48,130.04,294.48,337.12,330.05,-110.33,-206.51,-275.6,54.69,130.04,184.48,0,129.79,0.16
nw_cut_3_0_2f_opt_disp_struct_11.xyz,Nucleus 24N :,3.010156,-5.06904,2.696131,146.0,47.53,243.45,147.02,292.04,328.07,344.43,-280.74,-86.11,-159.7,47.53,147.02,243.45,0,195.92,0.02
nw_cut_3_0_2f_opt_disp_struct_11.xyz,Nucleus 23O :,2.997881,-4.584489,1.821047,-112.76,317.17,-239.49,-415.95,328.94,379.95,427.55,-12.25,-621.05,-841.42,-415.95,-239.49,317.17,0,733.12,-0.52
nw_cut_3_0_2f_opt_disp_struct_11.xyz,Nucleus 10F :,2.140257,-5.201475,3.176587,307.82,403.15,226.88,293.44,485.68,459.48,466.89,-63.77,-232.85,-191.95,226.88,293.44,403.15,0,176.27,-0.24
nw_cut_3_0_2f_opt_disp_struct_11.xyz,Nucleus 16F :,4.781534,-6.839439,1.062159,325.19,414.42,256.4,304.74,485.43,459.93,467.67,-53.24,-203.7,-180.54,256.4,304.74,414.42,0,158.02,-0.39
nw_cut_3_0_2f_opt_disp_struct_12.xyz,Nucleus 1H :,0.981603,-0.028498,-1.314615,29.16,35.24,23.5,28.74,40.86,26.12,29.07,-6.65,0.34,-2.25,23.5,28.74,35.24,0,11.74,-0.11
nw_cut_3_0_2f_opt_disp_struct_12.xyz,Nucleus 2H :,1.771506,0.614618,-1.710604,28.78,34.78,23.97,27.6,45.42,25.5,26.78,-11.51,1.81,-1.65,23.97,27.6,34.78,0,10.81,-0.33
nw_cut_3_0_2f_opt_disp_struct_12.xyz,Nucleus 6H :,1.197844,-1.056865,-1.623284,23.8,15.47,25.3,30.63,11.18,30.34,49.47,-19.21,4.48,-4.86,15.47,25.3,30.63,0,15.16,0.3
nw_cut_3_0_2f_opt_disp_struct_12.xyz,Nucleus 12H :,0.894234,0.094003,0.16423,24.44,20.58,25.13,27.61,47.02,18.56,31.13,-21.89,2.11,-3.62,20.58,25.13,27.61,0,7.03,0.29
nw_cut_3_0_2f_opt_disp_struct_12.xyz,Nucleus 14H :,1.667686,0.911859,0.966454,24.33,20.54,27.28,25.17,6.12,33.36,44.06,14.46,-6.17,-18.84,20.54,25.17,27.28,0,6.74,0.37
nw_cut_3_0_2f_opt_disp_struct_12.xyz,Nucleus 17H :,1.277211,0.738478,2.267366,24.3,20.7,25.43,26.77,44.57,27.22,31.13,-19.08,-6.42,-4.52,20.7,25.43,26.77,0,6.07,0.56
nw_cut_3_0_2f_opt_disp_struct_12.xyz,Nucleus 18H :,1.685069,1.185094,3.070334,28.72,34.98,27.37,23.8,41.84,27.01,32.05,-0.24,-9.15,-5.35,23.8,27.37,34.98,0,11.18,-0.36
nw_cut_3_0_2f_opt_disp_struct_12.xyz,Nucleus 20H :,0.256546,-0.17788,2.332857,29.72,34.92,27.87,26.36,38.81,16.03,4.3,-4.25,22.58,11.67,26.36,27.87,34.92,0,8.56,-0.65
nw_cut_3_0_2f_opt_disp_struct_12.xyz,Nucleus 21H :,-0.010903,-0.601015,1.029406,29.98,25.67,30.61,33.67,42.08,32.37,22.68,-9.63,-1.19,3.65,25.67,30.61,33.67,0,8.0,0.24
nw_cut_3_0_2f_opt_disp_struct_12.xyz,Nucleus 25H :,-1.036476,-1.551442,0.843313,27.38,33.41,26.46,22.27,33.16,47.91,50.6,-3.49,-19.42,-26.63,22.27,26.46,33.41,0,11.14,-0.25
nw_cut_3_0_2f_opt_disp_struct_12.xyz,Nucleus 26H :,-1.341668,-1.994243,-0.384979,27.46,34.6,23.47,24.31,44.29,32.02,36.62,-2.38,-15.65,-12.51,23.47,24.31,34.6,0,11.13,-0.85
nw_cut_3_0_2f_opt_disp_struct_12.xyz,Nucleus 27H :,-1.752241,-2.048385,1.937243,29.6,34.04,27.69,27.07,38.05,12.62,20.66,-5.48,16.11,6.84,27.07,27.69,34.04,0,6.97,-0.82
nw_cut_3_0_2f_opt_disp_struct_12.xyz,Nucleus 0C :,-2.531144,-2.781879,1.763549,171.07,186.66,160.76,165.79,257.63,237.62,237.22,-77.72,-74.22,-67.32,160.76,165.79,186.66,0,25.9,-0.61
nw_cut_3_0_2f_opt_disp_struct_12.xyz,Nucleus 3C :,-1.459434,-1.606716,3.225493,61.97,148.38,53.1,-15.56,240.96,273.16,263.71,-92.6,-220.01,-279.3,-15.56,53.1,148.38,0,163.94,-0.16
nw_cut_3_0_2f_opt_disp_struct_12.xyz,Nucleus 4C :,-2.00573,-1.984855,4.082642,55.88,-28.11,127.46,68.28,273.98,257.09,258.16,-292.62,-129.91,-199.06,-28.11,68.28,127.46,0,155.57,0.24
nw_cut_3_0_2f_opt_disp_struct_12.xyz,Nucleus 7C :,-0.451567,-0.665956,3.432975,52.17,138.01,-2.4,20.89,259.31,273.28,266.61,-121.34,-275.56,-245.81,-2.4,20.89,138.01,0,140.41,-0.67
nw_cut_3_0_2f_opt_disp_struct_12.xyz,Nucleus 8C :,-0.173096,-0.241849,4.672149,58.46,158.32,22.04,-4.99,234.64,264.34,267.57,-76.56,-242.36,-272.26,-4.99,22.04,158.32,0,163.31,-0.67
nw_cut_3_0_2f_opt_disp_struct_12.xyz,Nucleus 9C :,2.458655,1.596247,0.698537,17.02,-58.69,76.32,33.42,235.87,265.65,268.21,-326.89,-159.55,-232.23,-58.69,33.42,76.32,0,135.01,0.36
nw_cut_3_0_2f_opt_disp_struct_12.xyz,Nucleus 11C :,0.040184,0.255565,-1.796704,69.89,161.86,-13.84,61.66,238.52,260.71,273.48,-76.84,-278.48,-207.72,-13.84,61.66,161.86,0,175.7,-0.14
nw_cut_3_0_2f_opt_disp_struct_12.xyz,Nucleus 13C :,5.191013,-6.283914,1.858121,67.8,163.7,54.71,-15.01,225.46,259.24,275.35,-61.83,-219.02,-275.79,-15.01,54.71,163.7,0,178.71,-0.22
nw_cut_3_0_2f_opt_disp_struct_12.xyz,Nucleus 15C :,6.113776,-6.607903,2.342778,26.93,82.94,35.36,-37.51,231.92,268.49,263.56,-149.0,-232.32,-301.86,-37.51,35.36,82.94,0,120.45,0.21
nw_cut_3_0_2f_opt_disp_struct_12.xyz,Nucleus 19C :,5.350839,-5.316522,1.372666,163.22,191.17,156.04,142.45,262.36,230.06,237.67,-69.81,-80.49,-90.12,142.45,156.04,191.17,0,48.72,-0.44
nw_cut_3_0_2f_opt_disp_struct_12.xyz,Nucleus 22C :,4.077289,-6.264459,2.865674,3.05,-92.31,94.16,7.3,190.39,251.94,270.14,-96.47,-345.34,-261.51,-92.31,7.3,94.16,0,186.47,0.07
nw_cut_3_0_2f_opt_disp_struct_12.xyz,Nucleus 5N :,3.960423,-7.100521,3.753499,123.13,54.78,184.45,130.17,294.46,337.09,329.97,-110.32,-206.36,-275.44,54.78,130.17,184.45,0,129.67,0.16
nw_cut_3_0_2f_opt_disp_struct_12.xyz,Nucleus 24N :,3.176894,-5.253536,2.721811,146.0,47.67,243.31,147.02,291.75,328.26,344.84,-280.69,-85.71,-160.44,47.67,147.02,243.31,0,195.64,0.02
nw_cut_3_0_2f_opt_disp_struct_12.xyz,Nucleus 23O :,3.164619,-4.768985,1.846727,-112.97,317.09,-239.69,-416.31,328.21,379.84,427.61,-11.58,-621.15,-841.83,-416.31,-239.69,317.09,0,733.4,-0.52
nw_cut_3_0_2f_opt_disp_struct_12.xyz,Nucleus 10F :,2.306995,-5.385971,3.202267,307.8,403.13,226.83,293.45,485.61,459.47,466.85,-63.74,-232.88,-191.89,226.83,293.45,403.13,0,176.3,-0.24
nw_cut_3_0_2f_opt_disp_struct_12.xyz,Nucleus 16F :,4.948273,-7.023935,1.087839,325.37,414.51,256.67,304.92,485.39,459.96,467.57,-53.05,-203.45,-180.32,256.67,304.92,414.51,0,157.84,-0.39
nw_cut_3_0_2f_opt_disp_struct_13.xyz,Nucleus 1H :,0.981603,-0.028498,-1.314615,29.17,35.24,23.51,28.76,40.83,26.12,29.08,-6.61,0.34,-2.26,23.51,28.76,35.24,0,11.73,-0.1
nw_cut_3_0_2f_opt_disp_struct_13.xyz,Nucleus 2H :,1.771506,0.614618,-1.710604,28.78,34.8,23.96,27.59,45.37,25.47,26.76,-11.46,1.85,-1.65,23.96,27.59,34.8,0,10.84,-0.33
nw_cut_3_0_2f_opt_disp_struct_13.xyz,Nucleus 6H :,1.197844,-1.056865,-1.623284,23.8,15.46,25.31,30.64,11.2,30.36,49.39,-19.13,4.45,-4.86,15.46,25.31,30.64,0,15.18,0.3
nw_cut_3_0_2f_opt_disp_struct_13.xyz,Nucleus 12H :,0.894234,0.094003,0.16423,24.43,20.55,25.13,27.62,46.92,18.52,31.06,-21.78,2.12,-3.55,20.55,25.13,27.62,0,7.07,0.3
nw_cut_3_0_2f_opt_disp_struct_13.xyz,Nucleus 14H :,1.667686,0.911859,0.966454,24.33,20.52,27.29,25.17,6.11,33.26,44.05,14.45,-6.06,-18.82,20.52,25.17,27.29,0,6.77,0.37
nw_cut_3_0_2f_opt_disp_struct_13.xyz,Nucleus 17H :,1.277211,0.738478,2.267366,24.3,20.7,25.43,26.78,44.55,27.22,31.12,-19.06,-6.42,-4.5,20.7,25.43,26.78,0,6.08,0.56
nw_cut_3_0_2f_opt_disp_struct_13.xyz,Nucleus 18H :,1.685069,1.185094,3.070334,28.73,34.98,27.38,23.82,41.84,26.99,32.05,-0.21,-9.16,-5.33,23.82,27.38,34.98,0,11.16,-0.36
nw_cut_3_0_2f_opt_disp_struct_13.xyz,Nucleus 20H :,0.256546,-0.17788,2.332857,29.7,34.88,27.87,26.36,38.75,15.79,3.59,-4.24,23.3,11.92,26.36,27.87,34.88,0,8.52,-0.64
nw_cut_3_0_2f_opt_disp_struct_13.xyz,Nucleus 21H :,-0.010903,-0.601015,1.029406,29.96,25.68,30.53,33.68,42.37,32.18,22.45,-9.95,-1.09,3.93,25.68,30.53,33.68,0,8.0,0.21
nw_cut_3_0_2f_opt_disp_struct_13.xyz,Nucleus 25H :,-1.036476,-1.551442,0.843313,27.32,33.2,26.47,22.29,33.14,48.25,51.3,-3.5,-19.67,-27.56,22.29,26.47,33.2,0,10.91,-0.23
nw_cut_3_0_2f_opt_disp_struct_13.xyz,Nucleus 26H :,-1.341668,-1.994243,-0.384979,27.42,34.55,23.51,24.19,44.73,31.88,37.41,-2.48,-16.31,-12.98,23.51,24.19,34.55,0,11.04,-0.88
nw_cut_3_0_2f_opt_disp_struct_13.xyz,Nucleus 27H :,-1.752241,-2.048385,1.937243,29.59,34.03,27.66,27.07,38.08,12.01,20.49,-5.57,16.73,7.01,27.07,27.66,34.03,0,6.96,-0.83
nw_cut_3_0_2f_opt_disp_struct_13.xyz,Nucleus 0C :,-2.531144,-2.781879,1.763549,171.08,186.67,160.77,165.79,257.6,237.62,237.19,-77.68,-74.19,-67.31,160.77,165.79,186.67,0,25.9,-0.61
nw_cut_3_0_2f_opt_disp_struct_13.xyz,Nucleus 3C :,-1.459434,-1.606716,3.225493,61.95,148.36,53.07,-15.58,240.9,273.02,263.69,-92.57,-219.89,-279.3,-15.58,53.07,148.36,0,163.94,-0.16
nw_cut_3_0_2f_opt_disp_struct_13.xyz,Nucleus 4C :,-2.00573,-1.984855,4.082642,55.91,-28.06,127.46,68.34,273.91,256.95,258.33,-292.6,-129.93,-198.92,-28.06,68.34,127.46,0,155.52,0.24
nw_cut_3_0_2f_opt_disp_struct_13.xyz,Nucleus 7C :,-0.451567,-0.665956,3.432975,52.17,137.98,-2.41,20.94,259.24,273.03,266.67,-121.32,-275.3,-245.81,-2.41,20.94,137.98,0,140.39,-0.67
nw_cut_3_0_2f_opt_disp_struct_13.xyz,Nucleus 8C :,-0.173096,-0.241849,4.672149,58.43,158.29,21.99,-4.99,234.66,264.22,267.34,-76.56,-242.23,-272.12,-4.99,21.99,158.29,0,163.28,-0.67
nw_cut_3_0_2f_opt_disp_struct_13.xyz,Nucleus 9C :,2.458655,1.596247,0.698537,16.97,-58.76,76.27,33.4,235.77,265.53,267.92,-326.67,-159.51,-232.14,-58.76,33.4,76.27,0,135.03,0.37
nw_cut_3_0_2f_opt_disp_struct_13.xyz,Nucleus 11C :,0.040184,0.255565,-1.796704,69.87,161.8,-13.85,61.65,238.48,260.65,273.24,-76.83,-278.3,-207.63,-13.85,61.65,161.8,0,175.65,-0.14
nw_cut_3_0_2f_opt_disp_struct_13.xyz,Nucleus 13C :,5.357751,-6.46841,1.883801,67.79,163.65,54.73,-15.0,225.4,259.26,275.11,-61.82,-218.82,-275.74,-15.0,54.73,163.65,0,178.65,-0.22
nw_cut_3_0_2f_opt_disp_struct_13.xyz,Nucleus 15C :,6.280514,-6.792399,2.368458,26.95,82.91,35.39,-37.46,231.92,268.33,263.54,-149.03,-232.21,-301.71,-37.46,35.39,82.91,0,120.37,0.21
nw_cut_3_0_2f_opt_disp_struct_13.xyz,Nucleus 19C :,5.517577,-5.501018,1.398346,163.19,191.16,155.97,142.43,262.7,229.6,237.32,-70.06,-80.25,-89.76,142.43,155.97,191.16,0,48.73,-0.44
nw_cut_3_0_2f_opt_disp_struct_13.xyz,Nucleus 22C :,4.244028,-6.448955,2.891354,3.02,-92.4,94.17,7.3,189.61,251.9,270.25,-95.69,-345.34,-261.65,-92.4,7.3,94.17,0,186.57,0.07
nw_cut_3_0_2f_opt_disp_struct_13.xyz,Nucleus 5N :,4.127162,-7.285017,3.779179,123.19,54.9,184.43,130.25,294.43,337.05,329.9,-110.27,-206.24,-275.28,54.9,130.25,184.43,0,129.53,0.16
nw_cut_3_0_2f_opt_disp_struct_13.xyz,Nucleus 24N :,3.343632,-5.438033,2.747491,146.01,47.79,243.18,147.06,291.39,328.4,345.3,-280.68,-85.28,-161.11,47.79,147.06,243.18,0,195.39,0.02
nw_cut_3_0_2f_opt_disp_struct_13.xyz,Nucleus 23O :,3.331358,-4.953482,1.872407,-113.03,317.22,-239.8,-416.51,327.54,379.72,427.67,-10.77,-621.16,-842.08,-416.51,-239.8,317.22,0,733.73,-0.52
nw_cut_3_0_2f_opt_disp_struct_13.xyz,Nucleus 10F :,2.473733,-5.570468,3.227947,307.81,403.11,226.84,293.49,485.56,459.49,466.81,-63.72,-232.87,-191.83,226.84,293.49,403.11,0,176.27,-0.24
nw_cut_3_0_2f_opt_disp_struct_13.xyz,Nucleus 16F :,5.115011,-7.208432,1.11352,325.46,414.44,256.88,305.07,485.39,459.99,467.37,-52.93,-203.27,-180.17,256.88,305.07,414.44,0,157.56,-0.39
nw_cut_3_0_2f_opt_disp_struct_14.xyz,Nucleus 1H :,0.981603,-0.028498,-1.314615,29.17,35.24,23.5,28.76,40.81,26.12,29.08,-6.58,0.34,-2.26,23.5,28.76,35.24,0,11.74,-0.1
nw_cut_3_0_2f_opt_disp_struct_14.xyz,Nucleus 2H :,1.771506,0.614618,-1.710604,28.78,34.81,23.95,27.59,45.32,25.44,26.74,-11.41,1.89,-1.64,23.95,27.59,34.81,0,10.86,-0.33
nw_cut_3_0_2f_opt_disp_struct_14.xyz,Nucleus 6H :,1.197844,-1.056865,-1.623284,23.81,15.46,25.32,30.65,11.2,30.36,49.33,-19.04,4.44,-4.85,15.46,25.32,30.65,0,15.19,0.3
nw_cut_3_0_2f_opt_disp_struct_14.xyz,Nucleus 12H :,0.894234,0.094003,0.16423,24.44,20.54,25.14,27.63,46.83,18.5,31.03,-21.67,2.12,-3.49,20.54,25.14,27.63,0,7.09,0.3
nw_cut_3_0_2f_opt_disp_struct_14.xyz,Nucleus 14H :,1.667686,0.911859,0.966454,24.33,20.51,27.31,25.17,6.1,33.18,44.03,14.45,-5.96,-18.8,20.51,25.17,27.31,0,6.8,0.37
nw_cut_3_0_2f_opt_disp_struct_14.xyz,Nucleus 17H :,1.277211,0.738478,2.267366,24.3,20.7,25.43,26.78,44.53,27.21,31.11,-19.03,-6.42,-4.48,20.7,25.43,26.78,0,6.08,0.56
nw_cut_3_0_2f_opt_disp_struct_14.xyz,Nucleus 18H :,1.685069,1.185094,3.070334,28.72,34.97,27.38,23.81,41.83,26.97,32.03,-0.19,-9.16,-5.3,23.81,27.38,34.97,0,11.16,-0.36
nw_cut_3_0_2f_opt_disp_struct_14.xyz,Nucleus 20H :,0.256546,-0.17788,2.332857,29.69,34.84,27.88,26.35,38.69,15.55,2.89,-4.24,24.02,12.17,26.35,27.88,34.84,0,8.49,-0.64
nw_cut_3_0_2f_opt_disp_struct_14.xyz,Nucleus 21H :,-0.010903,-0.601015,1.029406,29.95,25.71,30.45,33.69,42.66,32.01,22.23,-10.27,-0.98,4.2,25.71,30.45,33.69,0,7.98,0.19
nw_cut_3_0_2f_opt_disp_struct_14.xyz,Nucleus 25H :,-1.036476,-1.551442,0.843313,27.27,33.02,26.46,22.34,33.13,48.53,52.07,-3.5,-19.93,-28.47,22.34,26.46,33.02,0,10.68,-0.23
nw_cut_3_0_2f_opt_disp_struct_14.xyz,Nucleus 26H :,-1.341668,-1.994243,-0.384979,27.38,34.52,23.53,24.08,45.18,31.76,38.15,-2.55,-17.02,-13.38,23.53,24.08,34.52,0,10.99,-0.9
nw_cut_3_0_2f_opt_disp_struct_14.xyz,Nucleus 27H :,-1.752241,-2.048385,1.937243,29.58,34.02,27.63,27.08,38.12,11.41,20.32,-5.66,17.34,7.19,27.08,27.63,34.02,0,6.94,-0.84
nw_cut_3_0_2f_opt_disp_struct_14.xyz,Nucleus 0C :,-2.531144,-2.781879,1.763549,171.08,186.68,160.78,165.77,257.57,237.61,237.15,-77.64,-74.18,-67.3,160.78,165.77,186.68,0,25.9,-0.62
nw_cut_3_0_2f_opt_disp_struct_14.xyz,Nucleus 3C :,-1.459434,-1.606716,3.225493,61.93,148.35,53.05,-15.61,240.86,272.92,263.65,-92.54,-219.81,-279.3,-15.61,53.05,148.35,0,163.96,-0.16
nw_cut_3_0_2f_opt_disp_struct_14.xyz,Nucleus 4C :,-2.00573,-1.984855,4.082642,55.94,-28.03,127.43,68.41,273.86,256.89,258.37,-292.56,-129.96,-198.78,-28.03,68.41,127.43,0,155.46,0.24
nw_cut_3_0_2f_opt_disp_struct_14.xyz,Nucleus 7C :,-0.451567,-0.665956,3.432975,52.18,137.95,-2.37,20.95,259.2,272.86,266.65,-121.32,-275.07,-245.8,-2.37,20.95,137.95,0,140.32,-0.67
nw_cut_3_0_2f_opt_disp_struct_14.xyz,Nucleus 8C :,-0.173096,-0.241849,4.672149,58.42,158.26,22.01,-5.0,234.63,264.14,267.17,-76.56,-242.12,-271.99,-5.0,22.01,158.26,0,163.26,-0.67
nw_cut_3_0_2f_opt_disp_struct_14.xyz,Nucleus 9C :,2.458655,1.596247,0.698537,16.96,-58.76,76.25,33.4,235.71,265.47,267.72,-326.47,-159.47,-232.07,-58.76,33.4,76.25,0,135.01,0.37
nw_cut_3_0_2f_opt_disp_struct_14.xyz,Nucleus 11C :,0.040184,0.255565,-1.796704,69.88,161.78,-13.84,61.69,238.44,260.58,273.09,-76.81,-278.13,-207.55,-13.84,61.69,161.78,0,175.62,-0.14
nw_cut_3_0_2f_opt_disp_struct_14.xyz,Nucleus 13C :,5.524489,-6.652906,1.909481,67.8,163.61,54.78,-14.99,225.36,259.25,274.94,-61.83,-218.63,-275.69,-14.99,54.78,163.61,0,178.6,-0.22
nw_cut_3_0_2f_opt_disp_struct_14.xyz,Nucleus 15C :,6.447253,-6.976895,2.394138,26.96,82.87,35.43,-37.43,231.91,268.2,263.49,-149.06,-232.1,-301.57,-37.43,35.43,82.87,0,120.3,0.21
nw_cut_3_0_2f_opt_disp_struct_14.xyz,Nucleus 19C :,5.684316,-5.685514,1.424026,163.18,191.15,155.93,142.45,263.03,229.14,237.0,-70.27,-79.99,-89.38,142.45,155.93,191.15,0,48.7,-0.45
nw_cut_3_0_2f_opt_disp_struct_14.xyz,Nucleus 22C :,4.410766,-6.633452,2.917034,3.01,-92.48,94.19,7.32,188.82,251.85,270.38,-94.89,-345.34,-261.77,-92.48,7.32,94.19,0,186.67,0.07
nw_cut_3_0_2f_opt_disp_struct_14.xyz,Nucleus 5N :,4.2939,-7.469514,3.80486,123.25,54.98,184.41,130.35,294.41,337.03,329.82,-110.27,-206.13,-275.12,54.98,130.35,184.41,0,129.43,0.16
nw_cut_3_0_2f_opt_disp_struct_14.xyz,Nucleus 24N :,3.510371,-5.622529,2.773171,146.02,47.92,243.09,147.06,291.0,328.56,345.84,-280.66,-84.85,-161.83,47.92,147.06,243.09,0,195.17,0.02
nw_cut_3_0_2f_opt_disp_struct_14.xyz,Nucleus 23O :,3.498096,-5.137978,1.898088,-113.2,317.17,-239.97,-416.8,326.76,379.6,427.74,-10.04,-621.22,-842.44,-416.8,-239.97,317.17,0,733.97,-0.52
nw_cut_3_0_2f_opt_disp_struct_14.xyz,Nucleus 10F :,2.640472,-5.754964,3.253628,307.79,403.09,226.79,293.5,485.48,459.47,466.79,-63.71,-232.88,-191.76,226.79,293.5,403.09,0,176.3,-0.24
nw_cut_3_0_2f_opt_disp_struct_14.xyz,Nucleus 16F :,5.281749,-7.392928,1.1392,325.59,414.49,257.09,305.2,485.33,460.0,467.32,-52.83,-203.06,-179.98,257.09,305.2,414.49,0,157.4,-0.39
nw_cut_3_0_2f_opt_disp_struct_15.xyz,Nucleus 1H :,0.981603,-0.028498,-1.314615,29.17,35.24,23.5,28.77,40.79,26.12,29.07,-6.56,0.35,-2.25,23.5,28.77,35.24,0,11.74,-0.1
nw_cut_3_0_2f_opt_disp_struct_15.xyz,Nucleus 2H :,1.771506,0.614618,-1.710604,28.78,23.94,27.58,34.82,45.27,25.4,26.72,-11.36,1.93,-1.63,23.94,27.58,34.82,0,10.88,-0.33
nw_cut_3_0_2f_opt_disp_struct_15.xyz,Nucleus 6H :,1.197844,-1.056865,-1.623284,23.81,15.45,25.33,30.66,11.2,30.37,49.26,-18.96,4.42,-4.85,15.45,25.33,30.66,0,15.21,0.3
nw_cut_3_0_2f_opt_disp_struct_15.xyz,Nucleus 12H :,0.894234,0.094003,0.16423,24.43,20.52,25.14,27.64,46.74,18.47,30.98,-21.57,2.13,-3.44,20.52,25.14,27.64,0,7.12,0.3
nw_cut_3_0_2f_opt_disp_struct_15.xyz,Nucleus 14H :,1.667686,0.911859,0.966454,24.33,20.5,27.32,25.17,6.08,33.09,44.02,14.45,-5.86,-18.79,20.5,25.17,27.32,0,6.82,0.37
nw_cut_3_0_2f_opt_disp_struct_15.xyz,Nucleus 17H :,1.277211,0.738478,2.267366,24.31,20.69,25.44,26.79,44.52,27.2,31.09,-19.01,-6.42,-4.45,20.69,25.44,26.79,0,6.1,0.56
nw_cut_3_0_2f_opt_disp_struct_15.xyz,Nucleus 18H :,1.685069,1.185094,3.070334,28.73,34.97,27.39,23.83,41.83,26.95,32.01,-0.16,-9.16,-5.28,23.83,27.39,34.97,0,11.14,-0.36
nw_cut_3_0_2f_opt_disp_struct_15.xyz,Nucleus 20H :,0.256546,-0.17788,2.332857,29.68,34.81,27.88,26.35,38.64,15.31,2.18,-4.23,24.73,12.42,26.35,27.88,34.81,0,8.46,-0.64
nw_cut_3_0_2f_opt_disp_struct_15.xyz,Nucleus 21H :,-0.010903,-0.601015,1.029406,29.93,25.72,30.38,33.7,42.94,31.85,21.98,-10.59,-0.88,4.49,25.72,30.38,33.7,0,7.98,0.17
nw_cut_3_0_2f_opt_disp_struct_15.xyz,Nucleus 25H :,-1.036476,-1.551442,0.843313,27.23,32.86,26.47,22.36,33.11,48.76,52.88,-3.5,-20.18,-29.37,22.36,26.47,32.86,0,10.5,-0.22
nw_cut_3_0_2f_opt_disp_struct_15.xyz,Nucleus 26H :,-1.341668,-1.994243,-0.384979,27.34,34.49,23.55,23.99,45.62,31.65,38.86,-2.61,-17.75,-13.74,23.55,23.99,34.49,0,10.94,-0.92
nw_cut_3_0_2f_opt_disp_struct_15.xyz,Nucleus 27H :,-1.752241,-2.048385,1.937243,29.57,34.01,27.6,27.09,38.16,10.81,20.14,-5.75,17.96,7.37,27.09,27.6,34.01,0,6.92,-0.85
nw_cut_3_0_2f_opt_disp_struct_15.xyz,Nucleus 0C :,-2.531144,-2.781879,1.763549,171.08,186.68,160.79,165.77,257.53,237.62,237.12,-77.59,-74.16,-67.29,160.79,165.77,186.68,0,25.89,-0.62
nw_cut_3_0_2f_opt_disp_struct_15.xyz,Nucleus 3C :,-1.459434,-1.606716,3.225493,61.91,148.32,53.04,-15.63,240.82,272.82,263.61,-92.52,-219.72,-279.29,-15.63,53.04,148.32,0,163.95,-0.16
nw_cut_3_0_2f_opt_disp_struct_15.xyz,Nucleus 4C :,-2.00573,-1.984855,4.082642,55.96,-28.0,127.42,68.45,273.79,256.79,258.47,-292.54,-129.97,-198.67,-28.0,68.45,127.42,0,155.42,0.24
nw_cut_3_0_2f_opt_disp_struct_15.xyz,Nucleus 7C :,-0.451567,-0.665956,3.432975,52.18,137.92,-2.38,20.99,259.15,272.68,266.66,-121.31,-274.88,-245.77,-2.38,20.99,137.92,0,140.3,-0.67
nw_cut_3_0_2f_opt_disp_struct_15.xyz,Nucleus 8C :,-0.173096,-0.241849,4.672149,58.4,158.23,21.98,-5.01,234.61,264.04,267.02,-76.55,-242.04,-271.87,-5.01,21.98,158.23,0,163.24,-0.67
nw_cut_3_0_2f_opt_disp_struct_15.xyz,Nucleus 9C :,2.458655,1.596247,0.698537,16.93,-58.8,76.21,33.37,235.66,265.38,267.5,-326.3,-159.45,-232.01,-58.8,33.37,76.21,0,135.01,0.37
nw_cut_3_0_2f_opt_disp_struct_15.xyz,Nucleus 11C :,0.040184,0.255565,-1.796704,69.86,161.74,-13.85,61.68,238.41,260.52,272.92,-76.8,-277.98,-207.49,-13.85,61.68,161.74,0,175.59,-0.14
nw_cut_3_0_2f_opt_disp_struct_15.xyz,Nucleus 13C :,5.691227,-6.837403,1.935161,67.8,163.58,54.8,-14.99,225.32,259.26,274.76,-61.82,-218.46,-275.66,-14.99,54.8,163.58,0,178.57,-0.22
nw_cut_3_0_2f_opt_disp_struct_15.xyz,Nucleus 15C :,6.613991,-7.161392,2.419818,26.96,82.84,35.44,-37.39,231.9,268.07,263.46,-149.08,-232.01,-301.45,-37.39,35.44,82.84,0,120.23,0.21
nw_cut_3_0_2f_opt_disp_struct_15.xyz,Nucleus 19C :,5.851054,-5.87001,1.449707,163.15,191.14,155.87,142.45,263.37,228.67,236.68,-70.49,-79.74,-89.03,142.45,155.87,191.14,0,48.69,-0.45
nw_cut_3_0_2f_opt_disp_struct_15.xyz,Nucleus 22C :,4.577504,-6.817948,2.942715,2.99,-92.55,94.2,7.33,188.01,251.8,270.52,-94.1,-345.31,-261.93,-92.55,7.33,94.2,0,186.75,0.07
nw_cut_3_0_2f_opt_disp_struct_15.xyz,Nucleus 5N :,4.460638,-7.65401,3.83054,123.29,55.06,184.4,130.41,294.37,337.02,329.73,-110.23,-206.05,-274.96,55.06,130.41,184.4,0,129.34,0.17
nw_cut_3_0_2f_opt_disp_struct_15.xyz,Nucleus 24N :,3.677109,-5.807025,2.798852,146.05,48.05,242.99,147.12,290.62,328.71,346.44,-280.64,-84.41,-162.56,48.05,147.12,242.99,0,194.94,0.02
nw_cut_3_0_2f_opt_disp_struct_15.xyz,Nucleus 23O :,3.664834,-5.322474,1.923768,-113.26,317.26,-240.07,-416.97,326.1,379.48,427.81,-9.29,-621.2,-842.67,-416.97,-240.07,317.26,0,734.23,-0.52
nw_cut_3_0_2f_opt_disp_struct_15.xyz,Nucleus 10F :,2.80721,-5.93946,3.279308,307.79,403.08,226.79,293.51,485.41,459.46,466.76,-63.7,-232.87,-191.7,226.79,293.51,403.08,0,176.29,-0.24
nw_cut_3_0_2f_opt_disp_struct_15.xyz,Nucleus 16F :,5.448488,-7.577424,1.16488,325.67,414.45,257.24,305.31,485.29,460.02,467.21,-52.76,-202.91,-179.85,257.24,305.31,414.45,0,157.21,-0.39
nw_cut_3_0_2f_opt_disp_struct_16.xyz,Nucleus 1H :,0.981603,-0.028498,-1.314615,29.17,35.24,23.5,28.78,40.77,26.11,29.06,-6.53,0.36,-2.24,23.5,28.78,35.24,0,11.74,-0.1
nw_cut_3_0_2f_opt_disp_struct_16.xyz,Nucleus 2H :,1.771506,0.614618,-1.710604,28.77,23.92,27.58,34.82,45.22,25.37,26.7,-11.31,1.97,-1.62,23.92,27.58,34.82,0,10.9,-0.33
nw_cut_3_0_2f_opt_disp_struct_16.xyz,Nucleus 6H :,1.197844,-1.056865,-1.623284,23.82,15.44,25.34,30.67,11.2,30.37,49.19,-18.88,4.41,-4.84,15.44,25.34,30.67,0,15.23,0.3
nw_cut_3_0_2f_opt_disp_struct_16.xyz,Nucleus 12H :,0.894234,0.094003,0.16423,24.44,20.51,25.15,27.65,46.65,18.45,30.94,-21.47,2.13,-3.39,20.51,25.15,27.65,0,7.14,0.3
nw_cut_3_0_2f_opt_disp_struct_16.xyz,Nucleus 14H :,1.667686,0.911859,0.966454,24.33,20.49,27.33,25.18,6.07,33.01,44.01,14.45,-5.77,-18.77,20.49,25.18,27.33,0,6.84,0.37
nw_cut_3_0_2f_opt_disp_struct_16.xyz,Nucleus 17H :,1.277211,0.738478,2.267366,24.31,20.69,25.43,26.8,44.49,27.2,31.07,-18.98,-6.42,-4.43,20.69,25.43,26.8,0,6.11,0.55
nw_cut_3_0_2f_opt_disp_struct_16.xyz,Nucleus 18H :,1.685069,1.185094,3.070334,28.72,34.96,27.39,23.82,41.82,26.93,31.99,-0.14,-9.16,-5.25,23.82,27.39,34.96,0,11.14,-0.36
nw_cut_3_0_2f_opt_disp_struct_16.xyz,Nucleus 20H :,0.256546,-0.17788,2.332857,29.67,34.78,27.89,26.35,38.59,15.06,1.46,-4.23,25.46,12.67,26.35,27.89,34.78,0,8.43,-0.63
nw_cut_3_0_2f_opt_disp_struct_16.xyz,Nucleus 21H :,-0.010903,-0.601015,1.029406,29.92,25.74,30.31,33.71,43.22,31.7,21.75,-10.9,-0.79,4.78,25.74,30.31,33.71,0,7.97,0.15
nw_cut_3_0_2f_opt_disp_struct_16.xyz,Nucleus 25H :,-1.036476,-1.551442,0.843313,27.2,32.73,26.47,22.4,33.09,48.99,53.71,-3.49,-20.44,-30.27,22.4,26.47,32.73,0,10.33,-0.21
nw_cut_3_0_2f_opt_disp_struct_16.xyz,Nucleus 26H :,-1.341668,-1.994243,-0.384979,27.31,34.46,23.55,23.93,31.56,46.08,39.53,-2.66,-18.49,-14.07,23.55,23.93,34.46,0,10.91,-0.93
nw_cut_3_0_2f_opt_disp_struct_16.xyz,Nucleus 27H :,-1.752241,-2.048385,1.937243,29.56,34.0,27.57,27.1,38.21,10.21,19.97,-5.85,18.58,7.56,27.1,27.57,34.0,0,6.9,-0.87
nw_cut_3_0_2f_opt_disp_struct_16.xyz,Nucleus 0C :,-2.531144,-2.781879,1.763549,171.08,186.69,160.79,165.75,257.49,237.62,237.08,-77.54,-74.14,-67.27,160.79,165.75,186.69,0,25.9,-0.62
nw_cut_3_0_2f_opt_disp_struct_16.xyz,Nucleus 3C :,-1.459434,-1.606716,3.225493,61.89,148.31,53.02,-15.65,240.79,272.73,263.58,-92.49,-219.65,-279.27,-15.65,53.02,148.31,0,163.96,-0.16
nw_cut_3_0_2f_opt_disp_struct_16.xyz,Nucleus 4C :,-2.00573,-1.984855,4.082642,55.98,-27.98,127.4,68.51,273.75,256.74,258.48,-292.51,-129.99,-198.55,-27.98,68.51,127.4,0,155.38,0.24
nw_cut_3_0_2f_opt_disp_struct_16.xyz,Nucleus 7C :,-0.451567,-0.665956,3.432975,52.18,137.9,-2.36,20.99,259.12,272.56,266.62,-121.31,-274.72,-245.74,-2.36,20.99,137.9,0,140.26,-0.67
nw_cut_3_0_2f_opt_disp_struct_16.xyz,Nucleus 8C :,-0.173096,-0.241849,4.672149,58.4,158.22,21.98,-5.01,234.58,263.97,266.89,-76.54,-241.97,-271.76,-5.01,21.98,158.22,0,163.23,-0.67
nw_cut_3_0_2f_opt_disp_struct_16.xyz,Nucleus 9C :,2.458655,1.596247,0.698537,16.91,-58.81,76.19,33.36,235.62,265.34,267.35,-326.16,-159.43,-231.97,-58.81,33.36,76.19,0,135.0,0.37
nw_cut_3_0_2f_opt_disp_struct_16.xyz,Nucleus 11C :,0.040184,0.255565,-1.796704,69.86,161.72,-13.84,61.7,238.38,260.45,272.81,-76.78,-277.84,-207.43,-13.84,61.7,161.72,0,175.56,-0.14
nw_cut_3_0_2f_opt_disp_struct_16.xyz,Nucleus 13C :,5.857966,-7.021899,1.960841,67.8,163.55,54.84,-14.98,225.3,259.25,274.61,-61.83,-218.31,-275.62,-14.98,54.84,163.55,0,178.53,-0.22
nw_cut_3_0_2f_opt_disp_struct_16.xyz,Nucleus 15C :,6.780729,-7.345888,2.445499,26.97,82.81,35.47,-37.36,231.89,267.96,263.41,-149.1,-231.92,-301.32,-37.36,35.47,82.81,0,120.17,0.21
nw_cut_3_0_2f_opt_disp_struct_16.xyz,Nucleus 19C :,6.017792,-6.054507,1.475387,163.15,191.14,155.84,142.47,263.7,228.22,236.38,-70.68,-79.5,-88.69,142.47,155.84,191.14,0,48.67,-0.45
nw_cut_3_0_2f_opt_disp_struct_16.xyz,Nucleus 22C :,4.744243,-7.002444,2.968395,2.98,-92.61,94.22,7.34,187.21,251.74,270.66,-93.29,-345.29,-262.08,-92.61,7.34,94.22,0,186.83,0.07
nw_cut_3_0_2f_opt_disp_struct_16.xyz,Nucleus 5N :,4.627377,-7.838506,3.85622,123.33,55.12,184.38,130.48,294.35,337.0,329.65,-110.23,-205.97,-274.81,55.12,130.48,184.38,0,129.26,0.17
nw_cut_3_0_2f_opt_disp_struct_16.xyz,Nucleus 24N :,3.843847,-5.991521,2.824532,146.07,48.16,242.91,147.13,290.15,328.84,347.06,-280.64,-83.97,-163.24,48.16,147.13,242.91,0,194.75,0.02
nw_cut_3_0_2f_opt_disp_struct_16.xyz,Nucleus 23O :,3.831573,-5.506971,1.949448,-113.39,317.22,-240.2,-417.2,325.29,379.36,427.89,-8.53,-621.21,-842.99,-417.2,-240.2,317.22,0,734.42,-0.52
nw_cut_3_0_2f_opt_disp_struct_16.xyz,Nucleus 10F :,2.973948,-6.123957,3.304988,307.77,403.06,226.75,293.51,485.34,459.44,466.74,-63.69,-232.88,-191.63,226.75,293.51,403.06,0,176.31,-0.24
nw_cut_3_0_2f_opt_disp_struct_16.xyz,Nucleus 16F :,5.615226,-7.761921,1.19056,325.76,414.47,257.41,305.41,485.22,460.02,467.18,-52.7,-202.74,-179.69,257.41,305.41,414.47,0,157.06,-0.39
nw_cut_3_0_2f_opt_disp_struct_17.xyz,Nucleus 1H :,0.981603,-0.028498,-1.314615,29.18,35.24,23.5,28.79,40.75,26.11,29.04,-6.5,0.37,-2.23,23.5,28.79,35.24,0,11.74,-0.1
nw_cut_3_0_2f_opt_disp_struct_17.xyz,Nucleus 2H :,1.771506,0.614618,-1.710604,28.78,23.92,27.58,34.83,45.17,25.33,26.69,-11.27,2.01,-1.6,23.92,27.58,34.83,0,10.91,-0.33
nw_cut_3_0_2f_opt_disp_struct_17.xyz,Nucleus 6H :,1.197844,-1.056865,-1.623284,23.82,15.44,25.35,30.67,11.21,30.37,49.12,-18.81,4.4,-4.83,15.44,25.35,30.67,0,15.23,0.3
nw_cut_3_0_2f_opt_disp_struct_17.xyz,Nucleus 12H :,0.894234,0.094003,0.16423,24.43,20.5,25.15,27.65,46.57,18.43,30.9,-21.38,2.14,-3.35,20.5,25.15,27.65,0,7.15,0.3
nw_cut_3_0_2f_opt_disp_struct_17.xyz,Nucleus 14H :,1.667686,0.911859,0.966454,24.33,20.48,27.34,25.18,6.06,32.93,44.0,14.45,-5.68,-18.75,20.48,25.18,27.34,0,6.86,0.37
nw_cut_3_0_2f_opt_disp_struct_17.xyz,Nucleus 17H :,1.277211,0.738478,2.267366,24.31,20.69,25.44,26.81,44.47,27.19,31.05,-18.96,-6.42,-4.4,20.69,25.44,26.81,0,6.12,0.55
nw_cut_3_0_2f_opt_disp_struct_17.xyz,Nucleus 18H :,1.685069,1.185094,3.070334,28.73,34.96,27.4,23.83,41.81,26.91,31.97,-0.12,-9.16,-5.23,23.83,27.4,34.96,0,11.13,-0.36
nw_cut_3_0_2f_opt_disp_struct_17.xyz,Nucleus 20H :,0.256546,-0.17788,2.332857,29.66,34.75,27.89,26.34,38.55,14.81,0.75,-4.24,26.19,12.93,26.34,27.89,34.75,0,8.41,-0.63
nw_cut_3_0_2f_opt_disp_struct_17.xyz,Nucleus 21H :,-0.010903,-0.601015,1.029406,29.91,25.75,30.26,33.71,43.51,31.56,21.5,-11.22,-0.7,5.07,25.75,30.26,33.71,0,7.96,0.13
nw_cut_3_0_2f_opt_disp_struct_17.xyz,Nucleus 25H :,-1.036476,-1.551442,0.843313,27.17,32.61,26.47,22.42,33.07,49.22,54.55,-3.48,-20.71,-31.15,22.42,26.47,32.61,0,10.19,-0.21
nw_cut_3_0_2f_opt_disp_struct_17.xyz,Nucleus 26H :,-1.341668,-1.994243,-0.384979,27.29,34.44,23.54,23.89,31.48,46.54,40.17,-2.7,-19.25,-14.37,23.54,23.89,34.44,0,10.9,-0.94
nw_cut_3_0_2f_opt_disp_struct_17.xyz,Nucleus 27H :,-1.752241,-2.048385,1.937243,29.55,33.99,27.55,27.1,38.26,9.6,19.79,-5.95,19.2,7.74,27.1,27.55,33.99,0,6.89,-0.87
nw_cut_3_0_2f_opt_disp_struct_17.xyz,Nucleus 0C :,-2.531144,-2.781879,1.763549,171.08,186.7,160.8,165.75,257.45,237.63,237.05,-77.5,-74.13,-67.27,160.8,165.75,186.7,0,25.9,-0.62
nw_cut_3_0_2f_opt_disp_struct_17.xyz,Nucleus 3C :,-1.459434,-1.606716,3.225493,61.88,148.3,53.0,-15.66,240.76,272.64,263.54,-92.48,-219.57,-279.25,-15.66,53.0,148.3,0,163.96,-0.16
nw_cut_3_0_2f_opt_disp_struct_17.xyz,Nucleus 4C :,-2.00573,-1.984855,4.082642,55.99,-27.96,127.39,68.54,273.69,256.67,258.54,-292.49,-130.0,-198.44,-27.96,68.54,127.39,0,155.35,0.24
nw_cut_3_0_2f_opt_disp_struct_17.xyz,Nucleus 7C :,-0.451567,-0.665956,3.432975,52.18,137.88,-2.35,21.02,259.1,272.44,266.59,-121.32,-274.58,-245.7,-2.35,21.02,137.88,0,140.23,-0.67
nw_cut_3_0_2f_opt_disp_struct_17.xyz,Nucleus 8C :,-0.173096,-0.241849,4.672149,58.38,158.2,21.97,-5.02,234.55,263.9,266.78,-76.52,-241.91,-271.65,-5.02,21.97,158.2,0,163.22,-0.67
nw_cut_3_0_2f_opt_disp_struct_17.xyz,Nucleus 9C :,2.458655,1.596247,0.698537,16.89,-58.84,76.17,33.35,235.59,265.29,267.19,-326.02,-159.43,-231.93,-58.84,33.35,76.17,0,135.01,0.37
nw_cut_3_0_2f_opt_disp_struct_17.xyz,Nucleus 11C :,0.040184,0.255565,-1.796704,69.85,161.68,-13.84,61.7,238.35,260.4,272.68,-76.78,-277.71,-207.38,-13.84,61.7,161.68,0,175.52,-0.14
nw_cut_3_0_2f_opt_disp_struct_17.xyz,Nucleus 13C :,6.024704,-7.206395,1.986521,67.81,163.52,54.86,-14.96,225.27,259.25,274.47,-61.83,-218.17,-275.58,-14.96,54.86,163.52,0,178.48,-0.22
nw_cut_3_0_2f_opt_disp_struct_17.xyz,Nucleus 15C :,6.947467,-7.530384,2.471179,26.98,82.78,35.49,-37.34,231.87,267.85,263.37,-149.11,-231.84,-301.21,-37.34,35.49,82.78,0,120.12,0.21
nw_cut_3_0_2f_opt_disp_struct_17.xyz,Nucleus 19C :,6.184531,-6.239003,1.501067,163.13,191.13,155.79,142.47,264.04,227.78,236.09,-70.86,-79.27,-88.38,142.47,155.79,191.13,0,48.66,-0.45
nw_cut_3_0_2f_opt_disp_struct_17.xyz,Nucleus 22C :,4.910981,-7.18694,2.994075,2.97,-92.67,94.23,7.34,186.39,251.68,270.81,-92.49,-345.25,-262.24,-92.67,7.34,94.23,0,186.9,0.07
nw_cut_3_0_2f_opt_disp_struct_17.xyz,Nucleus 5N :,4.794115,-8.023002,3.8819,123.35,55.17,184.36,130.53,294.32,336.98,329.57,-110.22,-205.92,-274.68,55.17,130.53,184.36,0,129.19,0.17
nw_cut_3_0_2f_opt_disp_struct_17.xyz,Nucleus 24N :,4.010585,-6.176018,2.850212,146.07,48.24,242.82,147.16,289.63,328.97,347.73,-280.67,-83.53,-163.9,48.24,147.16,242.82,0,194.58,0.02
nw_cut_3_0_2f_opt_disp_struct_17.xyz,Nucleus 23O :,3.998311,-5.691467,1.975128,-113.45,317.27,-240.28,-417.35,324.48,379.23,427.99,-7.67,-621.17,-843.22,-417.35,-240.28,317.27,0,734.62,-0.52
nw_cut_3_0_2f_opt_disp_struct_17.xyz,Nucleus 10F :,3.140686,-6.308453,3.330668,307.77,403.05,226.74,293.52,485.26,459.43,466.72,-63.68,-232.86,-191.55,226.74,293.52,403.05,0,176.31,-0.24
nw_cut_3_0_2f_opt_disp_struct_17.xyz,Nucleus 16F :,5.781964,-7.946417,1.21624,325.82,414.45,257.53,305.49,485.18,460.02,467.11,-52.66,-202.62,-179.56,257.53,305.49,414.45,0,156.92,-0.39
nw_cut_3_0_2f_opt_disp_struct_18.xyz,Nucleus 1H :,0.981603,-0.028498,-1.314615,29.18,35.24,23.5,28.79,40.73,26.1,29.02,-6.48,0.39,-2.23,23.5,28.79,35.24,0,11.74,-0.1
nw_cut_3_0_2f_opt_disp_struct_18.xyz,Nucleus 2H :,1.771506,0.614618,-1.710604,28.78,23.91,27.58,34.84,45.12,25.3,26.67,-11.23,2.04,-1.58,23.91,27.58,34.84,0,10.93,-0.33
nw_cut_3_0_2f_opt_disp_struct_18.xyz,Nucleus 6H :,1.197844,-1.056865,-1.623284,23.82,15.43,25.35,30.68,11.21,30.36,49.05,-18.73,4.39,-4.81,15.43,25.35,30.68,0,15.25,0.3
nw_cut_3_0_2f_opt_disp_struct_18.xyz,Nucleus 12H :,0.894234,0.094003,0.16423,24.44,20.49,25.16,27.66,46.49,18.41,30.87,-21.29,2.14,-3.31,20.49,25.16,27.66,0,7.17,0.3
nw_cut_3_0_2f_opt_disp_struct_18.xyz,Nucleus 14H :,1.667686,0.911859,0.966454,24.33,20.47,27.35,25.18,6.05,32.85,43.99,14.45,-5.59,-18.74,20.47,25.18,27.35,0,6.88,0.37
nw_cut_3_0_2f_opt_disp_struct_18.xyz,Nucleus 17H :,1.277211,0.738478,2.267366,24.31,20.69,25.44,26.81,44.45,27.19,31.02,-18.94,-6.43,-4.37,20.69,25.44,26.81,0,6.12,0.55
nw_cut_3_0_2f_opt_disp_struct_18.xyz,Nucleus 18H :,1.685069,1.185094,3.070334,28.73,34.96,27.4,23.83,41.81,26.89,31.95,-0.1,-9.16,-5.2,23.83,27.4,34.96,0,11.13,-0.36
nw_cut_3_0_2f_opt_disp_struct_18.xyz,Nucleus 20H :,0.256546,-0.17788,2.332857,29.66,34.73,27.9,26.34,38.51,14.56,0.03,-4.24,26.92,13.19,26.34,27.9,34.73,0,8.39,-0.63
nw_cut_3_0_2f_opt_disp_struct_18.xyz,Nucleus 21H :,-0.010903,-0.601015,1.029406,29.89,25.76,30.2,33.72,43.79,31.42,21.25,-11.53,-0.62,5.36,25.76,30.2,33.72,0,7.96,0.12
nw_cut_3_0_2f_opt_disp_struct_18.xyz,Nucleus 25H :,-1.036476,-1.551442,0.843313,27.14,32.51,26.47,22.44,33.04,49.44,55.4,-3.46,-20.97,-32.03,22.44,26.47,32.51,0,10.07,-0.2
nw_cut_3_0_2f_opt_disp_struct_18.xyz,Nucleus 26H :,-1.341668,-1.994243,-0.384979,27.26,34.42,23.86,23.51,31.41,47.02,40.76,-2.74,-20.01,-14.65,23.51,23.86,34.42,0,10.91,-0.93
nw_cut_3_0_2f_opt_disp_struct_18.xyz,Nucleus 27H :,-1.752241,-2.048385,1.937243,29.54,33.99,27.53,27.1,38.32,8.99,19.62,-6.06,19.83,7.93,27.1,27.53,33.99,0,6.89,-0.88
nw_cut_3_0_2f_opt_disp_struct_18.xyz,Nucleus 0C :,-2.531144,-2.781879,1.763549,171.08,186.7,160.8,165.74,257.42,237.63,237.01,-77.45,-74.12,-67.25,160.8,165.74,186.7,0,25.9,-0.62
nw_cut_3_0_2f_opt_disp_struct_18.xyz,Nucleus 3C :,-1.459434,-1.606716,3.225493,61.86,148.28,52.99,-15.68,240.73,272.55,263.51,-92.47,-219.5,-279.23,-15.68,52.99,148.28,0,163.96,-0.16
nw_cut_3_0_2f_opt_disp_struct_18.xyz,Nucleus 4C :,-2.00573,-1.984855,4.082642,56.01,-27.94,127.38,68.58,273.65,256.63,258.53,-292.46,-130.0,-198.34,-27.94,68.58,127.38,0,155.32,0.24
nw_cut_3_0_2f_opt_disp_struct_18.xyz,Nucleus 7C :,-0.451567,-0.665956,3.432975,52.18,137.86,-2.34,21.02,259.09,272.34,266.55,-121.32,-274.45,-245.66,-2.34,21.02,137.86,0,140.2,-0.67
nw_cut_3_0_2f_opt_disp_struct_18.xyz,Nucleus 8C :,-0.173096,-0.241849,4.672149,58.38,158.18,21.97,-5.02,234.52,263.85,266.67,-76.51,-241.86,-271.55,-5.02,21.97,158.18,0,163.2,-0.67
nw_cut_3_0_2f_opt_disp_struct_18.xyz,Nucleus 9C :,2.458655,1.596247,0.698537,16.89,-58.84,76.15,33.35,235.57,265.25,267.06,-325.9,-159.42,-231.9,-58.84,33.35,76.15,0,134.99,0.37
nw_cut_3_0_2f_opt_disp_struct_18.xyz,Nucleus 11C :,0.040184,0.255565,-1.796704,69.85,161.67,-13.83,61.72,238.32,260.34,272.58,-76.77,-277.59,-207.32,-13.83,61.72,161.67,0,175.5,-0.14
nw_cut_3_0_2f_opt_disp_struct_18.xyz,Nucleus 13C :,6.191442,-7.390891,2.012202,67.81,163.5,54.89,-14.96,225.25,259.24,274.34,-61.83,-218.02,-275.54,-14.96,54.89,163.5,0,178.46,-0.22
nw_cut_3_0_2f_opt_disp_struct_18.xyz,Nucleus 15C :,7.114206,-7.71488,2.496859,26.98,82.76,35.51,-37.32,231.86,267.75,263.32,-149.11,-231.76,-301.11,-37.32,35.51,82.76,0,120.08,0.21
nw_cut_3_0_2f_opt_disp_struct_18.xyz,Nucleus 19C :,6.351269,-6.423499,1.526747,163.12,191.12,155.76,142.48,264.36,227.32,235.8,-71.01,-79.05,-88.07,142.48,155.76,191.12,0,48.64,-0.45
nw_cut_3_0_2f_opt_disp_struct_18.xyz,Nucleus 22C :,5.077719,-7.371437,3.019755,2.96,-92.72,94.24,7.35,185.58,251.61,270.97,-91.67,-345.21,-262.39,-92.72,7.35,94.24,0,186.96,0.07
nw_cut_3_0_2f_opt_disp_struct_18.xyz,Nucleus 5N :,4.960853,-8.207499,3.90758,123.38,55.23,184.34,130.58,294.31,336.96,329.49,-110.21,-205.85,-274.55,55.23,130.58,184.34,0,129.11,0.17
nw_cut_3_0_2f_opt_disp_struct_18.xyz,Nucleus 24N :,4.177324,-6.360514,2.875892,146.09,48.33,242.76,147.18,289.1,329.09,348.41,-280.7,-83.07,-164.56,48.33,147.18,242.76,0,194.43,0.02
nw_cut_3_0_2f_opt_disp_struct_18.xyz,Nucleus 23O :,4.165049,-5.875963,2.000808,-113.54,317.27,-240.38,-417.52,323.63,379.11,428.08,-6.83,-621.13,-843.48,-417.52,-240.38,317.27,0,734.79,-0.52
nw_cut_3_0_2f_opt_disp_struct_18.xyz,Nucleus 10F :,3.307425,-6.492949,3.356348,307.75,403.03,226.71,293.51,485.18,459.4,466.7,-63.68,-232.87,-191.49,226.71,293.51,403.03,0,176.32,-0.24
nw_cut_3_0_2f_opt_disp_struct_18.xyz,Nucleus 16F :,5.948702,-8.130913,1.24192,325.89,414.47,257.65,305.56,485.11,460.01,467.09,-52.62,-202.49,-179.44,257.65,305.56,414.47,0,156.82,-0.39
nw_cut_3_0_2f_opt_disp_struct_19.xyz,Nucleus 1H :,0.981603,-0.028498,-1.314615,29.18,35.24,23.5,28.8,40.71,26.1,29.0,-6.46,0.41,-2.22,23.5,28.8,35.24,0,11.74,-0.1
nw_cut_3_0_2f_opt_disp_struct_19.xyz,Nucleus 2H :,1.771506,0.614618,-1.710604,28.77,23.9,27.58,34.84,45.07,25.26,26.65,-11.19,2.08,-1.56,23.9,27.58,34.84,0,10.94,-0.33
nw_cut_3_0_2f_opt_disp_struct_19.xyz,Nucleus 6H :,1.197844,-1.056865,-1.623284,23.82,15.43,25.36,30.68,11.21,30.35,48.99,-18.66,4.38,-4.8,15.43,25.36,30.68,0,15.25,0.3
nw_cut_3_0_2f_opt_disp_struct_19.xyz,Nucleus 12H :,0.894234,0.094003,0.16423,24.44,20.48,25.16,27.67,46.42,18.4,30.83,-21.2,2.14,-3.27,20.48,25.16,27.67,0,7.19,0.3
nw_cut_3_0_2f_opt_disp_struct_19.xyz,Nucleus 14H :,1.667686,0.911859,0.966454,24.34,20.46,27.36,25.19,6.03,32.77,43.98,14.45,-5.5,-18.72,20.46,25.19,27.36,0,6.9,0.37
nw_cut_3_0_2f_opt_disp_struct_19.xyz,Nucleus 17H :,1.277211,0.738478,2.267366,24.31,20.68,25.44,26.82,44.43,27.18,31.0,-18.91,-6.43,-4.33,20.68,25.44,26.82,0,6.14,0.55
nw_cut_3_0_2f_opt_disp_struct_19.xyz,Nucleus 18H :,1.685069,1.185094,3.070334,28.73,34.95,27.41,23.83,41.8,26.86,31.93,-0.07,-9.15,-5.17,23.83,27.41,34.95,0,11.12,-0.36
nw_cut_3_0_2f_opt_disp_struct_19.xyz,Nucleus 20H :,0.256546,-0.17788,2.332857,29.65,34.71,27.9,26.34,38.48,14.3,-0.69,-4.24,27.65,13.45,26.34,27.9,34.71,0,8.37,-0.63
nw_cut_3_0_2f_opt_disp_struct_19.xyz,Nucleus 21H :,-0.010903,-0.601015,1.029406,29.89,25.77,30.16,33.73,44.07,31.3,21.0,-11.84,-0.54,5.67,25.77,30.16,33.73,0,7.96,0.1
nw_cut_3_0_2f_opt_disp_struct_19.xyz,Nucleus 25H :,-1.036476,-1.551442,0.843313,27.12,32.42,26.47,22.46,33.01,49.66,56.25,-3.43,-21.23,-32.9,22.46,26.47,32.42,0,9.96,-0.2
nw_cut_3_0_2f_opt_disp_struct_19.xyz,Nucleus 26H :,-1.341668,-1.994243,-0.384979,27.24,34.41,23.85,23.47,31.36,47.51,41.32,-2.76,-20.77,-14.91,23.47,23.85,34.41,0,10.94,-0.93
nw_cut_3_0_2f_opt_disp_struct_19.xyz,Nucleus 27H :,-1.752241,-2.048385,1.937243,29.53,33.98,27.51,27.11,38.38,8.38,19.44,-6.16,20.45,8.11,27.11,27.51,33.98,0,6.87,-0.88
nw_cut_3_0_2f_opt_disp_struct_19.xyz,Nucleus 0C :,-2.531144,-2.781879,1.763549,171.08,186.71,160.81,165.73,257.38,237.63,236.98,-77.4,-74.1,-67.24,160.81,165.73,186.71,0,25.9,-0.62
nw_cut_3_0_2f_opt_disp_struct_19.xyz,Nucleus 3C :,-1.459434,-1.606716,3.225493,61.85,148.27,52.98,-15.69,240.71,272.47,263.47,-92.46,-219.43,-279.21,-15.69,52.98,148.27,0,163.96,-0.16
nw_cut_3_0_2f_opt_disp_struct_19.xyz,Nucleus 4C :,-2.00573,-1.984855,4.082642,56.02,-27.93,127.37,68.61,273.61,256.58,258.55,-292.44,-130.01,-198.25,-27.93,68.61,127.37,0,155.3,0.24
nw_cut_3_0_2f_opt_disp_struct_19.xyz,Nucleus 7C :,-0.451567,-0.665956,3.432975,52.18,137.84,-2.33,21.03,259.07,272.24,266.5,-121.33,-274.33,-245.62,-2.33,21.03,137.84,0,140.17,-0.67
nw_cut_3_0_2f_opt_disp_struct_19.xyz,Nucleus 8C :,-0.173096,-0.241849,4.672149,58.37,158.16,21.97,-5.03,234.49,263.79,266.57,-76.5,-241.81,-271.44,-5.03,21.97,158.16,0,163.19,-0.67
nw_cut_3_0_2f_opt_disp_struct_19.xyz,Nucleus 9C :,2.458655,1.596247,0.698537,16.87,-58.86,76.13,33.34,235.55,265.21,266.93,-325.78,-159.42,-231.87,-58.86,33.34,76.13,0,134.99,0.37
nw_cut_3_0_2f_opt_disp_struct_19.xyz,Nucleus 11C :,0.040184,0.255565,-1.796704,69.85,161.65,-13.83,61.73,238.3,260.28,272.48,-76.76,-277.48,-207.28,-13.83,61.73,161.65,0,175.48,-0.14
nw_cut_3_0_2f_opt_disp_struct_19.xyz,Nucleus 13C :,6.358181,-7.575388,2.037882,67.82,163.48,54.92,-14.95,225.23,259.23,274.22,-61.83,-217.9,-275.51,-14.95,54.92,163.48,0,178.43,-0.22
nw_cut_3_0_2f_opt_disp_struct_19.xyz,Nucleus 15C :,7.280944,-7.899377,2.522539,26.99,82.74,35.52,-37.3,231.84,267.65,263.28,-149.12,-231.68,-301.01,-37.3,35.52,82.74,0,120.04,0.21
nw_cut_3_0_2f_opt_disp_struct_19.xyz,Nucleus 19C :,6.518007,-6.607995,1.552427,163.11,191.12,155.73,142.48,264.69,226.87,235.52,-71.15,-78.83,-87.77,142.48,155.73,191.12,0,48.64,-0.46
nw_cut_3_0_2f_opt_disp_struct_19.xyz,Nucleus 22C :,5.244457,-7.555933,3.045435,2.95,-92.76,94.25,7.35,184.75,251.54,271.14,-90.86,-345.16,-262.56,-92.76,7.35,94.25,0,187.01,0.07
nw_cut_3_0_2f_opt_disp_struct_19.xyz,Nucleus 5N :,5.127591,-8.391995,3.93326,123.41,55.27,184.34,130.62,294.29,336.95,329.42,-110.21,-205.8,-274.43,55.27,130.62,184.34,0,129.07,0.17
nw_cut_3_0_2f_opt_disp_struct_19.xyz,Nucleus 24N :,4.344062,-6.54501,2.901572,146.1,48.4,242.7,147.19,288.56,329.2,349.12,-280.74,-82.62,-165.23,48.4,147.19,242.7,0,194.3,0.02
nw_cut_3_0_2f_opt_disp_struct_19.xyz,Nucleus 23O :,4.331787,-6.060459,2.026488,-113.6,317.28,-240.45,-417.64,322.8,378.98,428.18,-5.99,-621.07,-843.7,-417.64,-240.45,317.28,0,734.92,-0.52
nw_cut_3_0_2f_opt_disp_struct_19.xyz,Nucleus 10F :,3.474163,-6.677445,3.382028,307.74,403.02,226.69,293.51,485.11,459.38,466.69,-63.68,-232.86,-191.43,226.69,293.51,403.02,0,176.33,-0.24
nw_cut_3_0_2f_opt_disp_struct_19.xyz,Nucleus 16F :,6.115441,-8.315409,1.2676,325.94,414.47,257.74,305.61,485.06,460.01,467.06,-52.59,-202.38,-179.33,257.74,305.61,414.47,0,156.73,-0.39
nw_cut_3_0_2f_opt_disp_struct_2.xyz,Nucleus 1H :,0.981603,-0.028498,-1.314615,29.1,35.3,23.44,28.57,41.21,25.98,28.88,-7.05,0.58,-2.29,23.44,28.57,35.3,0,11.86,-0.13
nw_cut_3_0_2f_opt_disp_struct_2.xyz,Nucleus 2H :,1.771506,0.614618,-1.710604,28.76,34.56,23.99,27.74,45.82,25.49,27.16,-12.17,1.25,-1.26,23.99,27.74,34.56,0,10.57,-0.29
nw_cut_3_0_2f_opt_disp_struct_2.xyz,Nucleus 6H :,1.197844,-1.056865,-1.623284,23.68,15.41,25.08,30.55,49.87,10.66,29.86,-19.82,5.12,-4.66,15.41,25.08,30.55,0,15.14,0.28
nw_cut_3_0_2f_opt_disp_struct_2.xyz,Nucleus 12H :,0.894234,0.094003,0.16423,24.41,20.65,25.21,27.37,47.95,19.41,31.32,-23.0,1.68,-4.14,20.65,25.21,27.37,0,6.72,0.36
nw_cut_3_0_2f_opt_disp_struct_2.xyz,Nucleus 14H :,1.667686,0.911859,0.966454,24.29,20.64,26.89,25.33,6.46,33.47,44.12,14.39,-6.7,-18.89,20.64,25.33,26.89,0,6.25,0.5
nw_cut_3_0_2f_opt_disp_struct_2.xyz,Nucleus 17H :,1.277211,0.738478,2.267366,24.22,20.61,25.45,26.59,44.61,27.1,31.13,-19.14,-6.29,-4.76,20.61,25.45,26.59,0,5.98,0.62
nw_cut_3_0_2f_opt_disp_struct_2.xyz,Nucleus 18H :,1.685069,1.185094,3.070334,28.69,35.11,27.27,23.69,42.02,27.36,32.22,-0.62,-9.28,-5.61,23.69,27.27,35.11,0,11.42,-0.37
nw_cut_3_0_2f_opt_disp_struct_2.xyz,Nucleus 20H :,0.256546,-0.17788,2.332857,30.01,35.74,27.82,26.46,40.09,17.97,11.18,-4.52,9.7,15.6,26.46,27.82,35.74,0,9.28,-0.71
nw_cut_3_0_2f_opt_disp_struct_2.xyz,Nucleus 21H :,-0.010903,-0.601015,1.029406,30.39,25.26,32.13,33.78,23.89,35.31,39.25,-6.55,-2.65,1.92,25.26,32.13,33.78,0,8.52,0.61
nw_cut_3_0_2f_opt_disp_struct_2.xyz,Nucleus 25H :,-1.036476,-1.551442,0.843313,28.69,39.4,20.73,25.95,52.59,30.8,36.24,-0.76,-14.8,-17.99,20.73,25.95,39.4,0,18.67,-0.44
nw_cut_3_0_2f_opt_disp_struct_2.xyz,Nucleus 26H :,-1.341668,-1.994243,-0.384979,28.56,37.41,26.3,21.97,25.48,38.59,37.24,1.28,-5.91,-11.01,21.97,26.3,37.41,0,15.44,-0.44
nw_cut_3_0_2f_opt_disp_struct_2.xyz,Nucleus 27H :,-1.752241,-2.048385,1.937243,29.84,34.39,28.21,26.91,38.16,18.82,22.17,9.89,5.21,-4.74,26.91,28.21,34.39,0,7.48,-0.65
nw_cut_3_0_2f_opt_disp_struct_2.xyz,Nucleus 0C :,-2.531144,-2.781879,1.763549,171.1,186.66,160.64,165.99,258.29,237.57,238.08,-78.51,-74.63,-67.52,160.64,165.99,186.66,0,26.02,-0.59
nw_cut_3_0_2f_opt_disp_struct_2.xyz,Nucleus 3C :,-1.459434,-1.606716,3.225493,62.45,148.55,53.45,-14.64,242.42,275.54,264.47,-93.89,-222.08,-279.08,-14.64,53.45,148.55,0,163.19,-0.17
nw_cut_3_0_2f_opt_disp_struct_2.xyz,Nucleus 4C :,-2.00573,-1.984855,4.082642,54.93,-29.28,127.75,66.32,275.1,257.29,257.98,-294.04,-129.77,-201.79,-29.28,66.32,127.75,0,157.03,0.22
nw_cut_3_0_2f_opt_disp_struct_2.xyz,Nucleus 7C :,-0.451567,-0.665956,3.432975,51.31,138.82,-4.31,19.41,276.32,260.82,267.61,-122.72,-280.32,-247.78,-4.31,19.41,138.82,0,143.13,-0.67
nw_cut_3_0_2f_opt_disp_struct_2.xyz,Nucleus 8C :,-0.173096,-0.241849,4.672149,58.89,159.31,22.26,-4.91,235.12,269.71,264.63,-76.11,-243.02,-273.67,-4.91,22.26,159.31,0,164.22,-0.67
nw_cut_3_0_2f_opt_disp_struct_2.xyz,Nucleus 9C :,2.458655,1.596247,0.698537,17.46,-58.07,77.29,33.15,238.27,266.55,271.5,-329.47,-161.13,-233.34,-58.07,33.15,77.29,0,135.36,0.35
nw_cut_3_0_2f_opt_disp_struct_2.xyz,Nucleus 11C :,0.040184,0.255565,-1.796704,69.54,162.92,-14.52,60.21,238.84,261.35,276.37,-76.88,-281.13,-209.94,-14.52,60.21,162.92,0,177.44,-0.16
nw_cut_3_0_2f_opt_disp_struct_2.xyz,Nucleus 13C :,3.52363,-4.438951,1.601319,68.0,164.86,53.83,-14.68,225.55,258.74,277.68,-61.22,-221.15,-275.58,-14.68,53.83,164.86,0,179.54,-0.24
nw_cut_3_0_2f_opt_disp_struct_2.xyz,Nucleus 15C :,4.446393,-4.76294,2.085977,25.82,83.95,33.4,-39.88,232.15,270.53,264.42,-148.24,-234.95,-306.45,-39.88,33.4,83.95,0,123.83,0.18
nw_cut_3_0_2f_opt_disp_struct_2.xyz,Nucleus 19C :,3.683456,-3.471559,1.115865,163.59,191.41,157.29,142.06,258.59,234.56,241.72,-66.4,-83.65,-94.06,142.06,157.29,191.41,0,49.35,-0.38
nw_cut_3_0_2f_opt_disp_struct_2.xyz,Nucleus 22C :,2.409907,-4.419496,2.608873,3.19,-90.17,93.92,5.83,198.14,251.91,270.24,-104.31,-343.84,-262.55,-90.17,5.83,93.92,0,184.09,0.04
nw_cut_3_0_2f_opt_disp_struct_2.xyz,Nucleus 5N :,2.293041,-5.255558,3.496698,121.15,51.45,184.71,127.28,293.83,337.66,330.4,-110.09,-209.65,-278.71,51.45,127.28,184.71,0,133.26,0.14
nw_cut_3_0_2f_opt_disp_struct_2.xyz,Nucleus 24N :,1.509511,-3.408574,2.46501,145.34,41.38,244.56,150.09,290.87,325.27,344.04,-284.71,-91.62,-147.82,41.38,150.09,244.56,0,203.18,0.07
nw_cut_3_0_2f_opt_disp_struct_2.xyz,Nucleus 23O :,1.497237,-2.924023,1.589926,-108.15,317.97,-234.45,-407.98,339.43,380.92,426.69,-22.21,-616.45,-832.83,-407.98,-234.45,317.97,0,725.95,-0.52
nw_cut_3_0_2f_opt_disp_struct_2.xyz,Nucleus 10F :,0.639612,-3.541009,2.945466,307.15,403.2,225.98,292.26,485.05,458.44,467.55,-64.27,-233.46,-191.86,225.98,292.26,403.2,0,177.22,-0.25
nw_cut_3_0_2f_opt_disp_struct_2.xyz,Nucleus 16F :,3.28089,-5.178973,0.831038,321.31,413.93,248.9,301.11,458.72,471.56,484.19,-57.45,-210.08,-183.01,248.9,301.11,413.93,0,165.03,-0.37
nw_cut_3_0_2f_opt_disp_struct_3.xyz,Nucleus 1H :,0.981603,-0.028498,-1.314615,29.11,35.29,23.45,28.6,41.19,26.05,28.89,-7.04,0.5,-2.26,23.45,28.6,35.29,0,11.84,-0.13
nw_cut_3_0_2f_opt_disp_struct_3.xyz,Nucleus 2H :,1.771506,0.614618,-1.710604,28.77,34.59,24.01,27.71,45.79,25.58,27.08,-12.1,1.31,-1.36,24.01,27.71,34.59,0,10.58,-0.3
nw_cut_3_0_2f_opt_disp_struct_3.xyz,Nucleus 6H :,1.197844,-1.056865,-1.623284,23.7,15.43,25.12,30.55,49.9,10.79,29.94,-19.84,5.0,-4.69,15.43,25.12,30.55,0,15.12,0.28
nw_cut_3_0_2f_opt_disp_struct_3.xyz,Nucleus 12H :,0.894234,0.094003,0.16423,24.42,20.67,25.18,27.4,47.93,19.18,31.53,-22.96,1.89,-4.33,20.67,25.18,27.4,0,6.73,0.34
nw_cut_3_0_2f_opt_disp_struct_3.xyz,Nucleus 14H :,1.667686,0.911859,0.966454,24.29,20.65,26.94,25.28,6.3,33.66,44.15,14.52,-6.82,-18.94,20.65,25.28,26.94,0,6.29,0.47
nw_cut_3_0_2f_opt_disp_struct_3.xyz,Nucleus 17H :,1.277211,0.738478,2.267366,24.23,20.63,25.45,26.62,44.65,27.16,31.15,-19.19,-6.33,-4.73,20.63,25.45,26.62,0,5.99,0.61
nw_cut_3_0_2f_opt_disp_struct_3.xyz,Nucleus 18H :,1.685069,1.185094,3.070334,28.69,35.09,27.28,23.71,42.01,27.34,32.18,-0.62,-9.24,-5.58,23.71,27.28,35.09,0,11.38,-0.37
nw_cut_3_0_2f_opt_disp_struct_3.xyz,Nucleus 20H :,0.256546,-0.17788,2.332857,29.95,35.6,27.81,26.43,39.87,17.78,10.5,-4.46,9.87,16.27,26.43,27.81,35.6,0,9.17,-0.7
nw_cut_3_0_2f_opt_disp_struct_3.xyz,Nucleus 21H :,-0.010903,-0.601015,1.029406,30.32,25.32,31.96,33.68,23.88,34.91,39.48,-6.78,-2.48,1.95,25.32,31.96,33.68,0,8.36,0.59
nw_cut_3_0_2f_opt_disp_struct_3.xyz,Nucleus 25H :,-1.036476,-1.551442,0.843313,28.54,38.2,21.21,26.2,51.64,31.41,37.92,-1.54,-15.98,-17.84,21.21,26.2,38.2,0,16.99,-0.41
nw_cut_3_0_2f_opt_disp_struct_3.xyz,Nucleus 26H :,-1.341668,-1.994243,-0.384979,28.44,36.57,26.27,22.48,26.59,38.5,37.08,0.79,-6.24,-11.4,22.48,26.27,36.57,0,14.09,-0.46
nw_cut_3_0_2f_opt_disp_struct_3.xyz,Nucleus 27H :,-1.752241,-2.048385,1.937243,29.79,34.32,28.13,26.93,38.1,18.16,22.01,10.53,5.39,-4.8,26.93,28.13,34.32,0,7.39,-0.67
nw_cut_3_0_2f_opt_disp_struct_3.xyz,Nucleus 0C :,-2.531144,-2.781879,1.763549,171.09,186.63,160.66,165.97,258.15,237.65,237.97,-78.38,-74.59,-67.54,160.66,165.97,186.63,0,25.97,-0.59
nw_cut_3_0_2f_opt_disp_struct_3.xyz,Nucleus 3C :,-1.459434,-1.606716,3.225493,62.4,148.56,53.46,-14.83,242.23,275.35,264.35,-93.7,-221.88,-279.17,-14.83,53.46,148.56,0,163.39,-0.16
nw_cut_3_0_2f_opt_disp_struct_3.xyz,Nucleus 4C :,-2.00573,-1.984855,4.082642,55.12,-29.04,127.72,66.69,274.96,257.84,257.35,-293.7,-129.7,-201.38,-29.04,66.69,127.72,0,156.76,0.22
nw_cut_3_0_2f_opt_disp_struct_3.xyz,Nucleus 7C :,-0.451567,-0.665956,3.432975,51.66,138.7,-3.62,19.89,276.13,260.58,267.3,-122.33,-279.52,-247.19,-3.62,19.89,138.7,0,142.32,-0.67
nw_cut_3_0_2f_opt_disp_struct_3.xyz,Nucleus 8C :,-0.173096,-0.241849,4.672149,58.89,159.1,22.35,-4.77,234.96,269.9,264.8,-76.23,-243.24,-273.5,-4.77,22.35,159.1,0,163.87,-0.67
nw_cut_3_0_2f_opt_disp_struct_3.xyz,Nucleus 9C :,2.458655,1.596247,0.698537,17.47,-58.0,77.1,33.3,237.77,266.87,271.34,-329.26,-160.88,-233.43,-58.0,33.3,77.1,0,135.1,0.35
nw_cut_3_0_2f_opt_disp_struct_3.xyz,Nucleus 11C :,0.040184,0.255565,-1.796704,69.79,162.73,-14.13,60.77,238.76,261.23,276.55,-76.83,-280.76,-209.57,-14.13,60.77,162.73,0,176.86,-0.15
nw_cut_3_0_2f_opt_disp_struct_3.xyz,Nucleus 13C :,3.690368,-4.623447,1.627,68.04,164.65,54.17,-14.69,225.61,258.81,277.67,-61.31,-220.88,-275.76,-14.69,54.17,164.65,0,179.34,-0.23
nw_cut_3_0_2f_opt_disp_struct_3.xyz,Nucleus 15C :,4.613131,-4.947436,2.111657,26.23,83.8,33.96,-39.08,232.0,270.38,264.27,-148.22,-234.45,-305.29,-39.08,33.96,83.8,0,122.88,0.19
nw_cut_3_0_2f_opt_disp_struct_3.xyz,Nucleus 19C :,3.850195,-3.656055,1.141545,163.51,191.36,157.04,142.14,258.98,234.14,241.25,-66.84,-83.27,-93.71,142.14,157.04,191.36,0,49.22,-0.39
nw_cut_3_0_2f_opt_disp_struct_3.xyz,Nucleus 22C :,2.576645,-4.603993,2.634553,3.19,-90.62,93.91,6.28,197.22,251.9,270.14,-103.42,-344.23,-262.03,-90.62,6.28,93.91,0,184.53,0.05
nw_cut_3_0_2f_opt_disp_struct_3.xyz,Nucleus 5N :,2.459779,-5.440055,3.522378,121.61,52.24,184.7,127.89,293.88,337.58,330.43,-110.11,-208.96,-277.98,52.24,127.89,184.7,0,132.46,0.14
nw_cut_3_0_2f_opt_disp_struct_3.xyz,Nucleus 24N :,1.676249,-3.59307,2.49069,145.82,43.79,244.99,148.67,290.79,325.02,343.86,-282.28,-89.91,-150.03,43.79,148.67,244.99,0,201.2,0.04
nw_cut_3_0_2f_opt_disp_struct_3.xyz,Nucleus 23O :,1.663975,-3.108519,1.615606,-109.59,317.54,-236.03,-410.29,337.8,380.75,426.8,-21.01,-617.9,-835.22,-410.29,-236.03,317.54,0,727.83,-0.52
nw_cut_3_0_2f_opt_disp_struct_3.xyz,Nucleus 10F :,0.80635,-3.725505,2.971146,307.44,403.21,226.5,292.62,485.35,458.61,467.4,-64.24,-232.97,-191.82,226.5,292.62,403.21,0,176.71,-0.25
nw_cut_3_0_2f_opt_disp_struct_3.xyz,Nucleus 16F :,3.447628,-5.363469,0.856718,322.3,414.07,250.91,301.93,458.82,471.11,484.48,-56.83,-208.19,-182.48,250.91,301.93,414.07,0,163.16,-0.37
nw_cut_3_0_2f_opt_disp_struct_4.xyz,Nucleus 1H :,0.981603,-0.028498,-1.314615,29.12,35.27,23.47,28.62,41.15,26.09,28.9,-7.0,0.45,-2.23,23.47,28.62,35.27,0,11.8,-0.13
nw_cut_3_0_2f_opt_disp_struct_4.xyz,Nucleus 2H :,1.771506,0.614618,-1.710604,28.77,34.61,24.02,27.69,45.74,25.62,27.02,-12.01,1.38,-1.43,24.02,27.69,34.61,0,10.59,-0.31
nw_cut_3_0_2f_opt_disp_struct_4.xyz,Nucleus 6H :,1.197844,-1.056865,-1.623284,23.72,15.46,25.15,30.56,49.89,10.89,30.02,-19.82,4.9,-4.72,15.46,25.15,30.56,0,15.1,0.28
nw_cut_3_0_2f_opt_disp_struct_4.xyz,Nucleus 12H :,0.894234,0.094003,0.16423,24.42,20.67,25.15,27.43,47.87,19.04,31.61,-22.89,1.99,-4.37,20.67,25.15,27.43,0,6.76,0.32
nw_cut_3_0_2f_opt_disp_struct_4.xyz,Nucleus 14H :,1.667686,0.911859,0.966454,24.3,20.65,27.0,25.24,6.22,33.8,44.15,14.56,-6.9,-18.95,20.65,25.24,27.0,0,6.35,0.44
nw_cut_3_0_2f_opt_disp_struct_4.xyz,Nucleus 17H :,1.277211,0.738478,2.267366,24.24,20.65,25.44,26.64,44.67,27.19,31.14,-19.22,-6.35,-4.7,20.65,25.44,26.64,0,5.99,0.6
nw_cut_3_0_2f_opt_disp_struct_4.xyz,Nucleus 18H :,1.685069,1.185094,3.070334,28.7,35.07,27.29,23.73,41.98,27.29,32.14,-0.58,-9.19,-5.54,23.73,27.29,35.07,0,11.34,-0.37
nw_cut_3_0_2f_opt_disp_struct_4.xyz,Nucleus 20H :,0.256546,-0.17788,2.332857,29.91,35.48,27.82,26.42,39.68,17.62,9.83,-4.4,10.04,16.96,26.42,27.82,35.48,0,9.06,-0.69
nw_cut_3_0_2f_opt_disp_struct_4.xyz,Nucleus 21H :,-0.010903,-0.601015,1.029406,30.26,25.38,31.77,33.63,23.85,34.53,39.74,-7.05,-2.31,2.02,25.38,31.77,33.63,0,8.25,0.55
nw_cut_3_0_2f_opt_disp_struct_4.xyz,Nucleus 25H :,-1.036476,-1.551442,0.843313,28.34,37.21,21.5,26.31,50.85,31.94,39.57,-2.14,-17.35,-17.85,21.5,26.31,37.21,0,15.71,-0.39
nw_cut_3_0_2f_opt_disp_struct_4.xyz,Nucleus 26H :,-1.341668,-1.994243,-0.384979,28.27,35.98,26.07,22.77,39.39,36.17,27.71,0.17,-6.78,-11.84,22.77,26.07,35.98,0,13.21,-0.5
nw_cut_3_0_2f_opt_disp_struct_4.xyz,Nucleus 27H :,-1.752241,-2.048385,1.937243,29.76,34.26,28.07,26.95,38.05,17.52,21.85,11.16,5.56,-4.86,26.95,28.07,34.26,0,7.31,-0.69
nw_cut_3_0_2f_opt_disp_struct_4.xyz,Nucleus 0C :,-2.531144,-2.781879,1.763549,171.08,186.62,160.67,165.95,258.03,237.67,237.85,-78.25,-74.52,-67.55,160.67,165.95,186.62,0,25.95,-0.59
nw_cut_3_0_2f_opt_disp_struct_4.xyz,Nucleus 3C :,-1.459434,-1.606716,3.225493,62.33,148.54,53.43,-14.98,241.95,275.04,264.19,-93.43,-221.58,-279.17,-14.98,53.43,148.54,0,163.52,-0.16
nw_cut_3_0_2f_opt_disp_struct_4.xyz,Nucleus 4C :,-2.00573,-1.984855,4.082642,55.29,-28.84,127.7,67.0,274.82,257.94,257.2,-293.43,-129.67,-201.0,-28.84,67.0,127.7,0,156.54,0.22
nw_cut_3_0_2f_opt_disp_struct_4.xyz,Nucleus 7C :,-0.451567,-0.665956,3.432975,51.86,138.57,-3.19,20.2,275.85,260.32,266.97,-121.99,-278.87,-246.7,-3.19,20.2,138.57,0,141.76,-0.67
nw_cut_3_0_2f_opt_disp_struct_4.xyz,Nucleus 8C :,-0.173096,-0.241849,4.672149,58.84,158.94,22.33,-4.75,234.73,269.99,264.81,-76.22,-243.35,-273.45,-4.75,22.33,158.94,0,163.69,-0.67
nw_cut_3_0_2f_opt_disp_struct_4.xyz,Nucleus 9C :,2.458655,1.596247,0.698537,17.42,-58.07,76.94,33.38,237.32,266.9,271.07,-329.07,-160.61,-233.36,-58.07,33.38,76.94,0,135.01,0.35
nw_cut_3_0_2f_opt_disp_struct_4.xyz,Nucleus 11C :,0.040184,0.255565,-1.796704,69.9,162.56,-13.95,61.1,238.82,261.15,276.39,-76.91,-280.48,-209.26,-13.95,61.1,162.56,0,176.51,-0.15
nw_cut_3_0_2f_opt_disp_struct_4.xyz,Nucleus 13C :,3.857106,-4.807944,1.65268,68.02,164.46,54.35,-14.74,225.74,258.87,277.66,-61.48,-220.82,-275.92,-14.74,54.35,164.46,0,179.2,-0.23
nw_cut_3_0_2f_opt_disp_struct_4.xyz,Nucleus 15C :,4.77987,-5.131933,2.137337,26.46,83.65,34.35,-38.61,231.96,270.28,264.04,-148.32,-234.16,-304.4,-38.61,34.35,83.65,0,122.26,0.19
nw_cut_3_0_2f_opt_disp_struct_4.xyz,Nucleus 19C :,4.016933,-3.840551,1.167225,163.46,191.32,156.86,142.21,259.39,233.72,240.8,-67.27,-82.91,-93.34,142.21,156.86,191.32,0,49.11,-0.4
nw_cut_3_0_2f_opt_disp_struct_4.xyz,Nucleus 22C :,2.743383,-4.788489,2.660233,3.19,-90.96,93.93,6.6,196.39,251.87,269.99,-102.58,-344.5,-261.59,-90.96,6.6,93.93,0,184.89,0.06
nw_cut_3_0_2f_opt_disp_struct_4.xyz,Nucleus 5N :,2.626517,-5.624551,3.548058,121.95,52.81,184.68,128.36,294.0,337.49,330.43,-110.18,-208.42,-277.47,52.81,128.36,184.68,0,131.87,0.15
nw_cut_3_0_2f_opt_disp_struct_4.xyz,Nucleus 24N :,1.842988,-3.777566,2.51637,145.93,45.06,244.93,147.81,291.15,325.34,343.79,-281.35,-88.98,-152.16,45.06,147.81,244.93,0,199.87,0.03
nw_cut_3_0_2f_opt_disp_struct_4.xyz,Nucleus 23O :,1.830713,-3.293015,1.641286,-110.51,317.3,-237.01,-411.82,336.21,380.65,426.92,-19.64,-618.83,-836.84,-411.82,-237.01,317.3,0,729.12,-0.52
nw_cut_3_0_2f_opt_disp_struct_4.xyz,Nucleus 10F :,0.973089,-3.910001,2.996826,307.61,403.24,226.76,292.84,485.53,458.81,467.26,-64.12,-232.76,-191.87,226.76,292.84,403.24,0,176.48,-0.25
nw_cut_3_0_2f_opt_disp_struct_4.xyz,Nucleus 16F :,3.614366,-5.547965,0.882398,323.0,414.15,252.33,302.52,458.93,470.65,484.69,-56.26,-206.92,-182.1,252.33,302.52,414.15,0,161.82,-0.38
nw_cut_3_0_2f_opt_disp_struct_5.xyz,Nucleus 1H :,0.981603,-0.028498,-1.314615,29.13,35.26,23.49,28.64,41.11,26.11,28.91,-6.95,0.42,-2.21,23.49,28.64,35.26,0,11.77,-0.12
nw_cut_3_0_2f_opt_disp_struct_5.xyz,Nucleus 2H :,1.771506,0.614618,-1.710604,28.78,34.64,24.02,27.67,45.7,25.63,26.97,-11.94,1.45,-1.48,24.02,27.67,34.64,0,10.62,-0.31
nw_cut_3_0_2f_opt_disp_struct_5.xyz,Nucleus 6H :,1.197844,-1.056865,-1.623284,23.74,15.49,25.2,30.54,49.87,10.97,30.09,-19.8,4.83,-4.73,15.49,25.2,30.54,0,15.05,0.29
nw_cut_3_0_2f_opt_disp_struct_5.xyz,Nucleus 12H :,0.894234,0.094003,0.16423,24.42,20.67,25.15,27.45,47.79,18.95,31.58,-22.77,2.03,-4.31,20.67,25.15,27.45,0,6.78,0.32
nw_cut_3_0_2f_opt_disp_struct_5.xyz,Nucleus 14H :,1.667686,0.911859,0.966454,24.31,20.64,27.05,25.23,6.19,33.86,44.15,14.56,-6.9,-18.94,20.64,25.23,27.05,0,6.41,0.43
nw_cut_3_0_2f_opt_disp_struct_5.xyz,Nucleus 17H :,1.277211,0.738478,2.267366,24.26,20.66,25.44,26.67,44.67,27.21,31.14,-19.23,-6.36,-4.66,20.66,25.44,26.67,0,6.01,0.59
nw_cut_3_0_2f_opt_disp_struct_5.xyz,Nucleus 18H :,1.685069,1.185094,3.070334,28.7,35.05,27.3,23.74,41.94,27.23,32.1,-0.54,-9.15,-5.5,23.74,27.3,35.05,0,11.31,-0.37
nw_cut_3_0_2f_opt_disp_struct_5.xyz,Nucleus 20H :,0.256546,-0.17788,2.332857,29.87,35.37,27.82,26.41,39.52,17.45,9.15,-4.37,10.2,17.64,26.41,27.82,35.37,0,8.96,-0.69
nw_cut_3_0_2f_opt_disp_struct_5.xyz,Nucleus 21H :,-0.010903,-0.601015,1.029406,30.21,25.43,31.58,33.61,23.79,40.03,34.17,-7.36,-2.15,2.13,25.43,31.58,33.61,0,8.18,0.5
nw_cut_3_0_2f_opt_disp_struct_5.xyz,Nucleus 25H :,-1.036476,-1.551442,0.843313,28.15,36.4,21.69,26.37,32.39,50.25,41.14,-2.59,-18.81,-17.92,21.69,26.37,36.4,0,14.71,-0.36
nw_cut_3_0_2f_opt_disp_struct_5.xyz,Nucleus 26H :,-1.341668,-1.994243,-0.384979,28.11,35.57,25.82,22.95,40.24,35.43,28.8,-0.42,-7.43,-12.29,22.95,25.82,35.57,0,12.62,-0.54
nw_cut_3_0_2f_opt_disp_struct_5.xyz,Nucleus 27H :,-1.752241,-2.048385,1.937243,29.73,34.21,28.01,26.96,38.03,16.89,21.7,-4.94,11.78,5.72,26.96,28.01,34.21,0,7.25,-0.71
nw_cut_3_0_2f_opt_disp_struct_5.xyz,Nucleus 0C :,-2.531144,-2.781879,1.763549,171.08,186.64,160.68,165.93,257.93,237.64,237.78,-78.15,-74.45,-67.51,160.68,165.93,186.64,0,25.96,-0.6
nw_cut_3_0_2f_opt_disp_struct_5.xyz,Nucleus 3C :,-1.459434,-1.606716,3.225493,62.3,148.57,53.37,-15.05,241.67,274.68,264.05,-93.13,-221.28,-279.1,-15.05,53.37,148.57,0,163.62,-0.16
nw_cut_3_0_2f_opt_disp_struct_5.xyz,Nucleus 4C :,-2.00573,-1.984855,4.082642,55.4,-28.7,127.62,67.29,274.67,258.0,257.13,-293.23,-129.72,-200.64,-28.7,67.29,127.62,0,156.32,0.23
nw_cut_3_0_2f_opt_disp_struct_5.xyz,Nucleus 7C :,-0.451567,-0.665956,3.432975,51.96,138.41,-2.93,20.41,275.55,260.05,266.76,-121.78,-278.35,-246.34,-2.93,20.41,138.41,0,141.34,-0.67
nw_cut_3_0_2f_opt_disp_struct_5.xyz,Nucleus 8C :,-0.173096,-0.241849,4.672149,58.83,158.9,22.35,-4.76,234.63,269.92,264.76,-76.15,-243.28,-273.37,-4.76,22.35,158.9,0,163.66,-0.67
nw_cut_3_0_2f_opt_disp_struct_5.xyz,Nucleus 9C :,2.458655,1.596247,0.698537,17.37,-58.16,76.82,33.45,237.03,266.74,270.72,-328.83,-160.38,-233.16,-58.16,33.45,76.82,0,134.98,0.36
nw_cut_3_0_2f_opt_disp_struct_5.xyz,Nucleus 11C :,0.040184,0.255565,-1.796704,69.97,162.41,-13.84,61.34,238.89,261.11,275.98,-76.98,-280.17,-208.91,-13.84,61.34,162.41,0,176.25,-0.15
nw_cut_3_0_2f_opt_disp_struct_5.xyz,Nucleus 13C :,4.023845,-4.99244,1.67836,67.98,164.29,54.44,-14.78,225.8,258.97,277.51,-61.62,-220.72,-275.99,-14.78,54.44,164.29,0,179.07,-0.23
nw_cut_3_0_2f_opt_disp_struct_5.xyz,Nucleus 15C :,4.946608,-5.316429,2.163017,26.6,83.49,34.63,-38.32,231.94,270.14,263.85,-148.46,-233.89,-303.76,-38.32,34.63,83.49,0,121.81,0.2
nw_cut_3_0_2f_opt_disp_struct_5.xyz,Nucleus 19C :,4.183671,-4.025048,1.192905,163.42,191.3,156.7,142.27,259.82,233.31,240.37,-67.69,-82.55,-92.98,142.27,156.7,191.3,0,49.03,-0.41
nw_cut_3_0_2f_opt_disp_struct_5.xyz,Nucleus 22C :,2.910121,-4.972985,2.685913,3.2,-91.26,93.98,6.88,195.62,251.86,269.88,-101.77,-344.75,-261.25,-91.26,6.88,93.98,0,185.24,0.06
nw_cut_3_0_2f_opt_disp_struct_5.xyz,Nucleus 5N :,2.793255,-5.809047,3.573738,122.14,53.17,184.55,128.7,294.15,337.41,330.4,-110.35,-208.03,-277.15,53.17,128.7,184.55,0,131.38,0.15
nw_cut_3_0_2f_opt_disp_struct_5.xyz,Nucleus 24N :,2.009726,-3.962062,2.54205,145.9,45.8,244.66,147.24,291.57,325.84,343.76,-281.05,-88.39,-154.04,45.8,147.24,244.66,0,198.86,0.02
nw_cut_3_0_2f_opt_disp_struct_5.xyz,Nucleus 23O :,1.997451,-3.477512,1.666966,-111.33,317.02,-237.81,-413.19,334.7,380.56,427.05,-18.38,-619.6,-838.32,-413.19,-237.81,317.02,0,730.21,-0.52
nw_cut_3_0_2f_opt_disp_struct_5.xyz,Nucleus 10F :,1.139827,-4.094498,3.022506,307.8,403.36,226.87,293.16,485.64,458.99,467.17,-63.92,-232.72,-191.77,226.87,293.16,403.36,0,176.49,-0.25
nw_cut_3_0_2f_opt_disp_struct_5.xyz,Nucleus 16F :,3.781105,-5.732462,0.908078,323.57,414.21,253.41,303.1,459.11,470.12,484.88,-55.69,-206.01,-181.69,253.41,303.1,414.21,0,160.8,-0.38
nw_cut_3_0_2f_opt_disp_struct_6.xyz,Nucleus 1H :,0.981603,-0.028498,-1.314615,29.13,35.25,23.49,28.66,41.06,26.11,28.93,-6.9,0.4,-2.2,23.49,28.66,35.25,0,11.76,-0.12
nw_cut_3_0_2f_opt_disp_struct_6.xyz,Nucleus 2H :,1.771506,0.614618,-1.710604,28.78,34.67,24.02,27.66,45.67,25.63,26.94,-11.86,1.51,-1.53,24.02,27.66,34.67,0,10.65,-0.32
nw_cut_3_0_2f_opt_disp_struct_6.xyz,Nucleus 6H :,1.197844,-1.056865,-1.623284,23.76,15.49,25.22,30.56,49.83,11.03,30.16,-19.73,4.75,-4.77,15.49,25.22,30.56,0,15.07,0.29
nw_cut_3_0_2f_opt_disp_struct_6.xyz,Nucleus 12H :,0.894234,0.094003,0.16423,24.42,20.66,25.13,27.48,47.69,18.88,31.51,-22.65,2.04,-4.19,20.66,25.13,27.48,0,6.82,0.31
nw_cut_3_0_2f_opt_disp_struct_6.xyz,Nucleus 14H :,1.667686,0.911859,0.966454,24.31,20.63,27.1,25.2,6.18,33.85,44.13,14.54,-6.84,-18.93,20.63,25.2,27.1,0,6.47,0.41
nw_cut_3_0_2f_opt_disp_struct_6.xyz,Nucleus 17H :,1.277211,0.738478,2.267366,24.27,20.68,25.43,26.69,44.67,27.22,31.13,-19.23,-6.37,-4.63,20.68,25.43,26.69,0,6.01,0.58
nw_cut_3_0_2f_opt_disp_struct_6.xyz,Nucleus 18H :,1.685069,1.185094,3.070334,28.7,35.04,27.31,23.75,41.91,27.18,32.08,-0.48,-9.12,-5.47,23.75,27.31,35.04,0,11.29,-0.37
nw_cut_3_0_2f_opt_disp_struct_6.xyz,Nucleus 20H :,0.256546,-0.17788,2.332857,29.84,35.28,27.83,26.4,39.38,17.28,8.48,-4.34,10.38,18.33,26.4,27.83,35.28,0,8.88,-0.68
nw_cut_3_0_2f_opt_disp_struct_6.xyz,Nucleus 21H :,-0.010903,-0.601015,1.029406,30.16,25.48,31.4,33.6,23.71,40.33,33.84,-7.68,-1.99,2.26,25.48,31.4,33.6,0,8.12,0.46
nw_cut_3_0_2f_opt_disp_struct_6.xyz,Nucleus 25H :,-1.036476,-1.551442,0.843313,27.98,35.72,21.82,26.4,32.71,42.57,49.83,-2.92,-20.18,-18.08,21.82,26.4,35.72,0,13.9,-0.34
nw_cut_3_0_2f_opt_disp_struct_6.xyz,Nucleus 26H :,-1.341668,-1.994243,-0.384979,27.97,35.28,23.08,25.54,41.0,34.84,29.89,-0.93,-12.7,-8.19,23.08,25.54,35.28,0,12.2,-0.6
nw_cut_3_0_2f_opt_disp_struct_6.xyz,Nucleus 27H :,-1.752241,-2.048385,1.937243,29.7,34.17,27.95,26.98,38.01,16.26,21.57,-5.01,12.41,5.87,26.98,27.95,34.17,0,7.19,-0.73
nw_cut_3_0_2f_opt_disp_struct_6.xyz,Nucleus 0C :,-2.531144,-2.781879,1.763549,171.08,186.63,160.7,165.9,257.86,237.74,237.57,-78.06,-74.4,-67.48,160.7,165.9,186.63,0,25.93,-0.6
nw_cut_3_0_2f_opt_disp_struct_6.xyz,Nucleus 3C :,-1.459434,-1.606716,3.225493,62.23,148.54,53.32,-15.17,241.45,274.34,263.95,-92.94,-220.98,-279.12,-15.17,53.32,148.54,0,163.71,-0.16
nw_cut_3_0_2f_opt_disp_struct_6.xyz,Nucleus 4C :,-2.00573,-1.984855,4.082642,55.51,-28.56,127.6,67.5,274.52,257.98,257.16,-293.05,-129.73,-200.33,-28.56,67.5,127.6,0,156.16,0.23
nw_cut_3_0_2f_opt_disp_struct_6.xyz,Nucleus 7C :,-0.451567,-0.665956,3.432975,52.04,138.33,-2.77,20.55,275.2,259.84,266.63,-121.6,-277.87,-246.1,-2.77,20.55,138.33,0,141.1,-0.67
nw_cut_3_0_2f_opt_disp_struct_6.xyz,Nucleus 8C :,-0.173096,-0.241849,4.672149,58.74,158.77,22.26,-4.8,234.6,269.67,264.69,-76.24,-243.22,-273.28,-4.8,22.26,158.77,0,163.57,-0.67
nw_cut_3_0_2f_opt_disp_struct_6.xyz,Nucleus 9C :,2.458655,1.596247,0.698537,17.3,-58.28,76.71,33.46,236.8,266.49,270.32,-328.57,-160.21,-232.95,-58.28,33.46,76.71,0,134.99,0.36
nw_cut_3_0_2f_opt_disp_struct_6.xyz,Nucleus 11C :,0.040184,0.255565,-1.796704,69.97,162.28,-13.82,61.45,238.9,261.06,275.47,-77.0,-279.88,-208.63,-13.82,61.45,162.28,0,176.1,-0.15
nw_cut_3_0_2f_opt_disp_struct_6.xyz,Nucleus 13C :,4.190583,-5.176936,1.70404,67.93,164.16,54.48,-14.85,225.81,259.04,277.22,-61.74,-220.53,-276.02,-14.85,54.48,164.16,0,179.01,-0.23
nw_cut_3_0_2f_opt_disp_struct_6.xyz,Nucleus 15C :,5.113346,-5.500925,2.188697,26.71,83.38,34.83,-38.09,231.93,269.9,263.72,-148.57,-233.61,-303.27,-38.09,34.83,83.38,0,121.47,0.2
nw_cut_3_0_2f_opt_disp_struct_6.xyz,Nucleus 19C :,4.350409,-4.209544,1.218585,163.38,191.27,156.56,142.3,260.23,232.88,239.95,-68.08,-82.23,-92.61,142.3,156.56,191.27,0,48.97,-0.42
nw_cut_3_0_2f_opt_disp_struct_6.xyz,Nucleus 22C :,3.07686,-5.157481,2.711593,3.17,-91.48,94.0,7.0,194.88,251.9,269.83,-101.03,-344.91,-261.15,-91.48,7.0,94.0,0,185.48,0.06
nw_cut_3_0_2f_opt_disp_struct_6.xyz,Nucleus 5N :,2.959994,-5.993543,3.599419,122.39,53.58,184.55,129.03,294.27,337.35,330.35,-110.37,-207.68,-276.76,53.58,129.03,184.55,0,130.97,0.15
nw_cut_3_0_2f_opt_disp_struct_6.xyz,Nucleus 24N :,2.176464,-4.146559,2.56773,145.94,46.31,244.44,147.06,291.87,326.32,343.77,-280.9,-87.91,-155.36,46.31,147.06,244.44,0,198.13,0.02
nw_cut_3_0_2f_opt_disp_struct_6.xyz,Nucleus 23O :,2.16419,-3.662008,1.692646,-111.71,317.01,-238.26,-413.89,333.35,380.48,427.17,-16.99,-620.05,-839.1,-413.89,-238.26,317.01,0,730.9,-0.52
nw_cut_3_0_2f_opt_disp_struct_6.xyz,Nucleus 10F :,1.306565,-4.278994,3.048187,307.83,403.33,226.92,293.24,485.7,459.14,467.11,-63.87,-232.73,-191.87,226.92,293.24,403.33,0,176.41,-0.25
nw_cut_3_0_2f_opt_disp_struct_6.xyz,Nucleus 16F :,3.947843,-5.916958,0.933759,323.99,414.27,254.21,303.48,459.31,469.59,485.04,-55.15,-205.39,-181.46,254.21,303.48,414.27,0,160.06,-0.38
nw_cut_3_0_2f_opt_disp_struct_7.xyz,Nucleus 1H :,0.981603,-0.028498,-1.314615,29.14,35.25,23.5,28.68,41.03,26.12,28.95,-6.85,0.38,-2.2,23.5,28.68,35.25,0,11.75,-0.12
nw_cut_3_0_2f_opt_disp_struct_7.xyz,Nucleus 2H :,1.771506,0.614618,-1.710604,28.78,34.69,24.02,27.64,45.63,25.62,26.91,-11.79,1.57,-1.57,24.02,27.64,34.69,0,10.67,-0.32
nw_cut_3_0_2f_opt_disp_struct_7.xyz,Nucleus 6H :,1.197844,-1.056865,-1.623284,23.76,15.49,25.23,30.57,49.78,11.08,30.21,-19.65,4.68,-4.8,15.49,25.23,30.57,0,15.08,0.29
nw_cut_3_0_2f_opt_disp_struct_7.xyz,Nucleus 12H :,0.894234,0.094003,0.16423,24.43,20.65,25.12,27.51,47.57,18.81,31.43,-22.52,2.05,-4.06,20.65,25.12,27.51,0,6.86,0.3
nw_cut_3_0_2f_opt_disp_struct_7.xyz,Nucleus 14H :,1.667686,0.911859,0.966454,24.32,20.62,27.14,25.19,6.17,33.8,44.12,14.53,-6.75,-18.92,20.62,25.19,27.14,0,6.52,0.4
nw_cut_3_0_2f_opt_disp_struct_7.xyz,Nucleus 17H :,1.277211,0.738478,2.267366,24.27,20.69,25.43,26.7,44.66,27.23,31.13,-19.21,-6.38,-4.6,20.69,25.43,26.7,0,6.01,0.58
nw_cut_3_0_2f_opt_disp_struct_7.xyz,Nucleus 18H :,1.685069,1.185094,3.070334,28.7,35.02,27.32,23.77,41.89,27.14,32.06,-0.43,-9.11,-5.44,23.77,27.32,35.02,0,11.25,-0.37
nw_cut_3_0_2f_opt_disp_struct_7.xyz,Nucleus 20H :,0.256546,-0.17788,2.332857,29.81,35.2,27.84,26.39,39.26,17.1,7.79,-4.31,10.56,19.03,26.39,27.84,35.2,0,8.81,-0.67
nw_cut_3_0_2f_opt_disp_struct_7.xyz,Nucleus 21H :,-0.010903,-0.601015,1.029406,30.12,25.52,31.23,33.61,23.6,40.63,33.54,-8.01,-1.84,2.43,25.52,31.23,33.61,0,8.09,0.41
nw_cut_3_0_2f_opt_disp_struct_7.xyz,Nucleus 25H :,-1.036476,-1.551442,0.843313,27.83,35.15,21.93,26.42,32.93,43.85,49.57,-3.15,-21.43,-18.27,21.93,26.42,35.15,0,13.22,-0.32
nw_cut_3_0_2f_opt_disp_struct_7.xyz,Nucleus 26H :,-1.341668,-1.994243,-0.384979,27.84,35.07,23.18,25.28,41.68,34.43,30.89,-1.34,-13.11,-9.0,23.18,25.28,35.07,0,11.89,-0.65
nw_cut_3_0_2f_opt_disp_struct_7.xyz,Nucleus 27H :,-1.752241,-2.048385,1.937243,29.68,34.14,27.9,27.0,38.0,15.65,21.43,-5.09,13.03,6.02,27.0,27.9,34.14,0,7.14,-0.75
nw_cut_3_0_2f_opt_disp_struct_7.xyz,Nucleus 0C :,-2.531144,-2.781879,1.763549,171.07,186.63,160.71,165.88,257.8,237.71,237.5,-77.98,-74.36,-67.45,160.71,165.88,186.63,0,25.92,-0.6
nw_cut_3_0_2f_opt_disp_struct_7.xyz,Nucleus 3C :,-1.459434,-1.606716,3.225493,62.17,148.51,53.27,-15.27,241.29,274.05,263.89,-92.82,-220.74,-279.15,-15.27,53.27,148.51,0,163.78,-0.16
nw_cut_3_0_2f_opt_disp_struct_7.xyz,Nucleus 4C :,-2.00573,-1.984855,4.082642,55.61,-28.44,127.58,67.69,274.38,257.94,257.23,-292.92,-129.76,-200.05,-28.44,67.69,127.58,0,156.02,0.23
nw_cut_3_0_2f_opt_disp_struct_7.xyz,Nucleus 7C :,-0.451567,-0.665956,3.432975,52.08,138.26,-2.67,20.65,274.84,259.69,266.57,-121.49,-277.42,-245.95,-2.67,20.65,138.26,0,140.93,-0.67
nw_cut_3_0_2f_opt_disp_struct_7.xyz,Nucleus 8C :,-0.173096,-0.241849,4.672149,58.66,158.66,22.18,-4.85,234.64,269.33,264.64,-76.35,-243.13,-273.14,-4.85,22.18,158.66,0,163.51,-0.67
nw_cut_3_0_2f_opt_disp_struct_7.xyz,Nucleus 9C :,2.458655,1.596247,0.698537,17.23,-58.39,76.61,33.46,236.6,266.28,269.91,-328.28,-160.07,-232.77,-58.39,33.46,76.61,0,135.0,0.36
nw_cut_3_0_2f_opt_disp_struct_7.xyz,Nucleus 11C :,0.040184,0.255565,-1.796704,69.95,162.17,-13.82,61.51,238.85,261.01,274.98,-76.98,-279.6,-208.4,-13.82,61.51,162.17,0,175.99,-0.14
nw_cut_3_0_2f_opt_disp_struct_7.xyz,Nucleus 13C :,4.357321,-5.361432,1.72972,67.88,164.04,54.52,-14.92,225.79,259.12,276.86,-61.82,-220.28,-276.03,-14.92,54.52,164.04,0,178.96,-0.22
nw_cut_3_0_2f_opt_disp_struct_7.xyz,Nucleus 15C :,5.280085,-5.685421,2.214377,26.78,83.28,34.98,-37.93,231.93,269.61,263.66,-148.67,-233.31,-302.91,-37.93,34.98,83.28,0,121.21,0.2
nw_cut_3_0_2f_opt_disp_struct_7.xyz,Nucleus 19C :,4.517148,-4.39404,1.244265,163.34,191.24,156.44,142.33,260.61,232.43,239.55,-68.44,-81.92,-92.22,142.33,156.44,191.24,0,48.91,-0.42
nw_cut_3_0_2f_opt_disp_struct_7.xyz,Nucleus 22C :,3.243598,-5.341978,2.737274,3.15,-91.67,94.02,7.1,194.15,251.94,269.82,-100.28,-345.05,-261.11,-91.67,7.1,94.02,0,185.69,0.06
nw_cut_3_0_2f_opt_disp_struct_7.xyz,Nucleus 5N :,3.126732,-6.17804,3.625099,122.58,53.9,184.54,129.31,294.37,337.3,330.29,-110.39,-207.39,-276.44,53.9,129.31,184.54,0,130.64,0.15
nw_cut_3_0_2f_opt_disp_struct_7.xyz,Nucleus 24N :,2.343203,-4.331055,2.593411,145.95,46.68,244.19,146.97,292.03,326.78,343.76,-280.83,-87.52,-156.38,46.68,146.97,244.19,0,197.51,0.02
nw_cut_3_0_2f_opt_disp_struct_7.xyz,Nucleus 23O :,2.330928,-3.846504,1.718327,-112.04,317.0,-238.63,-414.48,332.18,380.39,427.28,-15.8,-620.4,-839.77,-414.48,-238.63,317.0,0,731.48,-0.52
nw_cut_3_0_2f_opt_disp_struct_7.xyz,Nucleus 10F :,1.473304,-4.46349,3.073867,307.84,403.29,226.94,293.3,485.74,459.25,467.06,-63.84,-232.75,-191.94,226.94,293.3,403.29,0,176.35,-0.25
nw_cut_3_0_2f_opt_disp_struct_7.xyz,Nucleus 16F :,4.114581,-6.101454,0.959439,324.32,414.32,254.84,303.8,459.51,469.07,485.17,-54.64,-204.91,-181.26,254.84,303.8,414.32,0,159.48,-0.39
nw_cut_3_0_2f_opt_disp_struct_8.xyz,Nucleus 1H :,0.981603,-0.028498,-1.314615,29.14,35.24,23.5,28.69,40.99,26.12,28.98,-6.81,0.37,-2.21,23.5,28.69,35.24,0,11.74,-0.11
nw_cut_3_0_2f_opt_disp_struct_8.xyz,Nucleus 2H :,1.771506,0.614618,-1.710604,28.79,34.72,24.01,27.63,45.59,25.6,26.88,-11.73,1.62,-1.6,24.01,27.63,34.72,0,10.71,-0.32
nw_cut_3_0_2f_opt_disp_struct_8.xyz,Nucleus 6H :,1.197844,-1.056865,-1.623284,23.78,15.49,25.25,30.59,49.72,11.12,30.25,-19.56,4.62,-4.83,15.49,25.25,30.59,0,15.1,0.29
nw_cut_3_0_2f_opt_disp_struct_8.xyz,Nucleus 12H :,0.894234,0.094003,0.16423,24.43,20.63,25.12,27.54,47.46,18.74,31.35,-22.39,2.06,-3.94,20.63,25.12,27.54,0,6.91,0.3
nw_cut_3_0_2f_opt_disp_struct_8.xyz,Nucleus 14H :,1.667686,0.911859,0.966454,24.32,20.6,27.17,25.18,6.16,33.72,44.11,14.51,-6.63,-18.91,20.6,25.18,27.17,0,6.57,0.39
nw_cut_3_0_2f_opt_disp_struct_8.xyz,Nucleus 17H :,1.277211,0.738478,2.267366,24.28,20.69,25.43,26.72,44.65,27.23,31.13,-19.19,-6.39,-4.58,20.69,25.43,26.72,0,6.03,0.57
nw_cut_3_0_2f_opt_disp_struct_8.xyz,Nucleus 18H :,1.685069,1.185094,3.070334,28.71,35.01,27.33,23.78,41.87,27.1,32.06,-0.38,-9.11,-5.42,23.78,27.33,35.01,0,11.23,-0.37
nw_cut_3_0_2f_opt_disp_struct_8.xyz,Nucleus 20H :,0.256546,-0.17788,2.332857,29.78,35.13,27.84,26.38,39.15,16.91,7.1,-4.3,10.77,19.73,26.38,27.84,35.13,0,8.75,-0.67
nw_cut_3_0_2f_opt_disp_struct_8.xyz,Nucleus 21H :,-0.010903,-0.601015,1.029406,30.08,25.55,31.08,33.62,40.93,33.27,23.46,-8.34,-1.7,2.63,25.55,31.08,33.62,0,8.07,0.37
nw_cut_3_0_2f_opt_disp_struct_8.xyz,Nucleus 25H :,-1.036476,-1.551442,0.843313,27.71,34.68,22.01,26.43,33.06,44.98,49.45,-3.29,-22.59,-18.49,22.01,26.43,34.68,0,12.67,-0.3
nw_cut_3_0_2f_opt_disp_struct_8.xyz,Nucleus 26H :,-1.341668,-1.994243,-0.384979,27.74,34.92,23.26,25.04,42.29,34.26,31.7,-1.66,-13.54,-9.83,23.26,25.04,34.92,0,11.66,-0.69
nw_cut_3_0_2f_opt_disp_struct_8.xyz,Nucleus 27H :,-1.752241,-2.048385,1.937243,29.66,34.11,27.85,27.01,38.0,15.03,21.28,-5.17,13.65,6.18,27.01,27.85,34.11,0,7.1,-0.76
nw_cut_3_0_2f_opt_disp_struct_8.xyz,Nucleus 0C :,-2.531144,-2.781879,1.763549,171.07,186.64,160.72,165.86,257.76,237.68,237.42,-77.91,-74.32,-67.41,160.72,165.86,186.64,0,25.92,-0.6
nw_cut_3_0_2f_opt_disp_struct_8.xyz,Nucleus 3C :,-1.459434,-1.606716,3.225493,62.12,148.48,53.22,-15.34,241.19,273.8,263.84,-92.74,-220.55,-279.18,-15.34,53.22,148.48,0,163.82,-0.16
nw_cut_3_0_2f_opt_disp_struct_8.xyz,Nucleus 4C :,-2.00573,-1.984855,4.082642,55.68,-28.35,127.56,67.84,274.25,257.91,257.3,-292.82,-129.79,-199.8,-28.35,67.84,127.56,0,155.91,0.23
nw_cut_3_0_2f_opt_disp_struct_8.xyz,Nucleus 7C :,-0.451567,-0.665956,3.432975,52.11,138.19,-2.59,20.73,274.47,259.58,266.55,-121.43,-276.98,-245.86,-2.59,20.73,138.19,0,140.78,-0.67
nw_cut_3_0_2f_opt_disp_struct_8.xyz,Nucleus 8C :,-0.173096,-0.241849,4.672149,58.6,158.57,22.13,-4.89,234.65,264.59,268.92,-76.42,-242.99,-272.95,-4.89,22.13,158.57,0,163.46,-0.67
nw_cut_3_0_2f_opt_disp_struct_8.xyz,Nucleus 9C :,2.458655,1.596247,0.698537,17.16,-58.49,76.53,33.45,236.41,266.1,269.5,-327.97,-159.93,-232.62,-58.49,33.45,76.53,0,135.02,0.36
nw_cut_3_0_2f_opt_disp_struct_8.xyz,Nucleus 11C :,0.040184,0.255565,-1.796704,69.94,162.09,-13.83,61.56,238.78,260.96,274.56,-76.95,-279.34,-208.2,-13.83,61.56,162.09,0,175.92,-0.14
nw_cut_3_0_2f_opt_disp_struct_8.xyz,Nucleus 13C :,4.524059,-5.545929,1.7554,67.85,163.95,54.55,-14.96,225.74,259.17,276.49,-61.86,-220.01,-275.99,-14.96,54.55,163.95,0,178.91,-0.22
nw_cut_3_0_2f_opt_disp_struct_8.xyz,Nucleus 15C :,5.446823,-5.869918,2.240058,26.82,83.19,35.09,-37.81,231.93,269.31,263.63,-148.75,-233.03,-302.62,-37.81,35.09,83.19,0,121.0,0.21
nw_cut_3_0_2f_opt_disp_struct_8.xyz,Nucleus 19C :,4.683886,-4.578536,1.269946,163.3,191.22,156.33,142.35,260.98,231.96,239.15,-68.75,-81.62,-91.81,142.35,156.33,191.22,0,48.87,-0.43
nw_cut_3_0_2f_opt_disp_struct_8.xyz,Nucleus 22C :,3.410336,-5.526474,2.762954,3.13,-91.83,94.05,7.17,193.42,251.97,269.84,-99.54,-345.16,-261.14,-91.83,7.17,94.05,0,185.88,0.07
nw_cut_3_0_2f_opt_disp_struct_8.xyz,Nucleus 5N :,3.29347,-6.362536,3.650779,122.74,54.15,184.52,129.54,294.44,337.26,330.23,-110.4,-207.14,-276.17,54.15,129.54,184.52,0,130.37,0.16
nw_cut_3_0_2f_opt_disp_struct_8.xyz,Nucleus 24N :,2.509941,-4.515551,2.619091,145.95,46.94,243.97,146.94,292.14,327.2,343.8,-280.83,-87.18,-157.29,46.94,146.94,243.97,0,197.03,0.02
nw_cut_3_0_2f_opt_disp_struct_8.xyz,Nucleus 23O :,2.497666,-4.031,1.744007,-112.29,317.02,-238.92,-414.96,331.16,380.29,427.37,-14.72,-620.66,-840.3,-414.96,-238.92,317.02,0,731.98,-0.52
nw_cut_3_0_2f_opt_disp_struct_8.xyz,Nucleus 10F :,1.640042,-4.647986,3.099547,307.85,403.26,226.93,293.35,485.76,459.34,467.02,-63.81,-232.79,-191.97,226.93,293.35,403.26,0,176.33,-0.25
nw_cut_3_0_2f_opt_disp_struct_8.xyz,Nucleus 16F :,4.28132,-6.28595,0.985119,324.59,414.35,255.34,304.09,459.67,468.61,485.29,-54.18,-204.54,-181.07,255.34,304.09,414.35,0,159.01,-0.39
nw_cut_3_0_2f_opt_disp_struct_9.xyz,Nucleus 1H :,0.981603,-0.028498,-1.314615,29.15,35.24,23.5,28.71,40.95,26.12,29.01,-6.76,0.36,-2.22,23.5,28.71,35.24,0,11.74,-0.11
nw_cut_3_0_2f_opt_disp_struct_9.xyz,Nucleus 2H :,1.771506,0.614618,-1.710604,28.79,34.74,24.0,27.62,45.55,25.58,26.85,-11.67,1.67,-1.63,24.0,27.62,34.74,0,10.74,-0.33
nw_cut_3_0_2f_opt_disp_struct_9.xyz,Nucleus 6H :,1.197844,-1.056865,-1.623284,23.78,15.48,25.26,30.61,11.14,30.29,49.66,-19.47,4.57,-4.85,15.48,25.26,30.61,0,15.13,0.29
nw_cut_3_0_2f_opt_disp_struct_9.xyz,Nucleus 12H :,0.894234,0.094003,0.16423,24.43,20.62,25.11,27.56,47.35,18.68,31.29,-22.27,2.08,-3.85,20.62,25.11,27.56,0,6.94,0.29
nw_cut_3_0_2f_opt_disp_struct_9.xyz,Nucleus 14H :,1.667686,0.911859,0.966454,24.32,20.58,27.21,25.17,6.15,33.63,44.09,14.49,-6.52,-18.9,20.58,25.17,27.21,0,6.63,0.38
nw_cut_3_0_2f_opt_disp_struct_9.xyz,Nucleus 17H :,1.277211,0.738478,2.267366,24.29,20.7,25.43,26.74,44.63,27.23,31.13,-19.17,-6.4,-4.56,20.7,25.43,26.74,0,6.04,0.57
nw_cut_3_0_2f_opt_disp_struct_9.xyz,Nucleus 18H :,1.685069,1.185094,3.070334,28.71,35.0,27.34,23.79,41.87,27.07,32.06,-0.33,-9.12,-5.41,23.79,27.34,35.0,0,11.21,-0.37
nw_cut_3_0_2f_opt_disp_struct_9.xyz,Nucleus 20H :,0.256546,-0.17788,2.332857,29.77,35.07,27.85,26.38,39.05,16.7,6.4,-4.28,10.98,20.44,26.38,27.85,35.07,0,8.69,-0.66
nw_cut_3_0_2f_opt_disp_struct_9.xyz,Nucleus 21H :,-0.010903,-0.601015,1.029406,30.06,25.59,30.95,33.63,41.22,33.01,23.28,-8.66,-1.56,2.87,25.59,30.95,33.63,0,8.04,0.33
nw_cut_3_0_2f_opt_disp_struct_9.xyz,Nucleus 25H :,-1.036476,-1.551442,0.843313,27.6,34.28,22.09,26.44,33.12,45.96,49.48,-3.38,-18.71,-23.67,22.09,26.44,34.28,0,12.19,-0.29
nw_cut_3_0_2f_opt_disp_struct_9.xyz,Nucleus 26H :,-1.341668,-1.994243,-0.384979,27.66,34.81,23.34,24.82,42.83,34.48,32.15,-1.91,-13.98,-10.61,23.34,24.82,34.81,0,11.47,-0.74
nw_cut_3_0_2f_opt_disp_struct_9.xyz,Nucleus 27H :,-1.752241,-2.048385,1.937243,29.64,34.09,27.8,27.03,38.0,14.42,21.13,-5.24,14.26,6.34,27.03,27.8,34.09,0,7.06,-0.78
nw_cut_3_0_2f_opt_disp_struct_9.xyz,Nucleus 0C :,-2.531144,-2.781879,1.763549,171.07,186.63,160.73,165.85,257.73,237.66,237.36,-77.85,-74.3,-67.39,160.73,165.85,186.63,0,25.9,-0.6
nw_cut_3_0_2f_opt_disp_struct_9.xyz,Nucleus 3C :,-1.459434,-1.606716,3.225493,62.07,148.44,53.19,-15.43,241.12,273.61,263.8,-92.71,-220.38,-279.24,-15.43,53.19,148.44,0,163.87,-0.16
nw_cut_3_0_2f_opt_disp_struct_9.xyz,Nucleus 4C :,-2.00573,-1.984855,4.082642,55.75,-28.26,127.55,67.97,274.16,257.31,257.93,-292.75,-129.8,-199.58,-28.26,67.97,127.55,0,155.81,0.24
nw_cut_3_0_2f_opt_disp_struct_9.xyz,Nucleus 7C :,-0.451567,-0.665956,3.432975,52.13,138.15,-2.54,20.79,274.13,259.51,266.56,-121.4,-276.59,-245.82,-2.54,20.79,138.15,0,140.69,-0.67
nw_cut_3_0_2f_opt_disp_struct_9.xyz,Nucleus 8C :,-0.173096,-0.241849,4.672149,58.53,158.46,22.06,-4.92,234.67,264.55,268.54,-76.51,-242.87,-272.78,-4.92,22.06,158.46,0,163.38,-0.67
nw_cut_3_0_2f_opt_disp_struct_9.xyz,Nucleus 9C :,2.458655,1.596247,0.698537,17.1,-58.57,76.45,33.43,236.23,265.98,269.14,-327.7,-159.81,-232.53,-58.57,33.43,76.45,0,135.02,0.36
nw_cut_3_0_2f_opt_disp_struct_9.xyz,Nucleus 11C :,0.040184,0.255565,-1.796704,69.91,162.01,-13.85,61.57,238.7,260.9,274.23,-76.91,-279.12,-208.08,-13.85,61.57,162.01,0,175.86,-0.14
nw_cut_3_0_2f_opt_disp_struct_9.xyz,Nucleus 13C :,4.690798,-5.730425,1.78108,67.82,163.88,54.58,-15.0,225.66,259.2,276.16,-61.85,-219.74,-275.97,-15.0,54.58,163.88,0,178.88,-0.22
nw_cut_3_0_2f_opt_disp_struct_9.xyz,Nucleus 15C :,5.613561,-6.054414,2.265738,26.87,83.13,35.18,-37.7,231.93,269.07,263.62,-148.82,-232.8,-302.39,-37.7,35.18,83.13,0,120.83,0.21
nw_cut_3_0_2f_opt_disp_struct_9.xyz,Nucleus 19C :,4.850624,-4.763033,1.295626,163.27,191.21,156.24,142.37,261.33,231.47,238.76,-69.04,-81.32,-91.37,142.37,156.24,191.21,0,48.84,-0.43
nw_cut_3_0_2f_opt_disp_struct_9.xyz,Nucleus 22C :,3.577075,-5.71097,2.788634,3.1,-91.97,94.07,7.21,192.67,251.98,269.89,-98.79,-345.24,-261.21,-91.97,7.21,94.07,0,186.04,0.07
nw_cut_3_0_2f_opt_disp_struct_9.xyz,Nucleus 5N :,3.460209,-6.547032,3.676459,122.88,54.38,184.53,129.74,294.48,337.21,330.18,-110.37,-206.9,-275.94,54.38,129.74,184.53,0,130.15,0.16
nw_cut_3_0_2f_opt_disp_struct_9.xyz,Nucleus 24N :,2.676679,-4.700047,2.644771,145.97,47.18,243.77,146.97,292.23,327.55,343.92,-280.79,-86.86,-158.13,47.18,146.97,243.77,0,196.59,0.02
nw_cut_3_0_2f_opt_disp_struct_9.xyz,Nucleus 23O :,2.664405,-4.215497,1.769687,-112.44,317.09,-239.12,-415.29,330.37,380.18,427.44,-13.81,-620.82,-840.68,-415.29,-239.12,317.09,0,732.38,-0.52
nw_cut_3_0_2f_opt_disp_struct_9.xyz,Nucleus 10F :,1.80678,-4.832483,3.125227,307.82,403.19,226.92,293.34,485.75,459.4,466.97,-63.83,-232.81,-192.03,226.92,293.34,403.19,0,176.27,-0.25
nw_cut_3_0_2f_opt_disp_struct_9.xyz,Nucleus 16F :,4.448058,-6.470447,1.010799,324.81,414.39,255.75,304.3,459.79,468.23,485.36,-53.79,-204.23,-180.92,255.75,304.3,414.39,0,158.64,-0.39
nw_cut_3_0_3f_opt.xyz,Nucleus 1H :,0.985827,-0.026268,-1.323171,29.09,35.39,23.41,28.48,41.23,25.58,28.28,-7.02,1.4,-2.18,23.41,28.48,35.39,0,11.98,-0.15
nw_cut_3_0_3f_opt.xyz,Nucleus 2H :,1.775162,0.616305,-1.720895,28.78,34.53,24.0,27.8,45.79,24.39,27.46,-12.34,1.7,-0.67,24.0,27.8,34.53,0,10.53,-0.28
nw_cut_3_0_3f_opt.xyz,Nucleus 6H :,1.201801,-1.055038,-1.630788,23.5,15.33,24.95,30.23,9.51,29.89,49.22,-19.44,6.19,-4.85,15.33,24.95,30.23,0,14.9,0.29
nw_cut_3_0_3f_opt.xyz,Nucleus 12H :,0.900938,0.098278,0.155971,24.43,20.7,25.11,27.49,47.96,17.46,31.01,-23.25,3.68,-3.56,20.7,25.11,27.49,0,6.79,0.3
nw_cut_3_0_3f_opt.xyz,Nucleus 17H :,1.676783,0.915114,0.956718,24.17,20.54,25.51,26.45,44.3,26.8,30.38,-18.83,-6.04,-4.11,20.54,25.51,26.45,0,5.91,0.68
nw_cut_3_0_3f_opt.xyz,Nucleus 18H :,1.288305,0.744281,2.258473,28.73,35.2,27.31,23.67,42.1,26.96,32.35,-0.21,-9.61,-5.41,23.67,27.31,35.2,0,11.53,-0.37
nw_cut_3_0_3f_opt.xyz,Nucleus 20H :,1.696817,1.190841,3.061224,30.2,36.23,27.85,26.51,41.12,18.56,13.25,-5.02,9.17,13.51,26.51,27.85,36.23,0,9.72,-0.73
nw_cut_3_0_3f_opt.xyz,Nucleus 21H :,0.265914,-0.170296,2.325316,30.68,25.13,32.31,34.61,23.01,36.82,38.9,-6.05,-3.39,2.77,25.13,32.31,34.61,0,9.48,0.52
nw_cut_3_0_3f_opt.xyz,Nucleus 25H :,-0.004197,-0.59451,1.022038,27.68,44.09,16.2,22.76,57.83,25.41,27.05,2.92,-9.79,-20.37,16.2,22.76,44.09,0,27.89,-0.53
nw_cut_3_0_3f_opt.xyz,Nucleus 26H :,-1.03197,-1.544275,0.834547,27.49,40.8,23.66,18.01,47.55,33.36,25.28,-2.0,-9.84,-11.87,18.01,23.66,40.8,0,22.79,-0.5
nw_cut_3_0_3f_opt.xyz,Nucleus 27H :,-1.334582,-1.983963,-0.395338,30.01,34.61,28.51,26.91,38.4,21.17,22.68,-4.59,4.73,7.64,26.91,28.51,34.61,0,7.7,-0.58
nw_cut_3_0_3f_opt.xyz,Nucleus 0C :,-1.749556,-2.0418,1.923054,171.2,186.79,160.5,166.3,258.78,236.66,238.5,-67.81,-74.29,-78.25,160.5,166.3,186.79,0,26.29,-0.56
nw_cut_3_0_3f_opt.xyz,Nucleus 3C :,-2.53638,-2.772146,1.77502,62.27,148.32,53.96,-15.47,243.5,273.91,265.2,-95.24,-219.88,-280.67,-15.47,53.96,148.32,0,163.79,-0.15
nw_cut_3_0_3f_opt.xyz,Nucleus 4C :,-1.449357,-1.595885,3.202332,54.28,-28.88,126.69,65.04,275.13,256.48,258.9,-293.65,-132.0,-202.01,-28.88,65.04,126.69,0,155.57,0.21
nw_cut_3_0_3f_opt.xyz,Nucleus 7C :,-2.146016,-2.081671,4.239838,46.74,138.38,-11.51,13.34,273.69,268.03,262.93,-125.54,-285.03,-253.88,-11.51,13.34,138.38,0,149.89,-0.67
nw_cut_3_0_3f_opt.xyz,Nucleus 8C :,-0.442694,-0.657054,3.42605,59.94,157.15,26.06,-3.38,236.33,262.55,267.51,-79.71,-236.27,-270.57,-3.38,26.06,157.15,0,160.53,-0.63
nw_cut_3_0_3f_opt.xyz,Nucleus 9C :,-0.161232,-0.231632,4.664738,17.64,-56.69,79.6,30.02,238.63,265.7,269.04,-159.41,-235.4,-325.63,-56.69,30.02,79.6,0,136.29,0.27
nw_cut_3_0_3f_opt.xyz,Nucleus 11C :,2.468406,1.59812,0.687711,75.78,155.11,8.46,63.77,239.51,263.68,278.22,-84.89,-260.75,-208.42,8.46,63.77,155.11,0,146.65,-0.25
nw_cut_3_0_3f_opt.xyz,Nucleus 13C :,0.043715,0.257557,-1.804025,25.87,89.0,17.28,-28.68,234.45,260.14,278.2,-145.87,-259.51,-289.82,-28.68,17.28,89.0,0,117.68,-0.22
nw_cut_3_0_3f_opt.xyz,Nucleus 15C :,3.027979,-3.880232,1.527429,33.81,89.81,20.19,-8.56,236.0,275.53,265.59,-146.21,-254.23,-275.24,-8.56,20.19,89.81,0,98.37,-0.42
nw_cut_3_0_3f_opt.xyz,Nucleus 19C :,3.94689,-4.222263,2.006601,163.81,191.65,158.04,141.73,258.09,235.4,243.69,-65.63,-85.08,-95.04,141.73,158.04,191.65,0,49.92,-0.35
nw_cut_3_0_3f_opt.xyz,Nucleus 22C :,3.198505,-2.907894,1.055473,3.11,-88.18,94.52,2.99,201.92,251.27,270.76,-107.46,-342.45,-264.71,-88.18,2.99,94.52,0,182.7,-0.0
nw_cut_3_0_3f_opt.xyz,Nucleus 5N :,1.914267,-3.861312,2.535005,117.39,41.92,185.11,125.14,293.36,337.89,329.63,-108.84,-212.09,-287.77,41.92,125.14,185.11,0,143.19,0.16
nw_cut_3_0_3f_opt.xyz,Nucleus 24N :,1.798649,-4.696588,3.423732,137.32,19.63,232.73,159.61,291.64,331.52,348.53,-309.43,-112.74,-137.55,19.63,159.61,232.73,0,213.1,0.31
nw_cut_3_0_3f_opt.xyz,Nucleus 23O :,1.012399,-2.851853,2.390092,-105.07,317.63,-229.18,-403.67,343.31,382.12,427.05,-26.61,-612.21,-828.89,-403.67,-229.18,317.63,0,721.3,-0.52
nw_cut_3_0_3f_opt.xyz,Nucleus 10F :,0.988257,-2.382637,1.505812,300.04,397.35,217.0,285.76,480.23,457.23,467.49,-69.23,-241.33,-194.27,217.0,285.76,397.35,0,180.35,-0.24
nw_cut_3_0_3f_opt.xyz,Nucleus 14F :,0.140236,-3.020854,2.85369,317.65,410.37,290.93,251.66,459.44,477.29,480.53,-68.3,-185.92,-210.09,251.66,290.93,410.37,0,158.71,-0.51
nw_cut_3_0_3f_opt.xyz,Nucleus 16F :,2.775143,-4.605717,0.746504,339.06,455.96,269.28,291.93,456.91,476.21,480.21,-19.27,-181.81,-195.09,269.28,291.93,455.96,0,186.68,-0.76
nw_cut_3_0_3f_opt_disp_struct_0.xyz,Nucleus 1H :,0.985827,-0.026268,-1.323171,29.1,35.39,23.43,28.48,41.31,25.79,28.55,-7.13,1.01,-2.23,23.43,28.48,35.39,0,11.96,-0.16
nw_cut_3_0_3f_opt_disp_struct_0.xyz,Nucleus 2H :,1.775162,0.616305,-1.720895,28.79,34.55,24.01,27.82,45.96,24.98,27.39,-12.41,1.38,-0.92,24.01,27.82,34.55,0,10.54,-0.28
nw_cut_3_0_3f_opt_disp_struct_0.xyz,Nucleus 6H :,1.201801,-1.055038,-1.630788,23.57,15.39,25.04,30.27,9.74,29.87,49.62,-19.8,6.03,-4.75,15.39,25.04,30.27,0,14.88,0.3
nw_cut_3_0_3f_opt_disp_struct_0.xyz,Nucleus 12H :,0.900938,0.098278,0.155971,24.48,20.76,25.26,27.43,48.15,17.27,31.25,-23.26,3.9,-3.86,20.76,25.26,27.43,0,6.67,0.35
nw_cut_3_0_3f_opt_disp_struct_0.xyz,Nucleus 17H :,1.676783,0.915114,0.956718,24.18,20.58,25.52,26.45,44.47,26.91,30.72,-18.98,-6.11,-4.45,20.58,25.52,26.45,0,5.87,0.68
nw_cut_3_0_3f_opt_disp_struct_0.xyz,Nucleus 18H :,1.288305,0.744281,2.258473,28.73,35.19,27.32,23.69,42.18,27.2,32.41,-0.46,-9.56,-5.57,23.69,27.32,35.19,0,11.5,-0.37
nw_cut_3_0_3f_opt_disp_struct_0.xyz,Nucleus 20H :,1.696817,1.190841,3.061224,30.1,36.05,27.81,26.44,40.81,18.3,12.52,-4.91,9.37,14.2,26.44,27.81,36.05,0,9.61,-0.71
nw_cut_3_0_3f_opt_disp_struct_0.xyz,Nucleus 21H :,0.265914,-0.170296,2.325316,30.55,25.14,32.33,34.18,23.56,36.44,38.89,-6.21,-3.24,2.21,25.14,32.33,34.18,0,9.04,0.59
nw_cut_3_0_3f_opt_disp_struct_0.xyz,Nucleus 25H :,-0.004197,-0.59451,1.022038,28.54,42.12,18.79,24.7,55.86,28.93,31.59,0.22,-11.84,-19.14,18.79,24.7,42.12,0,23.33,-0.49
nw_cut_3_0_3f_opt_disp_struct_0.xyz,Nucleus 26H :,-1.03197,-1.544275,0.834547,28.3,38.96,25.56,20.38,43.83,35.5,23.94,-0.31,-6.41,-11.64,20.38,25.56,38.96,0,18.58,-0.44
nw_cut_3_0_3f_opt_disp_struct_0.xyz,Nucleus 27H :,-1.334582,-1.983963,-0.395338,29.93,34.5,28.4,26.88,38.41,20.48,22.49,-4.77,4.88,8.29,26.88,28.4,34.5,0,7.62,-0.6
nw_cut_3_0_3f_opt_disp_struct_0.xyz,Nucleus 0C :,-1.749556,-2.0418,1.923054,171.19,186.75,160.53,166.28,258.78,237.16,238.45,-67.67,-74.64,-78.53,160.53,166.28,186.75,0,26.22,-0.56
nw_cut_3_0_3f_opt_disp_struct_0.xyz,Nucleus 3C :,-2.53638,-2.772146,1.77502,62.39,148.43,54.3,-15.57,243.4,274.64,265.25,-95.01,-220.34,-280.78,-15.57,54.3,148.43,0,164.0,-0.15
nw_cut_3_0_3f_opt_disp_struct_0.xyz,Nucleus 4C :,-1.449357,-1.595885,3.202332,54.32,-28.92,126.62,65.27,275.21,256.91,258.69,-293.63,-131.84,-202.38,-28.92,65.27,126.62,0,155.54,0.21
nw_cut_3_0_3f_opt_disp_struct_0.xyz,Nucleus 7C :,-2.146016,-2.081671,4.239838,48.63,138.45,-7.74,15.18,274.66,268.28,262.64,-125.16,-282.16,-252.37,-7.74,15.18,138.45,0,146.19,-0.69
nw_cut_3_0_3f_opt_disp_struct_0.xyz,Nucleus 8C :,-0.442694,-0.657054,3.42605,61.37,156.95,28.52,-1.36,237.14,263.92,268.98,-80.53,-235.69,-269.71,-1.36,28.52,156.95,0,158.31,-0.62
nw_cut_3_0_3f_opt_disp_struct_0.xyz,Nucleus 9C :,-0.161232,-0.231632,4.664738,18.88,-53.61,79.65,30.61,238.61,266.34,269.46,-159.06,-235.73,-322.96,-53.61,30.61,79.65,0,133.26,0.26
nw_cut_3_0_3f_opt_disp_struct_0.xyz,Nucleus 11C :,2.468406,1.59812,0.687711,77.6,155.14,11.55,66.12,238.01,264.37,277.5,-83.24,-257.62,-206.21,11.55,66.12,155.14,0,143.59,-0.24
nw_cut_3_0_3f_opt_disp_struct_0.xyz,Nucleus 13C :,0.043715,0.257557,-1.804025,26.73,88.93,17.49,-26.22,234.17,260.69,275.81,-145.65,-256.88,-287.96,-26.22,17.49,88.93,0,115.15,-0.24
nw_cut_3_0_3f_opt_disp_struct_0.xyz,Nucleus 15C :,3.194427,-4.064995,1.553072,35.57,89.89,21.76,-4.94,235.77,274.46,266.34,-145.91,-251.65,-272.3,-4.94,21.76,89.89,0,94.83,-0.44
nw_cut_3_0_3f_opt_disp_struct_0.xyz,Nucleus 19C :,4.113338,-4.407026,2.032244,163.67,191.6,157.57,141.85,258.42,235.5,243.08,-66.06,-84.77,-95.14,141.85,157.57,191.6,0,49.75,-0.37
nw_cut_3_0_3f_opt_disp_struct_0.xyz,Nucleus 22C :,3.364952,-3.092658,1.081116,2.73,-89.69,94.28,3.6,200.73,251.6,270.42,-106.54,-343.99,-264.04,-89.69,3.6,94.28,0,183.97,0.01
nw_cut_3_0_3f_opt_disp_struct_0.xyz,Nucleus 5N :,2.080715,-4.046075,2.560648,118.45,43.88,185.12,126.34,293.41,338.07,330.03,-109.07,-211.01,-286.1,43.88,126.34,185.12,0,141.24,0.17
nw_cut_3_0_3f_opt_disp_struct_0.xyz,Nucleus 24N :,1.965097,-4.881352,3.449375,142.46,33.04,240.34,154.0,290.88,329.58,346.69,-295.02,-101.62,-143.13,33.04,154.0,240.34,0,207.3,0.17
nw_cut_3_0_3f_opt_disp_struct_0.xyz,Nucleus 23O :,1.178847,-3.036616,2.415735,-110.04,316.71,-235.13,-411.69,341.81,381.46,426.86,-25.96,-617.5,-836.78,-411.69,-235.13,316.71,0,728.4,-0.52
nw_cut_3_0_3f_opt_disp_struct_0.xyz,Nucleus 10F :,1.154704,-2.567401,1.531455,301.96,397.68,220.4,287.8,481.03,457.7,467.4,-69.07,-238.29,-192.9,220.4,287.8,397.68,0,177.28,-0.24
nw_cut_3_0_3f_opt_disp_struct_0.xyz,Nucleus 14F :,0.306684,-3.205618,2.879333,319.51,410.8,293.11,254.61,459.52,477.85,479.89,-67.23,-184.06,-207.44,254.61,293.11,410.8,0,156.19,-0.51
nw_cut_3_0_3f_opt_disp_struct_0.xyz,Nucleus 16F :,2.941591,-4.790481,0.772147,341.76,456.18,274.44,294.65,457.39,474.96,481.0,-18.03,-177.57,-192.47,274.44,294.65,456.18,0,181.74,-0.78
nw_cut_3_0_3f_opt_disp_struct_1.xyz,Nucleus 1H :,0.985827,-0.026268,-1.323171,29.11,35.38,23.45,28.5,41.35,25.95,28.69,-7.19,0.78,-2.24,23.45,28.5,35.38,0,11.93,-0.15
nw_cut_3_0_3f_opt_disp_struct_1.xyz,Nucleus 2H :,1.775162,0.616305,-1.720895,28.81,34.57,24.03,27.82,46.04,25.38,27.32,-12.44,1.26,-1.15,24.03,27.82,34.57,0,10.54,-0.28
nw_cut_3_0_3f_opt_disp_struct_1.xyz,Nucleus 6H :,1.201801,-1.055038,-1.630788,23.61,15.44,25.11,30.29,9.92,29.91,49.79,-19.96,5.89,-4.73,15.44,25.11,30.29,0,14.85,0.3
nw_cut_3_0_3f_opt_disp_struct_1.xyz,Nucleus 12H :,0.900938,0.098278,0.155971,24.5,20.8,25.27,27.42,48.19,16.98,31.64,-23.25,4.2,-4.28,20.8,25.27,27.42,0,6.62,0.35
nw_cut_3_0_3f_opt_disp_struct_1.xyz,Nucleus 17H :,1.676783,0.915114,0.956718,24.21,20.62,25.53,26.48,44.58,27.02,30.89,-19.1,-6.19,-4.58,20.62,25.53,26.48,0,5.86,0.68
nw_cut_3_0_3f_opt_disp_struct_1.xyz,Nucleus 18H :,1.288305,0.744281,2.258473,28.74,35.17,27.33,23.72,42.25,27.32,32.43,-0.59,-9.56,-5.63,23.72,27.33,35.17,0,11.45,-0.37
nw_cut_3_0_3f_opt_disp_struct_1.xyz,Nucleus 20H :,1.696817,1.190841,3.061224,30.02,35.88,27.79,26.4,40.53,18.04,11.8,-4.81,9.6,14.91,26.4,27.79,35.88,0,9.48,-0.71
nw_cut_3_0_3f_opt_disp_struct_1.xyz,Nucleus 21H :,0.265914,-0.170296,2.325316,30.45,25.2,32.26,33.88,23.8,35.99,39.01,-6.37,-3.08,1.97,25.2,32.26,33.88,0,8.68,0.63
nw_cut_3_0_3f_opt_disp_struct_1.xyz,Nucleus 25H :,-0.004197,-0.59451,1.022038,28.76,40.44,20.19,25.66,54.31,30.7,34.25,-1.37,-13.14,-18.45,20.19,25.66,40.44,0,20.25,-0.46
nw_cut_3_0_3f_opt_disp_struct_1.xyz,Nucleus 26H :,-1.03197,-1.544275,0.834547,28.53,37.63,26.33,21.63,41.15,36.79,24.13,0.45,-5.32,-11.61,21.63,26.33,37.63,0,16.0,-0.41
nw_cut_3_0_3f_opt_disp_struct_1.xyz,Nucleus 27H :,-1.334582,-1.983963,-0.395338,29.86,34.41,28.31,26.87,38.36,19.8,22.31,-4.88,8.95,5.06,26.87,28.31,34.41,0,7.54,-0.62
nw_cut_3_0_3f_opt_disp_struct_1.xyz,Nucleus 0C :,-1.749556,-2.0418,1.923054,171.17,186.71,160.55,166.25,258.69,237.45,238.44,-78.59,-74.85,-67.63,160.55,166.25,186.71,0,26.16,-0.56
nw_cut_3_0_3f_opt_disp_struct_1.xyz,Nucleus 3C :,-2.53638,-2.772146,1.77502,62.36,148.47,54.43,-15.82,243.39,275.03,265.2,-94.95,-220.6,-280.99,-15.82,54.43,148.47,0,164.29,-0.14
nw_cut_3_0_3f_opt_disp_struct_1.xyz,Nucleus 4C :,-1.449357,-1.595885,3.202332,54.53,-28.7,126.59,65.69,275.16,257.27,258.35,-293.33,-131.65,-202.21,-28.7,65.69,126.59,0,155.29,0.22
nw_cut_3_0_3f_opt_disp_struct_1.xyz,Nucleus 7C :,-2.146016,-2.081671,4.239838,49.7,138.35,-5.6,16.35,275.13,268.34,262.24,-124.86,-280.39,-251.36,-5.6,16.35,138.35,0,143.95,-0.7
nw_cut_3_0_3f_opt_disp_struct_1.xyz,Nucleus 8C :,-0.442694,-0.657054,3.42605,62.06,156.72,29.81,-0.34,237.71,264.87,269.71,-81.34,-235.61,-269.15,-0.34,29.81,156.72,0,157.06,-0.62
nw_cut_3_0_3f_opt_disp_struct_1.xyz,Nucleus 9C :,-0.161232,-0.231632,4.664738,19.37,-52.39,79.49,31.0,238.34,267.03,269.48,-158.9,-236.04,-321.82,-52.39,31.0,79.49,0,131.88,0.26
nw_cut_3_0_3f_opt_disp_struct_1.xyz,Nucleus 11C :,2.468406,1.59812,0.687711,78.64,155.01,13.21,67.7,237.03,264.66,277.27,-82.26,-255.84,-204.95,13.21,67.7,155.01,0,141.8,-0.23
nw_cut_3_0_3f_opt_disp_struct_1.xyz,Nucleus 13C :,0.043715,0.257557,-1.804025,27.07,88.73,17.75,-25.27,233.68,260.97,274.17,-145.33,-254.96,-287.31,-25.27,17.75,88.73,0,114.0,-0.25
nw_cut_3_0_3f_opt_disp_struct_1.xyz,Nucleus 15C :,3.360875,-4.249759,1.578714,36.7,89.83,23.07,-2.8,235.35,273.48,266.77,-145.56,-249.39,-270.54,-2.8,23.07,89.83,0,92.63,-0.44
nw_cut_3_0_3f_opt_disp_struct_1.xyz,Nucleus 19C :,4.279786,-4.59179,2.057887,163.57,191.54,157.24,141.94,258.73,235.23,242.5,-66.46,-84.34,-94.93,141.94,157.24,191.54,0,49.6,-0.38
nw_cut_3_0_3f_opt_disp_struct_1.xyz,Nucleus 22C :,3.5314,-3.277421,1.106759,2.62,-90.52,94.16,4.21,199.63,251.85,270.4,-105.57,-344.77,-263.69,-90.52,4.21,94.16,0,184.68,0.03
nw_cut_3_0_3f_opt_disp_struct_1.xyz,Nucleus 5N :,2.247163,-4.230839,2.586291,119.27,45.41,185.13,127.28,293.37,338.19,330.18,-109.16,-210.15,-284.61,45.41,127.28,185.13,0,139.72,0.17
nw_cut_3_0_3f_opt_disp_struct_1.xyz,Nucleus 24N :,2.131545,-5.066116,3.475018,144.98,40.25,243.72,150.98,289.32,327.17,345.94,-286.47,-95.46,-145.55,40.25,150.98,243.72,0,203.47,0.09
nw_cut_3_0_3f_opt_disp_struct_1.xyz,Nucleus 23O :,1.345295,-3.22138,2.441378,-112.74,316.14,-238.33,-416.03,340.65,380.97,426.74,-25.32,-620.25,-841.02,-416.03,-238.33,316.14,0,732.17,-0.51
nw_cut_3_0_3f_opt_disp_struct_1.xyz,Nucleus 10F :,1.321152,-2.752164,1.557098,302.9,397.85,222.02,288.84,481.65,457.93,467.34,-69.09,-236.77,-192.35,222.02,288.84,397.85,0,175.83,-0.24
nw_cut_3_0_3f_opt_disp_struct_1.xyz,Nucleus 14F :,0.473131,-3.390381,2.904975,320.4,411.02,294.3,255.87,459.46,477.97,479.66,-66.55,-183.11,-206.24,255.87,294.3,411.02,0,155.15,-0.5
nw_cut_3_0_3f_opt_disp_struct_1.xyz,Nucleus 16F :,3.108039,-4.975244,0.79779,343.68,456.32,278.19,296.54,457.79,473.94,481.66,-17.0,-174.37,-190.97,278.19,296.54,456.32,0,178.13,-0.79
nw_cut_3_0_3f_opt_disp_struct_10.xyz,Nucleus 1H :,0.985827,-0.026268,-1.323171,29.17,35.3,23.53,28.67,41.03,26.2,28.86,-6.86,0.48,-2.19,23.53,28.67,35.3,0,11.77,-0.13
nw_cut_3_0_3f_opt_disp_struct_10.xyz,Nucleus 2H :,1.775162,0.616305,-1.720895,28.83,34.79,24.05,27.66,45.78,25.51,26.91,-11.89,1.78,-1.58,24.05,27.66,34.79,0,10.74,-0.33
nw_cut_3_0_3f_opt_disp_struct_10.xyz,Nucleus 6H :,1.201801,-1.055038,-1.630788,23.75,15.54,25.34,30.37,10.59,30.48,49.42,-19.4,5.16,-5.0,15.54,25.34,30.37,0,14.83,0.32
nw_cut_3_0_3f_opt_disp_struct_10.xyz,Nucleus 12H :,0.900938,0.098278,0.155971,24.51,20.77,25.07,27.68,47.34,16.33,31.82,-22.34,4.54,-4.16,20.77,25.07,27.68,0,6.91,0.24
nw_cut_3_0_3f_opt_disp_struct_10.xyz,Nucleus 17H :,1.676783,0.915114,0.956718,24.29,20.73,25.49,26.65,44.63,27.21,30.91,-19.14,-6.36,-4.37,20.73,25.49,26.65,0,5.92,0.61
nw_cut_3_0_3f_opt_disp_struct_10.xyz,Nucleus 18H :,1.288305,0.744281,2.258473,28.77,35.03,27.42,23.85,42.05,26.97,32.33,-0.23,-9.43,-5.4,23.85,27.42,35.03,0,11.18,-0.36
nw_cut_3_0_3f_opt_disp_struct_10.xyz,Nucleus 20H :,1.696817,1.190841,3.061224,29.74,35.03,27.85,26.34,39.06,16.36,5.69,-4.34,11.32,21.12,26.34,27.85,35.03,0,8.69,-0.65
nw_cut_3_0_3f_opt_disp_struct_10.xyz,Nucleus 21H :,0.265914,-0.170296,2.325316,30.0,25.61,30.79,33.59,41.37,32.8,22.97,-8.91,-1.47,3.24,25.61,30.79,33.59,0,7.98,0.3
nw_cut_3_0_3f_opt_disp_struct_10.xyz,Nucleus 25H :,-0.004197,-0.59451,1.022038,27.51,33.82,22.22,26.48,33.79,46.11,49.36,-4.14,-18.93,-23.68,22.22,26.48,33.82,0,11.6,-0.27
nw_cut_3_0_3f_opt_disp_struct_10.xyz,Nucleus 26H :,-1.03197,-1.544275,0.834547,27.58,34.61,23.43,24.7,43.82,34.86,32.34,-2.19,-15.07,-11.02,23.43,24.7,34.61,0,11.18,-0.77
nw_cut_3_0_3f_opt_disp_struct_10.xyz,Nucleus 27H :,-1.334582,-1.983963,-0.395338,29.62,34.04,27.81,27.02,38.04,14.15,20.93,-5.4,14.6,6.55,27.02,27.81,34.04,0,7.02,-0.77
nw_cut_3_0_3f_opt_disp_struct_10.xyz,Nucleus 0C :,-1.749556,-2.0418,1.923054,171.14,186.67,160.67,166.07,258.02,238.04,237.02,-77.69,-74.5,-67.48,160.67,166.07,186.67,0,26.0,-0.58
nw_cut_3_0_3f_opt_disp_struct_10.xyz,Nucleus 3C :,-2.53638,-2.772146,1.77502,61.82,148.31,53.96,-16.81,242.25,273.08,264.41,-93.97,-219.09,-281.21,-16.81,53.96,148.31,0,165.12,-0.14
nw_cut_3_0_3f_opt_disp_struct_10.xyz,Nucleus 4C :,-1.449357,-1.595885,3.202332,55.54,-27.45,126.36,67.72,274.0,257.45,258.14,-291.86,-131.55,-199.56,-27.45,67.72,126.36,0,153.81,0.24
nw_cut_3_0_3f_opt_disp_struct_10.xyz,Nucleus 7C :,-2.146016,-2.081671,4.239838,51.19,137.48,-2.5,18.6,260.56,272.34,267.14,-123.14,-274.72,-248.6,-2.5,18.6,137.48,0,139.98,-0.7
nw_cut_3_0_3f_opt_disp_struct_10.xyz,Nucleus 8C :,-0.442694,-0.657054,3.42605,61.88,155.58,30.21,-0.16,237.56,265.23,268.33,-82.34,-234.91,-268.24,-0.16,30.21,155.58,0,155.74,-0.61
nw_cut_3_0_3f_opt_disp_struct_10.xyz,Nucleus 9C :,-0.161232,-0.231632,4.664738,19.0,-52.89,78.4,31.48,234.74,265.6,266.82,-156.35,-235.01,-318.8,-52.89,31.48,78.4,0,131.29,0.29
nw_cut_3_0_3f_opt_disp_struct_10.xyz,Nucleus 11C :,2.468406,1.59812,0.687711,79.42,153.92,14.49,69.85,236.21,263.9,275.45,-82.39,-252.74,-202.15,14.49,69.85,153.92,0,139.43,-0.21
nw_cut_3_0_3f_opt_disp_struct_10.xyz,Nucleus 13C :,0.043715,0.257557,-1.804025,26.94,87.64,18.61,-25.42,232.95,260.92,271.25,-145.31,-251.71,-287.26,-25.42,18.61,87.64,0,113.06,-0.22
nw_cut_3_0_3f_opt_disp_struct_10.xyz,Nucleus 15C :,4.858905,-5.912631,1.8095,38.5,88.92,26.02,0.57,234.52,270.28,266.3,-145.62,-244.22,-265.75,0.57,26.02,88.92,0,88.35,-0.42
nw_cut_3_0_3f_opt_disp_struct_10.xyz,Nucleus 19C :,5.777816,-6.254662,2.288672,163.15,191.23,156.0,142.22,262.08,230.87,238.43,-69.79,-80.83,-91.31,142.22,156.0,191.23,0,49.01,-0.44
nw_cut_3_0_3f_opt_disp_struct_10.xyz,Nucleus 22C :,5.029431,-4.940293,1.337544,2.42,-92.53,94.35,5.45,192.83,251.85,269.92,-98.72,-345.83,-262.77,-92.53,5.45,94.35,0,186.88,0.05
nw_cut_3_0_3f_opt_disp_struct_10.xyz,Nucleus 5N :,3.745193,-5.893711,2.817076,121.67,49.64,184.96,130.4,293.94,337.64,329.78,-109.35,-206.65,-280.35,49.64,130.4,184.96,0,135.32,0.19
nw_cut_3_0_3f_opt_disp_struct_10.xyz,Nucleus 24N :,3.629575,-6.728988,3.705804,146.34,48.08,243.78,147.17,288.45,327.45,345.2,-279.25,-85.68,-157.14,48.08,147.17,243.78,0,195.7,0.01
nw_cut_3_0_3f_opt_disp_struct_10.xyz,Nucleus 23O :,2.843325,-4.884252,2.672163,-116.36,315.51,-242.54,-422.06,330.04,379.77,427.46,-15.03,-623.84,-847.49,-422.06,-242.54,315.51,0,737.57,-0.51
nw_cut_3_0_3f_opt_disp_struct_10.xyz,Nucleus 10F :,2.819182,-4.415036,1.787884,303.78,397.96,223.16,290.23,482.78,458.9,466.43,-68.46,-235.88,-192.43,223.16,290.23,397.96,0,174.8,-0.23
nw_cut_3_0_3f_opt_disp_struct_10.xyz,Nucleus 14F :,1.971162,-5.053253,3.135761,321.97,411.78,296.64,257.49,460.86,474.54,479.3,-62.72,-181.56,-204.52,257.49,296.64,411.78,0,154.29,-0.49
nw_cut_3_0_3f_opt_disp_struct_10.xyz,Nucleus 16F :,4.606069,-6.638116,1.028576,348.73,457.06,301.86,287.26,484.05,466.89,459.61,-9.79,-166.93,-187.66,287.26,301.86,457.06,0,169.8,-0.83
nw_cut_3_0_3f_opt_disp_struct_11.xyz,Nucleus 1H :,0.985827,-0.026268,-1.323171,29.17,35.3,23.53,28.68,41.0,26.19,28.87,-6.82,0.47,-2.21,23.53,28.68,35.3,0,11.77,-0.12
nw_cut_3_0_3f_opt_disp_struct_11.xyz,Nucleus 2H :,1.775162,0.616305,-1.720895,28.83,34.8,24.04,27.66,45.74,25.48,26.89,-11.84,1.83,-1.59,24.04,27.66,34.8,0,10.76,-0.33
nw_cut_3_0_3f_opt_disp_struct_11.xyz,Nucleus 6H :,1.201801,-1.055038,-1.630788,23.75,15.53,25.35,30.37,10.59,30.49,49.36,-19.32,5.13,-5.0,15.53,25.35,30.37,0,14.84,0.32
nw_cut_3_0_3f_opt_disp_struct_11.xyz,Nucleus 12H :,0.900938,0.098278,0.155971,24.52,20.76,25.08,27.71,47.24,16.3,31.77,-22.22,4.54,-4.08,20.76,25.08,27.71,0,6.95,0.24
nw_cut_3_0_3f_opt_disp_struct_11.xyz,Nucleus 17H :,1.676783,0.915114,0.956718,24.3,20.74,25.49,26.66,44.61,27.21,30.91,-19.11,-6.36,-4.37,20.74,25.49,26.66,0,5.92,0.6
nw_cut_3_0_3f_opt_disp_struct_11.xyz,Nucleus 18H :,1.288305,0.744281,2.258473,28.76,35.02,27.43,23.84,42.05,26.95,32.32,-0.2,-9.44,-5.38,23.84,27.43,35.02,0,11.18,-0.36
nw_cut_3_0_3f_opt_disp_struct_11.xyz,Nucleus 20H :,1.696817,1.190841,3.061224,29.72,34.98,27.86,26.33,38.98,16.14,4.99,-4.32,11.56,21.84,26.33,27.86,34.98,0,8.65,-0.65
nw_cut_3_0_3f_opt_disp_struct_11.xyz,Nucleus 21H :,0.265914,-0.170296,2.325316,29.98,25.66,30.68,33.61,41.65,32.57,22.78,-9.23,-1.33,3.5,25.66,30.68,33.61,0,7.95,0.26
nw_cut_3_0_3f_opt_disp_struct_11.xyz,Nucleus 25H :,-0.004197,-0.59451,1.022038,27.44,33.55,26.47,22.29,33.79,46.84,49.62,-4.12,-19.17,-24.65,22.29,26.47,33.55,0,11.26,-0.26
nw_cut_3_0_3f_opt_disp_struct_11.xyz,Nucleus 26H :,-1.03197,-1.544275,0.834547,27.51,34.54,23.45,24.54,44.32,32.28,35.52,-2.3,-15.61,-11.67,23.45,24.54,34.54,0,11.09,-0.8
nw_cut_3_0_3f_opt_disp_struct_11.xyz,Nucleus 27H :,-1.334582,-1.983963,-0.395338,29.61,34.03,27.77,27.04,38.06,13.55,20.77,-5.47,15.21,6.72,27.04,27.77,34.03,0,6.99,-0.79
nw_cut_3_0_3f_opt_disp_struct_11.xyz,Nucleus 0C :,-1.749556,-2.0418,1.923054,171.14,186.68,160.69,166.05,257.99,238.02,236.98,-77.66,-74.47,-67.45,160.69,166.05,186.68,0,25.99,-0.59
nw_cut_3_0_3f_opt_disp_struct_11.xyz,Nucleus 3C :,-2.53638,-2.772146,1.77502,61.79,148.3,53.93,-16.86,242.2,272.95,264.37,-93.94,-218.99,-281.23,-16.86,53.93,148.3,0,165.16,-0.14
nw_cut_3_0_3f_opt_disp_struct_11.xyz,Nucleus 4C :,-1.449357,-1.595885,3.202332,55.58,-27.41,126.32,67.83,273.96,257.36,258.22,-291.81,-131.59,-199.39,-27.41,67.83,126.32,0,153.73,0.24
nw_cut_3_0_3f_opt_disp_struct_11.xyz,Nucleus 7C :,-2.146016,-2.081671,4.239838,51.21,137.44,-2.42,18.61,260.5,272.12,267.12,-123.12,-274.4,-248.59,-2.42,18.61,137.44,0,139.86,-0.7
nw_cut_3_0_3f_opt_disp_struct_11.xyz,Nucleus 8C :,-0.442694,-0.657054,3.42605,61.86,155.51,30.26,-0.2,237.55,265.05,268.16,-82.37,-234.67,-268.15,-0.2,30.26,155.51,0,155.71,-0.61
nw_cut_3_0_3f_opt_disp_struct_11.xyz,Nucleus 9C :,-0.161232,-0.231632,4.664738,19.0,-52.88,78.38,31.5,234.62,265.36,266.69,-156.25,-234.9,-318.52,-52.88,31.5,78.38,0,131.26,0.29
nw_cut_3_0_3f_opt_disp_struct_11.xyz,Nucleus 11C :,2.468406,1.59812,0.687711,79.41,153.86,14.48,69.9,236.16,263.83,275.24,-82.41,-252.57,-202.01,14.48,69.9,153.86,0,139.38,-0.2
nw_cut_3_0_3f_opt_disp_struct_11.xyz,Nucleus 13C :,0.043715,0.257557,-1.804025,26.94,87.58,18.66,-25.41,232.91,260.89,271.0,-145.33,-251.45,-287.19,-25.41,18.66,87.58,0,112.99,-0.22
nw_cut_3_0_3f_opt_disp_struct_11.xyz,Nucleus 15C :,5.025353,-6.097394,1.835143,38.53,88.86,26.11,0.61,234.52,270.1,266.29,-145.68,-243.96,-265.68,0.61,26.11,88.86,0,88.25,-0.42
nw_cut_3_0_3f_opt_disp_struct_11.xyz,Nucleus 19C :,5.944264,-6.439425,2.314315,163.16,191.22,155.96,142.29,262.41,230.4,238.07,-70.03,-80.52,-90.86,142.29,155.96,191.22,0,48.93,-0.44
nw_cut_3_0_3f_opt_disp_struct_11.xyz,Nucleus 22C :,5.195878,-5.125057,1.363187,2.41,-92.63,94.39,5.47,192.08,251.83,269.99,-97.96,-345.84,-262.87,-92.63,5.47,94.39,0,187.02,0.05
nw_cut_3_0_3f_opt_disp_struct_11.xyz,Nucleus 5N :,3.911641,-6.078474,2.842719,121.74,49.74,184.93,130.55,293.93,337.6,329.71,-109.35,-206.47,-280.2,49.74,130.55,184.93,0,135.19,0.2
nw_cut_3_0_3f_opt_disp_struct_11.xyz,Nucleus 24N :,3.796023,-6.913751,3.731446,146.27,48.13,243.59,147.09,288.16,327.64,345.56,-279.27,-85.25,-158.03,48.13,147.09,243.59,0,195.46,0.01
nw_cut_3_0_3f_opt_disp_struct_11.xyz,Nucleus 23O :,3.009773,-5.069015,2.697806,-116.55,315.31,-242.63,-422.32,329.32,379.65,427.51,-14.49,-623.86,-847.78,-422.32,-242.63,315.31,0,737.63,-0.51
nw_cut_3_0_3f_opt_disp_struct_11.xyz,Nucleus 10F :,2.98563,-4.5998,1.813526,303.75,397.93,223.1,290.21,482.72,458.91,466.38,-68.44,-235.93,-192.41,223.1,290.21,397.93,0,174.83,-0.23
nw_cut_3_0_3f_opt_disp_struct_11.xyz,Nucleus 14F :,2.137609,-5.238017,3.161404,322.06,411.86,296.73,257.6,460.85,474.4,479.33,-62.52,-181.49,-204.38,257.6,296.73,411.86,0,154.26,-0.49
nw_cut_3_0_3f_opt_disp_struct_11.xyz,Nucleus 16F :,4.772517,-6.82288,1.054218,348.94,457.23,302.05,287.55,484.05,466.69,459.67,-9.44,-166.7,-187.43,287.55,302.05,457.23,0,169.68,-0.83
nw_cut_3_0_3f_opt_disp_struct_12.xyz,Nucleus 1H :,0.985827,-0.026268,-1.323171,29.17,35.29,23.53,28.7,40.97,26.19,28.91,-6.78,0.46,-2.22,23.53,28.7,35.29,0,11.76,-0.12
nw_cut_3_0_3f_opt_disp_struct_12.xyz,Nucleus 2H :,1.775162,0.616305,-1.720895,28.83,34.82,24.03,27.65,45.7,25.45,26.87,-11.79,1.87,-1.59,24.03,27.65,34.82,0,10.79,-0.33
nw_cut_3_0_3f_opt_disp_struct_12.xyz,Nucleus 6H :,1.201801,-1.055038,-1.630788,23.76,15.53,25.36,30.39,10.61,30.51,49.29,-19.23,5.1,-5.0,15.53,25.36,30.39,0,14.86,0.32
nw_cut_3_0_3f_opt_disp_struct_12.xyz,Nucleus 12H :,0.900938,0.098278,0.155971,24.51,20.74,25.08,27.71,47.15,16.27,31.7,-22.12,4.54,-4.01,20.74,25.08,27.71,0,6.97,0.25
nw_cut_3_0_3f_opt_disp_struct_12.xyz,Nucleus 17H :,1.676783,0.915114,0.956718,24.3,20.73,25.49,26.67,44.59,27.2,30.91,-19.09,-6.36,-4.36,20.73,25.49,26.67,0,5.94,0.6
nw_cut_3_0_3f_opt_disp_struct_12.xyz,Nucleus 18H :,1.288305,0.744281,2.258473,28.77,35.02,27.43,23.86,42.04,26.93,32.33,-0.17,-9.45,-5.36,23.86,27.43,35.02,0,11.16,-0.36
nw_cut_3_0_3f_opt_disp_struct_12.xyz,Nucleus 20H :,1.696817,1.190841,3.061224,29.71,34.93,27.87,26.33,38.9,15.91,4.28,-4.31,22.55,11.8,26.33,27.87,34.93,0,8.6,-0.64
nw_cut_3_0_3f_opt_disp_struct_12.xyz,Nucleus 21H :,0.265914,-0.170296,2.325316,29.96,25.67,30.58,33.62,41.93,32.36,22.55,-9.54,-1.21,3.78,25.67,30.58,33.62,0,7.95,0.23
nw_cut_3_0_3f_opt_disp_struct_12.xyz,Nucleus 25H :,-0.004197,-0.59451,1.022038,27.37,33.32,26.48,22.32,33.76,47.37,50.07,-4.09,-19.41,-25.58,22.32,26.48,33.32,0,11.0,-0.24
nw_cut_3_0_3f_opt_disp_struct_12.xyz,Nucleus 26H :,-1.03197,-1.544275,0.834547,27.47,34.5,23.51,24.4,44.78,32.15,36.3,-2.39,-16.19,-12.25,23.51,24.4,34.5,0,10.99,-0.84
nw_cut_3_0_3f_opt_disp_struct_12.xyz,Nucleus 27H :,-1.334582,-1.983963,-0.395338,29.6,34.01,27.74,27.04,38.08,12.94,20.61,-5.55,15.82,6.89,27.04,27.74,34.01,0,6.97,-0.8
nw_cut_3_0_3f_opt_disp_struct_12.xyz,Nucleus 0C :,-1.749556,-2.0418,1.923054,171.14,186.68,160.69,166.05,257.96,238.01,236.94,-77.62,-74.43,-67.44,160.69,166.05,186.68,0,25.99,-0.59
nw_cut_3_0_3f_opt_disp_struct_12.xyz,Nucleus 3C :,-2.53638,-2.772146,1.77502,61.76,148.27,53.89,-16.88,242.15,272.79,264.36,-93.91,-218.88,-281.24,-16.88,53.89,148.27,0,165.15,-0.14
nw_cut_3_0_3f_opt_disp_struct_12.xyz,Nucleus 4C :,-1.449357,-1.595885,3.202332,55.62,-27.36,126.32,67.89,273.9,257.19,258.42,-291.78,-131.61,-199.26,-27.36,67.89,126.32,0,153.68,0.24
nw_cut_3_0_3f_opt_disp_struct_12.xyz,Nucleus 7C :,-2.146016,-2.081671,4.239838,51.22,137.4,-2.43,18.69,260.43,271.86,267.19,-123.1,-274.13,-248.58,-2.43,18.69,137.4,0,139.83,-0.7
nw_cut_3_0_3f_opt_disp_struct_12.xyz,Nucleus 8C :,-0.442694,-0.657054,3.42605,61.82,155.48,30.18,-0.2,237.6,264.74,268.05,-82.39,-234.47,-268.06,-0.2,30.18,155.48,0,155.68,-0.61
nw_cut_3_0_3f_opt_disp_struct_12.xyz,Nucleus 9C :,-0.161232,-0.231632,4.664738,18.93,-52.98,78.31,31.47,234.48,265.09,266.49,-156.17,-234.79,-318.29,-52.98,31.47,78.31,0,131.29,0.29
nw_cut_3_0_3f_opt_disp_struct_12.xyz,Nucleus 11C :,2.468406,1.59812,0.687711,79.39,153.82,14.48,69.87,236.13,263.8,274.98,-82.41,-252.41,-201.91,14.48,69.87,153.82,0,139.34,-0.2
nw_cut_3_0_3f_opt_disp_struct_12.xyz,Nucleus 13C :,0.043715,0.257557,-1.804025,26.92,87.54,18.66,-25.43,232.86,260.87,270.74,-145.32,-251.24,-287.13,-25.43,18.66,87.54,0,112.97,-0.22
nw_cut_3_0_3f_opt_disp_struct_12.xyz,Nucleus 15C :,5.191801,-6.282158,1.860786,38.54,88.82,26.12,0.69,234.54,269.9,266.31,-145.73,-243.77,-265.61,0.69,26.12,88.82,0,88.13,-0.42
nw_cut_3_0_3f_opt_disp_struct_12.xyz,Nucleus 19C :,6.110712,-6.624189,2.339958,163.11,191.2,155.88,142.26,262.75,229.89,237.68,-70.29,-80.24,-90.46,142.26,155.88,191.2,0,48.94,-0.44
nw_cut_3_0_3f_opt_disp_struct_12.xyz,Nucleus 22C :,5.362326,-5.30982,1.38883,2.38,-92.72,94.41,5.46,191.32,251.79,270.08,-97.2,-345.83,-263.01,-92.72,5.46,94.41,0,187.13,0.05
nw_cut_3_0_3f_opt_disp_struct_12.xyz,Nucleus 5N :,4.078089,-6.263238,2.868362,121.81,49.89,184.91,130.64,293.91,337.55,329.66,-109.3,-206.33,-280.05,49.89,130.64,184.91,0,135.02,0.2
nw_cut_3_0_3f_opt_disp_struct_12.xyz,Nucleus 24N :,3.962471,-7.098515,3.757089,146.27,48.21,243.43,147.16,287.86,327.75,345.94,-279.23,-84.75,-158.77,48.21,147.16,243.43,0,195.22,0.01
nw_cut_3_0_3f_opt_disp_struct_12.xyz,Nucleus 23O :,3.176221,-5.253779,2.723449,-116.54,315.42,-242.66,-422.37,328.75,379.52,427.56,-13.78,-623.78,-847.86,-422.37,-242.66,315.42,0,737.79,-0.51
nw_cut_3_0_3f_opt_disp_struct_12.xyz,Nucleus 10F :,3.152078,-4.784563,1.839169,303.75,397.91,223.09,290.26,482.71,458.95,466.33,-68.41,-235.95,-192.36,223.09,290.26,397.91,0,174.82,-0.23
nw_cut_3_0_3f_opt_disp_struct_12.xyz,Nucleus 14F :,2.304057,-5.42278,3.187047,322.12,411.8,296.82,257.73,460.86,474.13,479.41,-62.35,-181.45,-204.26,257.73,296.82,411.8,0,154.07,-0.49
nw_cut_3_0_3f_opt_disp_struct_12.xyz,Nucleus 16F :,4.938965,-7.007643,1.079861,349.05,457.13,302.25,287.78,484.11,459.74,466.31,-9.18,-166.53,-187.29,287.78,302.25,457.13,0,169.35,-0.83
nw_cut_3_0_3f_opt_disp_struct_13.xyz,Nucleus 1H :,0.985827,-0.026268,-1.323171,29.18,35.29,23.53,28.71,40.94,26.19,28.92,-6.75,0.46,-2.23,23.53,28.71,35.29,0,11.76,-0.12
nw_cut_3_0_3f_opt_disp_struct_13.xyz,Nucleus 2H :,1.775162,0.616305,-1.720895,28.83,34.83,24.02,27.64,45.65,25.42,26.85,-11.74,1.91,-1.59,24.02,27.64,34.83,0,10.81,-0.33
nw_cut_3_0_3f_opt_disp_struct_13.xyz,Nucleus 6H :,1.201801,-1.055038,-1.630788,23.76,15.52,25.37,30.4,10.62,30.52,49.23,-19.15,5.08,-5.0,15.52,25.37,30.4,0,14.88,0.32
nw_cut_3_0_3f_opt_disp_struct_13.xyz,Nucleus 12H :,0.900938,0.098278,0.155971,24.51,20.73,25.08,27.72,47.05,16.25,31.64,-22.02,4.55,-3.94,20.73,25.08,27.72,0,6.99,0.24
nw_cut_3_0_3f_opt_disp_struct_13.xyz,Nucleus 17H :,1.676783,0.915114,0.956718,24.3,20.73,25.49,26.68,44.57,27.19,30.91,-19.06,-6.36,-4.34,20.73,25.49,26.68,0,5.95,0.6
nw_cut_3_0_3f_opt_disp_struct_13.xyz,Nucleus 18H :,1.288305,0.744281,2.258473,28.77,35.01,27.44,23.87,42.03,26.91,32.32,-0.14,-9.46,-5.34,23.87,27.44,35.01,0,11.14,-0.36
nw_cut_3_0_3f_opt_disp_struct_13.xyz,Nucleus 20H :,1.696817,1.190841,3.061224,29.69,34.89,27.87,26.32,38.83,15.67,3.57,-4.3,23.27,12.04,26.32,27.87,34.89,0,8.57,-0.64
nw_cut_3_0_3f_opt_disp_struct_13.xyz,Nucleus 21H :,0.265914,-0.170296,2.325316,29.94,25.69,30.49,33.63,42.21,32.17,22.33,-9.86,-1.09,4.05,25.69,30.49,33.63,0,7.94,0.21
nw_cut_3_0_3f_opt_disp_struct_13.xyz,Nucleus 25H :,-0.004197,-0.59451,1.022038,27.32,33.12,26.48,22.36,33.74,47.8,50.64,-4.07,-19.67,-26.49,22.36,26.48,33.12,0,10.76,-0.23
nw_cut_3_0_3f_opt_disp_struct_13.xyz,Nucleus 26H :,-1.03197,-1.544275,0.834547,27.43,34.47,23.54,24.28,45.25,32.01,37.05,-2.45,-16.81,-12.76,23.54,24.28,34.47,0,10.93,-0.86
nw_cut_3_0_3f_opt_disp_struct_13.xyz,Nucleus 27H :,-1.334582,-1.983963,-0.395338,29.58,34.0,27.7,27.05,38.11,12.34,20.44,-5.64,16.44,7.07,27.05,27.7,34.0,0,6.95,-0.81
nw_cut_3_0_3f_opt_disp_struct_13.xyz,Nucleus 0C :,-1.749556,-2.0418,1.923054,171.14,186.69,160.7,166.03,257.93,238.01,236.91,-77.58,-74.41,-67.43,160.7,166.03,186.69,0,25.99,-0.59
nw_cut_3_0_3f_opt_disp_struct_13.xyz,Nucleus 3C :,-2.53638,-2.772146,1.77502,61.73,148.25,53.86,-16.91,242.1,272.67,264.33,-93.88,-218.78,-281.25,-16.91,53.86,148.25,0,165.16,-0.14
nw_cut_3_0_3f_opt_disp_struct_13.xyz,Nucleus 4C :,-1.449357,-1.595885,3.202332,55.65,-27.32,126.3,67.96,273.85,257.07,258.54,-291.75,-131.63,-199.13,-27.32,67.96,126.3,0,153.62,0.24
nw_cut_3_0_3f_opt_disp_struct_13.xyz,Nucleus 7C :,-2.146016,-2.081671,4.239838,51.23,137.37,-2.4,18.72,260.36,271.68,267.19,-123.09,-273.89,-248.57,-2.4,18.72,137.37,0,139.77,-0.7
nw_cut_3_0_3f_opt_disp_struct_13.xyz,Nucleus 8C :,-0.442694,-0.657054,3.42605,61.8,155.44,30.17,-0.22,237.6,264.51,267.96,-82.4,-234.3,-267.98,-0.22,30.17,155.44,0,155.66,-0.61
nw_cut_3_0_3f_opt_disp_struct_13.xyz,Nucleus 9C :,-0.161232,-0.231632,4.664738,18.91,-53.02,78.28,31.46,234.38,264.86,266.36,-156.11,-234.7,-318.07,-53.02,31.46,78.28,0,131.3,0.29
nw_cut_3_0_3f_opt_disp_struct_13.xyz,Nucleus 11C :,2.468406,1.59812,0.687711,79.38,153.78,14.47,69.88,236.1,263.74,274.78,-82.42,-252.26,-201.81,14.47,69.88,153.78,0,139.31,-0.2
nw_cut_3_0_3f_opt_disp_struct_13.xyz,Nucleus 13C :,0.043715,0.257557,-1.804025,26.92,87.5,18.68,-25.43,232.81,260.85,270.53,-145.32,-251.04,-287.08,-25.43,18.68,87.5,0,112.93,-0.22
nw_cut_3_0_3f_opt_disp_struct_13.xyz,Nucleus 15C :,5.358248,-6.466921,1.886429,38.56,88.78,26.16,0.73,234.54,269.75,266.29,-145.77,-243.59,-265.54,0.73,26.16,88.78,0,88.05,-0.42
nw_cut_3_0_3f_opt_disp_struct_13.xyz,Nucleus 19C :,6.27716,-6.808953,2.365601,163.1,191.19,155.83,142.28,263.09,229.44,237.34,-70.53,-79.97,-90.09,142.28,155.83,191.19,0,48.91,-0.45
nw_cut_3_0_3f_opt_disp_struct_13.xyz,Nucleus 22C :,5.528774,-5.494584,1.414473,2.36,-92.79,94.43,5.44,190.56,251.75,270.17,-96.44,-345.8,-263.16,-92.79,5.44,94.43,0,187.22,0.05
nw_cut_3_0_3f_opt_disp_struct_13.xyz,Nucleus 5N :,4.244537,-6.448002,2.894005,121.87,49.99,184.9,130.73,293.88,337.52,329.58,-109.27,-206.2,-279.89,49.99,130.73,184.9,0,134.91,0.2
nw_cut_3_0_3f_opt_disp_struct_13.xyz,Nucleus 24N :,4.128919,-7.283278,3.782732,146.24,48.26,243.29,147.16,287.29,327.83,346.44,-279.22,-84.21,-159.42,48.26,147.16,243.29,0,195.03,0.01
nw_cut_3_0_3f_opt_disp_struct_13.xyz,Nucleus 23O :,3.342669,-5.438542,2.749092,-116.57,315.44,-242.7,-422.46,327.98,379.39,427.62,-12.98,-623.72,-848.01,-422.46,-242.7,315.44,0,737.9,-0.51
nw_cut_3_0_3f_opt_disp_struct_13.xyz,Nucleus 10F :,3.318526,-4.969327,1.864812,303.74,397.89,223.05,290.27,482.65,458.95,466.29,-68.39,-235.98,-192.31,223.05,290.27,397.89,0,174.84,-0.23
nw_cut_3_0_3f_opt_disp_struct_13.xyz,Nucleus 14F :,2.470505,-5.607544,3.21269,322.18,411.82,296.89,257.84,460.83,479.45,474.02,-62.23,-181.4,-204.12,257.84,296.89,411.82,0,153.98,-0.49
nw_cut_3_0_3f_opt_disp_struct_13.xyz,Nucleus 16F :,5.105413,-7.192407,1.105504,349.18,457.15,302.4,287.99,484.1,459.76,466.15,-9.0,-166.34,-187.13,287.99,302.4,457.15,0,169.16,-0.83
nw_cut_3_0_3f_opt_disp_struct_14.xyz,Nucleus 1H :,0.985827,-0.026268,-1.323171,29.18,35.29,23.53,28.72,40.92,26.19,28.92,-6.71,0.47,-2.23,23.53,28.72,35.29,0,11.76,-0.12
nw_cut_3_0_3f_opt_disp_struct_14.xyz,Nucleus 2H :,1.775162,0.616305,-1.720895,28.83,34.84,24.01,27.64,45.6,25.38,26.83,-11.69,1.95,-1.58,24.01,27.64,34.84,0,10.83,-0.33
nw_cut_3_0_3f_opt_disp_struct_14.xyz,Nucleus 6H :,1.201801,-1.055038,-1.630788,23.77,15.52,25.38,30.4,10.63,30.53,49.16,-19.07,5.06,-5.0,15.52,25.38,30.4,0,14.88,0.32
nw_cut_3_0_3f_opt_disp_struct_14.xyz,Nucleus 12H :,0.900938,0.098278,0.155971,24.51,20.71,25.09,27.73,46.96,16.23,31.59,-21.92,4.55,-3.88,20.71,25.09,27.73,0,7.02,0.25
nw_cut_3_0_3f_opt_disp_struct_14.xyz,Nucleus 17H :,1.676783,0.915114,0.956718,24.31,20.73,25.5,26.69,44.55,27.18,30.9,-19.03,-6.36,-4.32,20.73,25.5,26.69,0,5.96,0.6
nw_cut_3_0_3f_opt_disp_struct_14.xyz,Nucleus 18H :,1.288305,0.744281,2.258473,28.77,35.0,27.45,23.87,42.02,26.89,32.31,-0.12,-9.46,-5.32,23.87,27.45,35.0,0,11.13,-0.36
nw_cut_3_0_3f_opt_disp_struct_14.xyz,Nucleus 20H :,1.696817,1.190841,3.061224,29.69,34.86,27.88,26.32,38.77,15.43,2.86,-4.29,24.0,12.29,26.32,27.88,34.86,0,8.54,-0.64
nw_cut_3_0_3f_opt_disp_struct_14.xyz,Nucleus 21H :,0.265914,-0.170296,2.325316,29.92,25.71,30.42,33.64,42.49,31.98,22.11,-10.17,-0.98,4.34,25.71,30.42,33.64,0,7.93,0.19
nw_cut_3_0_3f_opt_disp_struct_14.xyz,Nucleus 25H :,-0.004197,-0.59451,1.022038,27.27,32.94,26.48,22.39,33.71,48.13,51.33,-4.04,-19.93,-27.39,22.39,26.48,32.94,0,10.55,-0.22
nw_cut_3_0_3f_opt_disp_struct_14.xyz,Nucleus 26H :,-1.03197,-1.544275,0.834547,27.39,34.43,23.56,24.19,45.7,31.88,37.78,-2.5,-17.47,-13.21,23.56,24.19,34.43,0,10.87,-0.88
nw_cut_3_0_3f_opt_disp_struct_14.xyz,Nucleus 27H :,-1.334582,-1.983963,-0.395338,29.58,33.99,27.68,27.06,38.15,11.74,20.27,-5.74,17.06,7.25,27.06,27.68,33.99,0,6.93,-0.82
nw_cut_3_0_3f_opt_disp_struct_14.xyz,Nucleus 0C :,-1.749556,-2.0418,1.923054,171.14,186.7,160.71,166.02,257.9,238.0,236.88,-77.54,-74.38,-67.42,160.71,166.02,186.7,0,25.99,-0.59
nw_cut_3_0_3f_opt_disp_struct_14.xyz,Nucleus 3C :,-2.53638,-2.772146,1.77502,61.71,148.23,53.84,-16.94,242.06,272.57,264.3,-93.85,-218.7,-281.24,-16.94,53.84,148.23,0,165.17,-0.14
nw_cut_3_0_3f_opt_disp_struct_14.xyz,Nucleus 4C :,-1.449357,-1.595885,3.202332,55.67,-27.29,126.28,68.02,273.79,256.97,258.63,-291.72,-131.65,-199.01,-27.29,68.02,126.28,0,153.57,0.24
nw_cut_3_0_3f_opt_disp_struct_14.xyz,Nucleus 7C :,-2.146016,-2.081671,4.239838,51.23,137.34,-2.38,18.74,260.31,271.51,267.18,-123.09,-273.67,-248.54,-2.38,18.74,137.34,0,139.72,-0.7
nw_cut_3_0_3f_opt_disp_struct_14.xyz,Nucleus 8C :,-0.442694,-0.657054,3.42605,61.78,155.41,30.16,-0.23,237.59,264.31,267.88,-82.4,-234.16,-267.89,-0.23,30.16,155.41,0,155.64,-0.61
nw_cut_3_0_3f_opt_disp_struct_14.xyz,Nucleus 9C :,-0.161232,-0.231632,4.664738,18.88,-53.06,78.25,31.45,234.31,264.65,266.25,-156.07,-234.62,-317.88,-53.06,31.45,78.25,0,131.31,0.29
nw_cut_3_0_3f_opt_disp_struct_14.xyz,Nucleus 11C :,2.468406,1.59812,0.687711,79.36,153.74,14.47,69.88,236.07,263.69,274.61,-82.42,-252.12,-201.73,14.47,69.88,153.74,0,139.27,-0.2
nw_cut_3_0_3f_opt_disp_struct_14.xyz,Nucleus 13C :,0.043715,0.257557,-1.804025,26.91,87.46,18.7,-25.43,232.77,260.83,270.35,-145.31,-250.86,-287.04,-25.43,18.7,87.46,0,112.89,-0.22
nw_cut_3_0_3f_opt_disp_struct_14.xyz,Nucleus 15C :,5.524696,-6.651685,1.912071,38.57,88.75,26.19,0.77,234.53,269.61,266.26,-145.8,-243.42,-265.47,0.77,26.19,88.75,0,87.98,-0.42
nw_cut_3_0_3f_opt_disp_struct_14.xyz,Nucleus 19C :,6.443607,-6.993716,2.391244,163.08,191.18,155.78,142.29,263.43,228.98,237.01,-70.75,-79.7,-89.72,142.29,155.78,191.18,0,48.89,-0.45
nw_cut_3_0_3f_opt_disp_struct_14.xyz,Nucleus 22C :,5.695222,-5.679347,1.440116,2.34,-92.86,94.45,5.43,189.79,251.69,270.28,-95.66,-345.76,-263.31,-92.86,5.43,94.45,0,187.31,0.05
nw_cut_3_0_3f_opt_disp_struct_14.xyz,Nucleus 5N :,4.410984,-6.632765,2.919648,121.93,50.08,184.88,130.82,293.85,337.5,329.51,-109.24,-206.1,-279.73,50.08,130.82,184.88,0,134.8,0.2
nw_cut_3_0_3f_opt_disp_struct_14.xyz,Nucleus 24N :,4.295366,-7.468042,3.808375,146.23,48.33,243.17,147.18,286.76,327.93,347.0,-279.19,-83.67,-160.14,48.33,147.18,243.17,0,194.84,0.01
nw_cut_3_0_3f_opt_disp_struct_14.xyz,Nucleus 23O :,3.509116,-5.623306,2.774735,-116.62,315.46,-242.76,-422.55,327.25,379.27,427.68,-12.24,-623.66,-848.16,-422.55,-242.76,315.46,0,738.01,-0.51
nw_cut_3_0_3f_opt_disp_struct_14.xyz,Nucleus 10F :,3.484974,-5.154091,1.890455,303.72,397.87,223.01,290.27,482.59,458.94,466.25,-68.38,-236.0,-192.26,223.01,290.27,397.87,0,174.86,-0.23
nw_cut_3_0_3f_opt_disp_struct_14.xyz,Nucleus 14F :,2.636953,-5.792308,3.238332,322.24,411.83,296.95,257.93,460.78,479.47,473.93,-62.14,-181.34,-203.98,257.93,296.95,411.83,0,153.9,-0.49
nw_cut_3_0_3f_opt_disp_struct_14.xyz,Nucleus 16F :,5.271861,-7.377171,1.131147,349.29,457.17,302.54,288.17,484.06,459.78,466.02,-8.86,-166.16,-186.97,288.17,302.54,457.17,0,169.0,-0.83
nw_cut_3_0_3f_opt_disp_struct_15.xyz,Nucleus 1H :,0.985827,-0.026268,-1.323171,29.18,35.29,23.53,28.72,40.89,26.18,28.91,-6.68,0.47,-2.23,23.53,28.72,35.29,0,11.76,-0.12
nw_cut_3_0_3f_opt_disp_struct_15.xyz,Nucleus 2H :,1.775162,0.616305,-1.720895,28.83,34.85,24.0,27.64,45.55,25.35,26.81,-11.64,1.99,-1.57,24.0,27.64,34.85,0,10.85,-0.33
nw_cut_3_0_3f_opt_disp_struct_15.xyz,Nucleus 6H :,1.201801,-1.055038,-1.630788,23.77,15.51,25.39,30.41,10.63,30.53,49.09,-18.99,5.05,-4.99,15.51,25.39,30.41,0,14.9,0.33
nw_cut_3_0_3f_opt_disp_struct_15.xyz,Nucleus 12H :,0.900938,0.098278,0.155971,24.51,20.7,25.09,27.74,46.88,16.21,31.55,-21.82,4.55,-3.83,20.7,25.09,27.74,0,7.04,0.25
nw_cut_3_0_3f_opt_disp_struct_15.xyz,Nucleus 17H :,1.676783,0.915114,0.956718,24.31,20.73,25.5,26.7,44.53,27.18,30.88,-19.01,-6.36,-4.3,20.73,25.5,26.7,0,5.97,0.6
nw_cut_3_0_3f_opt_disp_struct_15.xyz,Nucleus 18H :,1.288305,0.744281,2.258473,28.78,35.0,27.45,23.88,42.02,26.87,32.29,-0.1,-9.46,-5.3,23.88,27.45,35.0,0,11.12,-0.36
nw_cut_3_0_3f_opt_disp_struct_15.xyz,Nucleus 20H :,1.696817,1.190841,3.061224,29.68,34.83,27.89,26.32,38.72,15.18,2.15,-4.28,24.72,12.55,26.32,27.89,34.83,0,8.51,-0.63
nw_cut_3_0_3f_opt_disp_struct_15.xyz,Nucleus 21H :,0.265914,-0.170296,2.325316,29.91,25.72,30.35,33.65,42.77,31.81,21.87,-10.49,-0.88,4.63,25.72,30.35,33.65,0,7.93,0.17
nw_cut_3_0_3f_opt_disp_struct_15.xyz,Nucleus 25H :,-0.004197,-0.59451,1.022038,27.23,32.8,26.48,22.42,33.68,48.41,52.08,-4.0,-20.2,-28.27,22.42,26.48,32.8,0,10.38,-0.22
nw_cut_3_0_3f_opt_disp_struct_15.xyz,Nucleus 26H :,-1.03197,-1.544275,0.834547,27.36,34.41,23.57,24.11,46.16,31.76,38.47,-2.54,-18.15,-13.62,23.57,24.11,34.41,0,10.84,-0.9
nw_cut_3_0_3f_opt_disp_struct_15.xyz,Nucleus 27H :,-1.334582,-1.983963,-0.395338,29.57,33.98,27.65,27.07,38.19,11.14,20.1,-5.83,17.68,7.43,27.07,27.65,33.98,0,6.91,-0.83
nw_cut_3_0_3f_opt_disp_struct_15.xyz,Nucleus 0C :,-1.749556,-2.0418,1.923054,171.15,186.71,160.72,166.01,257.86,238.0,236.85,-77.5,-74.36,-67.41,160.72,166.01,186.71,0,25.99,-0.59
nw_cut_3_0_3f_opt_disp_struct_15.xyz,Nucleus 3C :,-2.53638,-2.772146,1.77502,61.69,148.22,53.81,-16.96,242.02,272.47,264.26,-93.83,-218.63,-281.23,-16.96,53.81,148.22,0,165.18,-0.14
nw_cut_3_0_3f_opt_disp_struct_15.xyz,Nucleus 4C :,-1.449357,-1.595885,3.202332,55.69,-27.26,126.26,68.07,273.74,256.88,258.69,-291.69,-131.67,-198.89,-27.26,68.07,126.26,0,153.52,0.24
nw_cut_3_0_3f_opt_disp_struct_15.xyz,Nucleus 7C :,-2.146016,-2.081671,4.239838,51.24,137.31,-2.36,18.77,260.27,271.39,267.15,-123.09,-273.5,-248.51,-2.36,18.77,137.31,0,139.67,-0.7
nw_cut_3_0_3f_opt_disp_struct_15.xyz,Nucleus 8C :,-0.442694,-0.657054,3.42605,61.77,155.38,30.16,-0.24,237.57,264.16,267.81,-82.4,-234.05,-267.79,-0.24,30.16,155.38,0,155.62,-0.61
nw_cut_3_0_3f_opt_disp_struct_15.xyz,Nucleus 9C :,-0.161232,-0.231632,4.664738,18.86,-53.08,78.22,31.44,234.25,264.46,266.18,-156.03,-234.56,-317.71,-53.08,31.44,78.22,0,131.3,0.29
nw_cut_3_0_3f_opt_disp_struct_15.xyz,Nucleus 11C :,2.468406,1.59812,0.687711,79.36,153.71,14.47,69.89,236.04,263.63,274.47,-82.42,-251.99,-201.66,14.47,69.89,153.71,0,139.24,-0.2
nw_cut_3_0_3f_opt_disp_struct_15.xyz,Nucleus 13C :,0.043715,0.257557,-1.804025,26.91,87.43,18.72,-25.43,232.73,260.82,270.19,-145.3,-250.7,-287.0,-25.43,18.72,87.43,0,112.86,-0.22
nw_cut_3_0_3f_opt_disp_struct_15.xyz,Nucleus 15C :,5.691144,-6.836448,1.937714,38.58,88.72,26.22,0.8,234.52,269.5,266.21,-145.82,-243.28,-265.4,0.8,26.22,88.72,0,87.92,-0.42
nw_cut_3_0_3f_opt_disp_struct_15.xyz,Nucleus 19C :,6.610055,-7.17848,2.416886,163.07,191.17,155.73,142.3,263.76,228.51,236.68,-70.96,-79.43,-89.36,142.3,155.73,191.17,0,48.87,-0.45
nw_cut_3_0_3f_opt_disp_struct_15.xyz,Nucleus 22C :,5.86167,-5.864111,1.465759,2.32,-92.92,94.47,5.42,189.0,251.63,270.41,-94.88,-345.72,-263.46,-92.92,5.42,94.47,0,187.39,0.05
nw_cut_3_0_3f_opt_disp_struct_15.xyz,Nucleus 5N :,4.577432,-6.817529,2.945291,121.97,50.15,184.86,130.89,293.82,337.48,329.43,-109.22,-206.02,-279.58,50.15,130.89,184.86,0,134.71,0.2
nw_cut_3_0_3f_opt_disp_struct_15.xyz,Nucleus 24N :,4.461814,-7.652805,3.834018,146.23,48.41,243.07,147.2,286.2,328.01,347.62,-279.16,-83.13,-160.86,48.41,147.2,243.07,0,194.66,0.01
nw_cut_3_0_3f_opt_disp_struct_15.xyz,Nucleus 23O :,3.675564,-5.80807,2.800378,-116.66,315.47,-242.81,-422.64,326.54,379.14,427.75,-11.51,-623.58,-848.31,-422.64,-242.81,315.47,0,738.11,-0.51
nw_cut_3_0_3f_opt_disp_struct_15.xyz,Nucleus 10F :,3.651421,-5.338854,1.916098,303.7,397.86,222.98,290.26,482.53,458.92,466.22,-68.36,-236.01,-192.2,222.98,290.26,397.86,0,174.88,-0.23
nw_cut_3_0_3f_opt_disp_struct_15.xyz,Nucleus 14F :,2.803401,-5.977071,3.263975,322.29,411.84,297.01,258.02,460.72,479.48,473.87,-62.07,-181.29,-203.83,258.02,297.01,411.84,0,153.82,-0.49
nw_cut_3_0_3f_opt_disp_struct_15.xyz,Nucleus 16F :,5.438308,-7.561934,1.15679,349.38,457.18,302.65,288.32,484.01,459.79,465.94,-8.77,-165.99,-186.83,288.32,302.65,457.18,0,168.86,-0.83
nw_cut_3_0_3f_opt_disp_struct_16.xyz,Nucleus 1H :,0.985827,-0.026268,-1.323171,29.19,35.3,23.53,28.73,40.87,26.18,28.9,-6.66,0.48,-2.22,23.53,28.73,35.3,0,11.77,-0.12
nw_cut_3_0_3f_opt_disp_struct_16.xyz,Nucleus 2H :,1.775162,0.616305,-1.720895,28.83,34.86,23.99,27.63,45.5,25.32,26.79,-11.6,2.03,-1.56,23.99,27.63,34.86,0,10.87,-0.33
nw_cut_3_0_3f_opt_disp_struct_16.xyz,Nucleus 6H :,1.201801,-1.055038,-1.630788,23.77,15.5,25.4,30.42,10.63,30.53,49.03,-18.92,5.03,-4.98,15.5,25.4,30.42,0,14.92,0.33
nw_cut_3_0_3f_opt_disp_struct_16.xyz,Nucleus 12H :,0.900938,0.098278,0.155971,24.51,20.69,25.1,27.75,46.8,16.19,31.51,-21.74,4.56,-3.79,20.69,25.1,27.75,0,7.06,0.25
nw_cut_3_0_3f_opt_disp_struct_16.xyz,Nucleus 17H :,1.676783,0.915114,0.956718,24.31,20.72,25.5,26.71,44.51,27.17,30.87,-18.99,-6.36,-4.27,20.72,25.5,26.71,0,5.99,0.6
nw_cut_3_0_3f_opt_disp_struct_16.xyz,Nucleus 18H :,1.288305,0.744281,2.258473,28.78,35.0,27.46,23.88,42.01,26.85,32.27,-0.07,-9.46,-5.27,23.88,27.46,35.0,0,11.12,-0.36
nw_cut_3_0_3f_opt_disp_struct_16.xyz,Nucleus 20H :,1.696817,1.190841,3.061224,29.67,34.8,27.89,26.32,38.67,14.93,1.43,-4.28,25.45,12.8,26.32,27.89,34.8,0,8.48,-0.63
nw_cut_3_0_3f_opt_disp_struct_16.xyz,Nucleus 21H :,0.265914,-0.170296,2.325316,29.89,25.74,30.28,33.66,43.05,31.65,21.63,-10.8,-0.78,4.92,25.74,30.28,33.66,0,7.92,0.15
nw_cut_3_0_3f_opt_disp_struct_16.xyz,Nucleus 25H :,-0.004197,-0.59451,1.022038,27.2,32.67,26.48,22.45,33.64,48.67,52.86,-3.96,-20.47,-29.15,22.45,26.48,32.67,0,10.22,-0.21
nw_cut_3_0_3f_opt_disp_struct_16.xyz,Nucleus 26H :,-1.03197,-1.544275,0.834547,27.34,34.39,23.57,24.05,46.63,31.66,39.13,-2.56,-18.86,-13.99,23.57,24.05,34.39,0,10.82,-0.91
nw_cut_3_0_3f_opt_disp_struct_16.xyz,Nucleus 27H :,-1.334582,-1.983963,-0.395338,29.56,33.98,27.63,27.07,38.24,10.53,19.92,-5.92,18.3,7.61,27.07,27.63,33.98,0,6.91,-0.84
nw_cut_3_0_3f_opt_disp_struct_16.xyz,Nucleus 0C :,-1.749556,-2.0418,1.923054,171.14,186.71,160.72,166.0,257.83,238.0,236.81,-77.46,-74.35,-67.4,160.72,166.0,186.71,0,25.99,-0.59
nw_cut_3_0_3f_opt_disp_struct_16.xyz,Nucleus 3C :,-2.53638,-2.772146,1.77502,61.67,148.2,53.8,-16.99,241.98,272.38,264.22,-93.81,-218.56,-281.21,-16.99,53.8,148.2,0,165.19,-0.14
nw_cut_3_0_3f_opt_disp_struct_16.xyz,Nucleus 4C :,-1.449357,-1.595885,3.202332,55.71,-27.24,126.25,68.12,273.7,256.82,258.74,-291.66,-131.68,-198.79,-27.24,68.12,126.25,0,153.49,0.24
nw_cut_3_0_3f_opt_disp_struct_16.xyz,Nucleus 7C :,-2.146016,-2.081671,4.239838,51.24,137.29,-2.35,18.78,260.24,271.28,267.1,-123.09,-273.35,-248.46,-2.35,18.78,137.29,0,139.64,-0.7
nw_cut_3_0_3f_opt_disp_struct_16.xyz,Nucleus 8C :,-0.442694,-0.657054,3.42605,61.75,155.36,30.15,-0.25,237.54,264.04,267.74,-82.39,-233.97,-267.7,-0.25,30.15,155.36,0,155.61,-0.61
nw_cut_3_0_3f_opt_disp_struct_16.xyz,Nucleus 9C :,-0.161232,-0.231632,4.664738,18.84,-53.1,78.2,31.43,234.2,264.3,266.12,-156.01,-234.52,-317.57,-53.1,31.43,78.2,0,131.3,0.29
nw_cut_3_0_3f_opt_disp_struct_16.xyz,Nucleus 11C :,2.468406,1.59812,0.687711,79.35,153.69,14.47,69.9,236.02,263.58,274.35,-82.42,-251.87,-201.6,14.47,69.9,153.69,0,139.22,-0.2
nw_cut_3_0_3f_opt_disp_struct_16.xyz,Nucleus 13C :,0.043715,0.257557,-1.804025,26.91,87.41,18.73,-25.42,232.69,260.8,270.04,-145.29,-250.55,-286.97,-25.42,18.73,87.41,0,112.83,-0.22
nw_cut_3_0_3f_opt_disp_struct_16.xyz,Nucleus 15C :,5.857592,-7.021212,1.963357,38.58,88.69,26.24,0.82,234.51,269.39,266.17,-145.84,-243.14,-265.33,0.82,26.24,88.69,0,87.87,-0.42
nw_cut_3_0_3f_opt_disp_struct_16.xyz,Nucleus 19C :,6.776503,-7.363243,2.442529,163.06,191.17,155.7,142.31,264.09,228.05,236.37,-71.16,-79.18,-89.02,142.31,155.7,191.17,0,48.86,-0.45
nw_cut_3_0_3f_opt_disp_struct_16.xyz,Nucleus 22C :,6.028117,-6.048874,1.491402,2.31,-92.97,94.48,5.41,188.21,251.57,270.54,-94.1,-345.67,-263.62,-92.97,5.41,94.48,0,187.45,0.05
nw_cut_3_0_3f_opt_disp_struct_16.xyz,Nucleus 5N :,4.74388,-7.002292,2.970933,122.0,50.21,184.85,130.95,293.79,337.46,329.35,-109.21,-205.94,-279.44,50.21,130.95,184.85,0,134.64,0.2
nw_cut_3_0_3f_opt_disp_struct_16.xyz,Nucleus 24N :,4.628262,-7.837569,3.859661,146.22,48.48,242.97,147.22,285.58,328.09,348.27,-279.14,-82.58,-161.55,48.48,147.22,242.97,0,194.49,0.02
nw_cut_3_0_3f_opt_disp_struct_16.xyz,Nucleus 23O :,3.842012,-5.992833,2.82602,-116.7,315.47,-242.85,-422.72,325.76,379.01,427.83,-10.73,-623.5,-848.47,-422.72,-242.85,315.47,0,738.19,-0.51
nw_cut_3_0_3f_opt_disp_struct_16.xyz,Nucleus 10F :,3.817869,-5.523618,1.941741,303.68,397.84,222.95,290.26,482.45,458.9,466.2,-68.35,-236.02,-192.14,222.95,290.26,397.84,0,174.89,-0.23
nw_cut_3_0_3f_opt_disp_struct_16.xyz,Nucleus 14F :,2.969848,-6.161835,3.289618,322.34,411.85,297.06,258.11,460.66,479.48,473.83,-62.02,-181.24,-203.69,258.11,297.06,411.85,0,153.74,-0.49
nw_cut_3_0_3f_opt_disp_struct_16.xyz,Nucleus 16F :,5.604756,-7.746698,1.182433,349.47,457.19,302.76,288.46,483.96,459.79,465.88,-8.69,-165.84,-186.7,288.46,302.76,457.19,0,168.73,-0.83
nw_cut_3_0_3f_opt_disp_struct_17.xyz,Nucleus 1H :,0.985827,-0.026268,-1.323171,29.19,35.3,23.53,28.74,40.85,26.18,28.88,-6.63,0.49,-2.21,23.53,28.74,35.3,0,11.77,-0.11
nw_cut_3_0_3f_opt_disp_struct_17.xyz,Nucleus 2H :,1.775162,0.616305,-1.720895,28.83,34.87,23.98,27.63,45.45,25.28,26.77,-11.55,2.07,-1.55,23.98,27.63,34.87,0,10.89,-0.33
nw_cut_3_0_3f_opt_disp_struct_17.xyz,Nucleus 6H :,1.201801,-1.055038,-1.630788,23.78,15.5,25.41,30.42,10.63,30.52,48.97,-18.85,5.02,-4.97,15.5,25.41,30.42,0,14.92,0.33
nw_cut_3_0_3f_opt_disp_struct_17.xyz,Nucleus 12H :,0.900938,0.098278,0.155971,24.51,20.67,25.1,27.76,46.72,16.17,31.48,-21.65,4.56,-3.74,20.67,25.1,27.76,0,7.09,0.25
nw_cut_3_0_3f_opt_disp_struct_17.xyz,Nucleus 17H :,1.676783,0.915114,0.956718,24.31,20.72,25.5,26.71,44.49,27.16,30.84,-18.96,-6.36,-4.24,20.72,25.5,26.71,0,5.99,0.6
nw_cut_3_0_3f_opt_disp_struct_17.xyz,Nucleus 18H :,1.288305,0.744281,2.258473,28.78,34.99,27.46,23.88,42.01,26.83,32.25,-0.05,-9.45,-5.25,23.88,27.46,34.99,0,11.11,-0.36
nw_cut_3_0_3f_opt_disp_struct_17.xyz,Nucleus 20H :,1.696817,1.190841,3.061224,29.66,34.77,27.9,26.31,38.62,14.68,0.71,-4.28,26.18,13.06,26.31,27.9,34.77,0,8.46,-0.62
nw_cut_3_0_3f_opt_disp_struct_17.xyz,Nucleus 21H :,0.265914,-0.170296,2.325316,29.88,25.75,30.22,33.67,43.33,31.5,21.39,-11.11,-0.68,5.21,25.75,30.22,33.67,0,7.92,0.13
nw_cut_3_0_3f_opt_disp_struct_17.xyz,Nucleus 25H :,-0.004197,-0.59451,1.022038,27.17,32.55,26.47,22.48,33.6,48.91,53.66,-3.92,-20.74,-30.01,22.48,26.47,32.55,0,10.07,-0.21
nw_cut_3_0_3f_opt_disp_struct_17.xyz,Nucleus 26H :,-1.03197,-1.544275,0.834547,27.31,34.37,23.56,24.0,47.1,31.57,39.75,-2.58,-19.57,-14.33,23.56,24.0,34.37,0,10.81,-0.92
nw_cut_3_0_3f_opt_disp_struct_17.xyz,Nucleus 27H :,-1.334582,-1.983963,-0.395338,29.55,33.97,27.6,27.08,38.29,9.93,19.74,-6.03,18.92,7.79,27.08,27.6,33.97,0,6.89,-0.85
nw_cut_3_0_3f_opt_disp_struct_17.xyz,Nucleus 0C :,-1.749556,-2.0418,1.923054,171.15,186.72,160.73,165.99,257.79,238.0,236.78,-77.41,-74.33,-67.39,160.73,165.99,186.72,0,25.99,-0.6
nw_cut_3_0_3f_opt_disp_struct_17.xyz,Nucleus 3C :,-2.53638,-2.772146,1.77502,61.66,148.19,53.78,-17.0,241.95,272.3,264.18,-93.79,-218.49,-281.19,-17.0,53.78,148.19,0,165.19,-0.14
nw_cut_3_0_3f_opt_disp_struct_17.xyz,Nucleus 4C :,-1.449357,-1.595885,3.202332,55.73,-27.21,126.23,68.16,273.65,256.76,258.77,-291.63,-131.68,-198.68,-27.21,68.16,126.23,0,153.44,0.24
nw_cut_3_0_3f_opt_disp_struct_17.xyz,Nucleus 7C :,-2.146016,-2.081671,4.239838,51.25,137.27,-2.33,18.8,260.22,271.19,267.05,-123.1,-273.21,-248.41,-2.33,18.8,137.27,0,139.6,-0.7
nw_cut_3_0_3f_opt_disp_struct_17.xyz,Nucleus 8C :,-0.442694,-0.657054,3.42605,61.75,155.34,30.15,-0.25,237.5,263.94,267.66,-82.37,-233.89,-267.61,-0.25,30.15,155.34,0,155.59,-0.61
nw_cut_3_0_3f_opt_disp_struct_17.xyz,Nucleus 9C :,-0.161232,-0.231632,4.664738,18.83,-53.12,78.18,31.42,234.16,266.07,264.15,-155.99,-234.48,-317.44,-53.12,31.42,78.18,0,131.3,0.29
nw_cut_3_0_3f_opt_disp_struct_17.xyz,Nucleus 11C :,2.468406,1.59812,0.687711,79.35,153.66,14.48,69.91,235.99,263.52,274.24,-82.41,-251.75,-201.54,14.48,69.91,153.66,0,139.18,-0.2
nw_cut_3_0_3f_opt_disp_struct_17.xyz,Nucleus 13C :,0.043715,0.257557,-1.804025,26.9,87.38,18.75,-25.42,232.66,260.78,269.91,-145.29,-250.41,-286.94,-25.42,18.75,87.38,0,112.8,-0.22
nw_cut_3_0_3f_opt_disp_struct_17.xyz,Nucleus 15C :,6.02404,-7.205976,1.989,38.59,88.66,26.26,0.85,234.5,269.29,266.12,-145.85,-243.02,-265.26,0.85,26.26,88.66,0,87.81,-0.42
nw_cut_3_0_3f_opt_disp_struct_17.xyz,Nucleus 19C :,6.942951,-7.548007,2.468172,163.04,191.16,155.66,142.31,264.43,227.6,236.08,-71.33,-78.94,-88.7,142.31,155.66,191.16,0,48.85,-0.45
nw_cut_3_0_3f_opt_disp_struct_17.xyz,Nucleus 22C :,6.194565,-6.233638,1.517044,2.29,-93.02,94.49,5.4,187.42,251.5,270.67,-93.31,-345.62,-263.78,-93.02,5.4,94.49,0,187.51,0.05
nw_cut_3_0_3f_opt_disp_struct_17.xyz,Nucleus 5N :,4.910328,-7.187056,2.996576,122.03,50.27,184.83,131.0,293.77,337.44,329.27,-109.2,-205.88,-279.31,50.27,131.0,184.83,0,134.56,0.2
nw_cut_3_0_3f_opt_disp_struct_17.xyz,Nucleus 24N :,4.79471,-8.022332,3.885303,146.22,48.53,242.89,147.23,284.9,328.16,348.96,-279.14,-82.02,-162.21,48.53,147.23,242.89,0,194.36,0.02
nw_cut_3_0_3f_opt_disp_struct_17.xyz,Nucleus 23O :,4.00846,-6.177597,2.851663,-116.73,315.48,-242.89,-422.79,324.91,378.87,427.92,-9.87,-623.4,-848.62,-422.79,-242.89,315.48,0,738.27,-0.51
nw_cut_3_0_3f_opt_disp_struct_17.xyz,Nucleus 10F :,3.984317,-5.708381,1.967384,303.66,397.82,222.91,290.25,482.38,458.88,466.17,-68.34,-236.03,-192.07,222.91,290.25,397.82,0,174.91,-0.23
nw_cut_3_0_3f_opt_disp_struct_17.xyz,Nucleus 14F :,3.136296,-6.346598,3.315261,322.38,411.86,297.11,258.18,460.6,479.48,473.79,-61.98,-181.19,-203.55,258.18,297.11,411.86,0,153.68,-0.49
nw_cut_3_0_3f_opt_disp_struct_17.xyz,Nucleus 16F :,5.771204,-7.931461,1.208076,349.54,457.2,302.84,288.57,483.91,459.79,465.83,-8.63,-165.69,-186.58,288.57,302.84,457.2,0,168.63,-0.83
nw_cut_3_0_3f_opt_disp_struct_18.xyz,Nucleus 1H :,0.985827,-0.026268,-1.323171,29.19,35.3,23.52,28.74,40.83,26.17,28.86,-6.6,0.51,-2.21,23.52,28.74,35.3,0,11.78,-0.11
nw_cut_3_0_3f_opt_disp_struct_18.xyz,Nucleus 2H :,1.775162,0.616305,-1.720895,28.82,34.87,23.97,27.63,45.4,25.25,26.75,-11.51,2.11,-1.53,23.97,27.63,34.87,0,10.9,-0.33
nw_cut_3_0_3f_opt_disp_struct_18.xyz,Nucleus 6H :,1.201801,-1.055038,-1.630788,23.78,15.49,25.42,30.43,10.63,30.52,48.9,-18.77,5.02,-4.96,15.49,25.42,30.43,0,14.94,0.33
nw_cut_3_0_3f_opt_disp_struct_18.xyz,Nucleus 12H :,0.900938,0.098278,0.155971,24.52,20.67,25.11,27.77,46.65,16.15,31.44,-21.57,4.56,-3.7,20.67,25.11,27.77,0,7.1,0.25
nw_cut_3_0_3f_opt_disp_struct_18.xyz,Nucleus 17H :,1.676783,0.915114,0.956718,24.31,20.72,25.5,26.72,44.47,27.16,30.82,-18.94,-6.36,-4.21,20.72,25.5,26.72,0,6.0,0.6
nw_cut_3_0_3f_opt_disp_struct_18.xyz,Nucleus 18H :,1.288305,0.744281,2.258473,28.78,34.99,27.47,23.88,42.0,26.81,32.22,-0.03,-9.45,-5.22,23.88,27.47,34.99,0,11.11,-0.35
nw_cut_3_0_3f_opt_disp_struct_18.xyz,Nucleus 20H :,1.696817,1.190841,3.061224,29.65,34.75,27.9,26.31,38.58,14.42,-0.01,-4.28,26.92,13.33,26.31,27.9,34.75,0,8.44,-0.62
nw_cut_3_0_3f_opt_disp_struct_18.xyz,Nucleus 21H :,0.265914,-0.170296,2.325316,29.87,25.76,30.17,33.67,43.61,31.36,21.14,-11.42,-0.59,5.51,25.76,30.17,33.67,0,7.91,0.11
nw_cut_3_0_3f_opt_disp_struct_18.xyz,Nucleus 25H :,-0.004197,-0.59451,1.022038,27.14,32.46,26.47,22.5,33.56,49.15,54.48,-3.88,-21.01,-30.87,22.5,26.47,32.46,0,9.96,-0.2
nw_cut_3_0_3f_opt_disp_struct_18.xyz,Nucleus 26H :,-1.03197,-1.544275,0.834547,27.29,34.36,23.98,23.54,31.49,47.59,40.33,-2.6,-20.3,-14.64,23.54,23.98,34.36,0,10.82,-0.92
nw_cut_3_0_3f_opt_disp_struct_18.xyz,Nucleus 27H :,-1.334582,-1.983963,-0.395338,29.54,33.96,27.58,27.08,38.35,9.32,19.57,-6.13,19.54,7.98,27.08,27.58,33.96,0,6.88,-0.85
nw_cut_3_0_3f_opt_disp_struct_18.xyz,Nucleus 0C :,-1.749556,-2.0418,1.923054,171.15,186.72,160.74,165.99,257.75,238.0,236.75,-77.36,-74.32,-67.38,160.74,165.99,186.72,0,25.98,-0.6
nw_cut_3_0_3f_opt_disp_struct_18.xyz,Nucleus 3C :,-2.53638,-2.772146,1.77502,61.64,148.18,53.76,-17.02,241.93,272.22,264.15,-93.77,-218.43,-281.17,-17.02,53.76,148.18,0,165.2,-0.14
nw_cut_3_0_3f_opt_disp_struct_18.xyz,Nucleus 4C :,-1.449357,-1.595885,3.202332,55.74,-27.2,126.22,68.19,273.6,256.7,258.78,-291.6,-131.69,-198.59,-27.2,68.19,126.22,0,153.42,0.24
nw_cut_3_0_3f_opt_disp_struct_18.xyz,Nucleus 7C :,-2.146016,-2.081671,4.239838,51.25,137.25,-2.32,18.81,260.2,271.1,266.99,-123.1,-273.09,-248.36,-2.32,18.81,137.25,0,139.57,-0.7
nw_cut_3_0_3f_opt_disp_struct_18.xyz,Nucleus 8C :,-0.442694,-0.657054,3.42605,61.73,155.32,30.14,-0.26,237.47,263.84,267.59,-82.36,-233.82,-267.52,-0.26,30.14,155.32,0,155.58,-0.61
nw_cut_3_0_3f_opt_disp_struct_18.xyz,Nucleus 9C :,-0.161232,-0.231632,4.664738,18.82,-53.13,78.16,31.42,234.13,266.03,264.01,-155.98,-234.44,-317.32,-53.13,31.42,78.16,0,131.29,0.29
nw_cut_3_0_3f_opt_disp_struct_18.xyz,Nucleus 11C :,2.468406,1.59812,0.687711,79.35,153.64,14.48,69.92,235.97,263.47,274.14,-82.41,-251.64,-201.49,14.48,69.92,153.64,0,139.16,-0.2
nw_cut_3_0_3f_opt_disp_struct_18.xyz,Nucleus 13C :,0.043715,0.257557,-1.804025,26.9,87.36,18.76,-25.41,232.64,260.77,269.78,-145.29,-250.28,-286.91,-25.41,18.76,87.36,0,112.77,-0.22
nw_cut_3_0_3f_opt_disp_struct_18.xyz,Nucleus 15C :,6.190487,-7.390739,2.014643,38.59,88.64,26.27,0.87,234.48,269.19,266.07,-145.85,-242.9,-265.2,0.87,26.27,88.64,0,87.77,-0.42
nw_cut_3_0_3f_opt_disp_struct_18.xyz,Nucleus 19C :,7.109399,-7.73277,2.493815,163.03,191.15,155.63,142.32,264.75,227.15,235.78,-71.49,-78.7,-88.39,142.32,155.63,191.15,0,48.83,-0.45
nw_cut_3_0_3f_opt_disp_struct_18.xyz,Nucleus 22C :,6.361013,-6.418402,1.542687,2.28,-93.06,94.51,5.39,186.62,251.42,270.82,-92.52,-345.56,-263.94,-93.06,5.39,94.51,0,187.57,0.05
nw_cut_3_0_3f_opt_disp_struct_18.xyz,Nucleus 5N :,5.076776,-7.371819,3.022219,122.06,50.32,184.82,131.05,293.76,337.42,329.2,-109.19,-205.82,-279.18,50.32,131.05,184.82,0,134.5,0.2
nw_cut_3_0_3f_opt_disp_struct_18.xyz,Nucleus 24N :,4.961158,-8.207096,3.910946,146.21,48.59,242.81,147.24,284.23,328.22,349.67,-279.15,-81.46,-162.89,48.59,147.24,242.81,0,194.22,0.02
nw_cut_3_0_3f_opt_disp_struct_18.xyz,Nucleus 23O :,4.174908,-6.36236,2.877306,-116.76,315.48,-242.92,-422.85,324.07,378.74,428.01,-9.04,-623.3,-848.77,-422.85,-242.92,315.48,0,738.33,-0.51
nw_cut_3_0_3f_opt_disp_struct_18.xyz,Nucleus 10F :,4.150765,-5.893145,1.993026,303.65,397.81,222.89,290.24,482.31,458.86,466.15,-68.34,-236.03,-192.01,222.89,290.24,397.81,0,174.92,-0.23
nw_cut_3_0_3f_opt_disp_struct_18.xyz,Nucleus 14F :,3.302744,-6.531362,3.340904,322.43,411.87,297.15,258.26,460.53,479.48,473.77,-61.95,-181.13,-203.42,258.26,297.15,411.87,0,153.61,-0.49
nw_cut_3_0_3f_opt_disp_struct_18.xyz,Nucleus 16F :,5.937652,-8.116225,1.233718,349.6,457.21,302.92,288.68,483.85,459.79,465.78,-8.58,-165.56,-186.47,288.68,302.92,457.21,0,168.53,-0.83
nw_cut_3_0_3f_opt_disp_struct_19.xyz,Nucleus 1H :,0.985827,-0.026268,-1.323171,29.19,35.3,23.52,28.75,40.82,26.17,28.84,-6.58,0.53,-2.2,23.52,28.75,35.3,0,11.78,-0.11
nw_cut_3_0_3f_opt_disp_struct_19.xyz,Nucleus 2H :,1.775162,0.616305,-1.720895,28.82,34.88,23.96,27.63,45.35,25.21,26.74,-11.47,2.15,-1.5,23.96,27.63,34.88,0,10.92,-0.33
nw_cut_3_0_3f_opt_disp_struct_19.xyz,Nucleus 6H :,1.201801,-1.055038,-1.630788,23.78,15.49,25.42,30.44,10.63,30.51,48.84,-18.7,5.01,-4.94,15.49,25.42,30.44,0,14.95,0.33
nw_cut_3_0_3f_opt_disp_struct_19.xyz,Nucleus 12H :,0.900938,0.098278,0.155971,24.51,20.65,25.11,27.77,46.58,16.14,31.4,-21.49,4.56,-3.66,20.65,25.11,27.77,0,7.12,0.25
nw_cut_3_0_3f_opt_disp_struct_19.xyz,Nucleus 17H :,1.676783,0.915114,0.956718,24.31,20.72,25.5,26.72,44.45,27.16,30.8,-18.91,-6.36,-4.18,20.72,25.5,26.72,0,6.0,0.6
nw_cut_3_0_3f_opt_disp_struct_19.xyz,Nucleus 18H :,1.288305,0.744281,2.258473,28.79,34.99,27.48,23.89,42.0,26.79,32.2,-0.01,-9.44,-5.19,23.89,27.48,34.99,0,11.1,-0.35
nw_cut_3_0_3f_opt_disp_struct_19.xyz,Nucleus 20H :,1.696817,1.190841,3.061224,29.64,34.72,27.9,26.31,38.55,14.17,-0.74,-4.28,27.65,13.59,26.31,27.9,34.72,0,8.41,-0.62
nw_cut_3_0_3f_opt_disp_struct_19.xyz,Nucleus 21H :,0.265914,-0.170296,2.325316,29.86,25.77,30.12,33.68,43.88,31.22,20.89,-11.73,-0.51,5.82,25.77,30.12,33.68,0,7.91,0.1
nw_cut_3_0_3f_opt_disp_struct_19.xyz,Nucleus 25H :,-0.004197,-0.59451,1.022038,27.12,32.37,26.47,22.52,33.52,49.39,55.29,-3.83,-21.28,-31.73,22.52,26.47,32.37,0,9.85,-0.2
nw_cut_3_0_3f_opt_disp_struct_19.xyz,Nucleus 26H :,-1.03197,-1.544275,0.834547,27.27,34.35,23.96,23.51,31.43,48.09,40.88,-2.61,-21.04,-14.94,23.51,23.96,34.35,0,10.84,-0.92
nw_cut_3_0_3f_opt_disp_struct_19.xyz,Nucleus 27H :,-1.334582,-1.983963,-0.395338,29.54,33.96,27.57,27.09,38.41,8.71,19.38,-6.23,20.17,8.17,27.09,27.57,33.96,0,6.87,-0.86
nw_cut_3_0_3f_opt_disp_struct_19.xyz,Nucleus 0C :,-1.749556,-2.0418,1.923054,171.15,186.73,160.74,165.98,257.71,238.0,236.72,-77.32,-74.3,-67.37,160.74,165.98,186.73,0,25.99,-0.6
nw_cut_3_0_3f_opt_disp_struct_19.xyz,Nucleus 3C :,-2.53638,-2.772146,1.77502,61.63,148.16,53.75,-17.03,241.9,272.14,264.11,-93.76,-218.36,-281.15,-17.03,53.75,148.16,0,165.19,-0.14
nw_cut_3_0_3f_opt_disp_struct_19.xyz,Nucleus 4C :,-1.449357,-1.595885,3.202332,55.75,-27.18,126.21,68.22,273.56,256.65,258.8,-291.58,-131.69,-198.49,-27.18,68.22,126.21,0,153.39,0.24
nw_cut_3_0_3f_opt_disp_struct_19.xyz,Nucleus 7C :,-2.146016,-2.081671,4.239838,51.25,137.23,-2.31,18.82,260.19,271.03,266.94,-123.11,-272.98,-248.32,-2.31,18.82,137.23,0,139.54,-0.7
nw_cut_3_0_3f_opt_disp_struct_19.xyz,Nucleus 8C :,-0.442694,-0.657054,3.42605,61.73,155.3,30.14,-0.26,237.44,263.75,267.53,-82.35,-233.76,-267.44,-0.26,30.14,155.3,0,155.56,-0.61
nw_cut_3_0_3f_opt_disp_struct_19.xyz,Nucleus 9C :,-0.161232,-0.231632,4.664738,18.8,-53.15,78.14,31.41,234.11,265.99,263.89,-155.97,-234.41,-317.2,-53.15,31.41,78.14,0,131.29,0.29
nw_cut_3_0_3f_opt_disp_struct_19.xyz,Nucleus 11C :,2.468406,1.59812,0.687711,79.34,153.62,14.48,69.92,235.95,263.42,274.04,-82.41,-251.54,-201.44,14.48,69.92,153.62,0,139.14,-0.2
nw_cut_3_0_3f_opt_disp_struct_19.xyz,Nucleus 13C :,0.043715,0.257557,-1.804025,26.9,87.34,18.77,-25.41,232.61,260.75,269.66,-145.28,-250.16,-286.88,-25.41,18.77,87.34,0,112.75,-0.22
nw_cut_3_0_3f_opt_disp_struct_19.xyz,Nucleus 15C :,6.356935,-7.575503,2.040286,38.6,88.62,26.29,0.89,234.46,269.1,266.02,-145.85,-242.79,-265.14,0.89,26.29,88.62,0,87.73,-0.42
nw_cut_3_0_3f_opt_disp_struct_19.xyz,Nucleus 19C :,7.275846,-7.917534,2.519458,163.03,191.15,155.6,142.33,265.08,226.68,235.49,-71.62,-78.48,-88.08,142.33,155.6,191.15,0,48.82,-0.46
nw_cut_3_0_3f_opt_disp_struct_19.xyz,Nucleus 22C :,6.527461,-6.603165,1.56833,2.27,-93.1,94.52,5.39,185.81,251.35,270.97,-91.72,-345.5,-264.1,-93.1,5.39,94.52,0,187.62,0.05
nw_cut_3_0_3f_opt_disp_struct_19.xyz,Nucleus 5N :,5.243223,-7.556583,3.047862,122.08,50.36,184.8,131.09,293.74,337.4,329.12,-109.19,-205.76,-279.06,50.36,131.09,184.8,0,134.44,0.2
nw_cut_3_0_3f_opt_disp_struct_19.xyz,Nucleus 24N :,5.127606,-8.39186,3.936589,146.21,48.64,242.75,147.25,283.55,328.28,350.41,-279.16,-80.88,-163.56,48.64,147.25,242.75,0,194.11,0.02
nw_cut_3_0_3f_opt_disp_struct_19.xyz,Nucleus 23O :,4.341356,-6.547124,2.902949,-116.79,315.49,-242.95,-422.9,323.25,378.6,428.1,-8.21,-623.18,-848.91,-422.9,-242.95,315.49,0,738.39,-0.51
nw_cut_3_0_3f_opt_disp_struct_19.xyz,Nucleus 10F :,4.317213,-6.077908,2.018669,303.63,397.8,222.86,290.23,482.24,458.84,466.13,-68.33,-236.03,-191.95,222.86,290.23,397.8,0,174.94,-0.23
nw_cut_3_0_3f_opt_disp_struct_19.xyz,Nucleus 14F :,3.469192,-6.716125,3.366547,322.46,411.87,297.19,258.32,460.47,479.47,473.75,-61.92,-181.09,-203.3,258.32,297.19,411.87,0,153.55,-0.49
nw_cut_3_0_3f_opt_disp_struct_19.xyz,Nucleus 16F :,6.1041,-8.300988,1.259361,349.66,457.22,302.99,288.77,483.79,459.78,465.75,-8.54,-165.44,-186.36,288.77,302.99,457.22,0,168.45,-0.83
nw_cut_3_0_3f_opt_disp_struct_2.xyz,Nucleus 1H :,0.985827,-0.026268,-1.323171,29.12,35.36,23.46,28.53,41.34,26.06,28.73,-7.21,0.66,-2.24,23.46,28.53,35.36,0,11.9,-0.15
nw_cut_3_0_3f_opt_disp_struct_2.xyz,Nucleus 2H :,1.775162,0.616305,-1.720895,28.82,34.6,24.05,27.8,46.04,25.56,27.25,-12.41,1.27,-1.27,24.05,27.8,34.6,0,10.55,-0.29
nw_cut_3_0_3f_opt_disp_struct_2.xyz,Nucleus 6H :,1.201801,-1.055038,-1.630788,23.64,15.47,25.15,30.3,10.07,29.99,49.82,-19.97,5.77,-4.76,15.47,25.15,30.3,0,14.83,0.31
nw_cut_3_0_3f_opt_disp_struct_2.xyz,Nucleus 12H :,0.900938,0.098278,0.155971,24.5,20.82,25.23,27.44,48.14,16.73,32.0,-23.19,4.44,-4.64,20.82,25.23,27.44,0,6.62,0.33
nw_cut_3_0_3f_opt_disp_struct_2.xyz,Nucleus 17H :,1.676783,0.915114,0.956718,24.22,20.64,25.52,26.5,44.64,27.11,30.93,-19.17,-6.25,-4.6,20.64,25.52,26.5,0,5.86,0.67
nw_cut_3_0_3f_opt_disp_struct_2.xyz,Nucleus 18H :,1.288305,0.744281,2.258473,28.74,35.14,27.33,23.74,42.27,27.33,32.43,-0.62,-9.55,-5.62,23.74,27.33,35.14,0,11.4,-0.37
nw_cut_3_0_3f_opt_disp_struct_2.xyz,Nucleus 20H :,1.696817,1.190841,3.061224,29.97,35.73,27.79,26.39,40.27,17.83,11.13,-4.71,9.81,15.59,26.39,27.79,35.73,0,9.34,-0.7
nw_cut_3_0_3f_opt_disp_struct_2.xyz,Nucleus 21H :,0.265914,-0.170296,2.325316,30.36,25.27,32.12,33.7,23.85,35.53,39.19,-6.54,-2.88,1.93,25.27,32.12,33.7,0,8.43,0.63
nw_cut_3_0_3f_opt_disp_struct_2.xyz,Nucleus 25H :,-0.004197,-0.59451,1.022038,28.7,39.04,20.94,26.11,53.0,31.58,36.04,-2.3,-14.15,-18.08,20.94,26.11,39.04,0,18.1,-0.43
nw_cut_3_0_3f_opt_disp_struct_2.xyz,Nucleus 26H :,-1.03197,-1.544275,0.834547,28.5,36.7,26.51,22.3,25.09,37.8,39.2,0.46,-5.32,-11.72,22.3,26.51,36.7,0,14.4,-0.41
nw_cut_3_0_3f_opt_disp_struct_2.xyz,Nucleus 27H :,-1.334582,-1.983963,-0.395338,29.82,34.34,28.24,26.88,38.27,19.14,22.14,-4.93,9.6,5.25,26.88,28.24,34.34,0,7.46,-0.64
nw_cut_3_0_3f_opt_disp_struct_2.xyz,Nucleus 0C :,-1.749556,-2.0418,1.923054,171.15,186.67,160.57,166.22,258.56,237.54,238.39,-78.47,-74.91,-67.64,160.57,166.22,186.67,0,26.1,-0.57
nw_cut_3_0_3f_opt_disp_struct_2.xyz,Nucleus 3C :,-2.53638,-2.772146,1.77502,62.3,148.45,54.46,-16.0,243.37,275.11,265.1,-94.94,-220.62,-281.09,-16.0,54.46,148.45,0,164.45,-0.14
nw_cut_3_0_3f_opt_disp_struct_2.xyz,Nucleus 4C :,-1.449357,-1.595885,3.202332,54.73,-28.46,126.57,66.08,275.05,257.5,258.05,-293.03,-131.53,-201.85,-28.46,66.08,126.57,0,155.03,0.22
nw_cut_3_0_3f_opt_disp_struct_2.xyz,Nucleus 7C :,-2.146016,-2.081671,4.239838,50.32,138.2,-4.35,17.11,275.02,261.91,268.17,-124.5,-279.03,-250.62,-4.35,17.11,138.2,0,142.55,-0.7
nw_cut_3_0_3f_opt_disp_struct_2.xyz,Nucleus 8C :,-0.442694,-0.657054,3.42605,62.3,156.48,30.35,0.07,237.84,265.4,269.87,-81.78,-235.69,-268.74,0.07,30.35,156.48,0,156.41,-0.61
nw_cut_3_0_3f_opt_disp_struct_2.xyz,Nucleus 9C :,-0.161232,-0.231632,4.664738,19.52,-51.98,79.29,31.26,237.7,267.44,269.28,-158.51,-236.16,-321.17,-51.98,31.26,79.29,0,131.27,0.27
nw_cut_3_0_3f_opt_disp_struct_2.xyz,Nucleus 11C :,2.468406,1.59812,0.687711,79.16,154.82,14.02,68.65,236.51,264.6,277.44,-81.86,-254.87,-204.31,14.02,68.65,154.82,0,140.8,-0.22
nw_cut_3_0_3f_opt_disp_struct_2.xyz,Nucleus 13C :,0.043715,0.257557,-1.804025,27.19,88.53,17.99,-24.95,233.41,260.97,273.41,-145.12,-253.96,-287.14,-24.95,17.99,88.53,0,113.48,-0.24
nw_cut_3_0_3f_opt_disp_struct_2.xyz,Nucleus 15C :,3.527323,-4.434522,1.604357,37.38,89.7,24.01,-1.58,234.97,272.78,266.87,-145.32,-247.96,-269.21,-1.58,24.01,89.7,0,91.28,-0.44
nw_cut_3_0_3f_opt_disp_struct_2.xyz,Nucleus 19C :,4.446234,-4.776553,2.083529,163.48,191.47,156.99,141.99,259.07,234.79,241.96,-66.9,-83.86,-94.61,141.99,156.99,191.47,0,49.48,-0.39
nw_cut_3_0_3f_opt_disp_struct_2.xyz,Nucleus 22C :,3.697848,-3.462185,1.132402,2.59,-91.01,94.12,4.65,198.66,251.92,270.35,-104.66,-345.13,-263.38,-91.01,4.65,94.12,0,185.13,0.03
nw_cut_3_0_3f_opt_disp_struct_2.xyz,Nucleus 5N :,2.413611,-4.415602,2.611933,119.89,46.53,185.14,127.99,293.31,338.19,330.18,-109.14,-209.43,-283.45,46.53,127.99,185.14,0,138.61,0.18
nw_cut_3_0_3f_opt_disp_struct_2.xyz,Nucleus 24N :,2.297993,-5.250879,3.500661,146.15,44.06,245.05,149.35,288.38,325.69,345.44,-281.86,-91.94,-147.24,44.06,149.35,245.05,0,200.99,0.05
nw_cut_3_0_3f_opt_disp_struct_2.xyz,Nucleus 23O :,1.511743,-3.406143,2.46702,-114.12,315.88,-239.97,-418.26,339.37,380.68,426.74,-24.28,-621.66,-843.22,-418.26,-239.97,315.88,0,734.14,-0.51
nw_cut_3_0_3f_opt_disp_struct_2.xyz,Nucleus 10F :,1.4876,-2.936928,1.582741,303.41,397.95,222.88,289.4,482.07,458.05,467.19,-69.05,-235.89,-192.14,222.88,289.4,397.95,0,175.07,-0.24
nw_cut_3_0_3f_opt_disp_struct_2.xyz,Nucleus 14F :,0.639579,-3.575145,2.930618,320.9,411.17,295.04,256.49,459.34,477.69,479.74,-66.01,-182.52,-205.53,256.49,295.04,411.17,0,154.68,-0.5
nw_cut_3_0_3f_opt_disp_struct_2.xyz,Nucleus 16F :,3.274487,-5.160008,0.823433,344.99,456.41,280.7,297.85,457.98,473.1,482.16,-16.06,-172.09,-190.13,280.7,297.85,456.41,0,175.71,-0.8
nw_cut_3_0_3f_opt_disp_struct_3.xyz,Nucleus 1H :,0.985827,-0.026268,-1.323171,29.12,35.34,23.48,28.55,41.31,26.13,28.72,-7.19,0.6,-2.2,23.48,28.55,35.34,0,11.86,-0.14
nw_cut_3_0_3f_opt_disp_struct_3.xyz,Nucleus 2H :,1.775162,0.616305,-1.720895,28.82,34.63,24.07,27.77,46.01,25.61,27.17,-12.34,1.35,-1.34,24.07,27.77,34.63,0,10.56,-0.3
nw_cut_3_0_3f_opt_disp_struct_3.xyz,Nucleus 6H :,1.201801,-1.055038,-1.630788,23.66,15.5,25.18,30.31,10.19,30.08,49.78,-19.91,5.65,-4.8,15.5,25.18,30.31,0,14.81,0.31
nw_cut_3_0_3f_opt_disp_struct_3.xyz,Nucleus 12H :,0.900938,0.098278,0.155971,24.5,20.84,25.18,27.48,48.05,16.57,32.22,-23.1,4.58,-4.83,20.84,25.18,27.48,0,6.64,0.31
nw_cut_3_0_3f_opt_disp_struct_3.xyz,Nucleus 17H :,1.676783,0.915114,0.956718,24.23,20.66,25.52,26.52,44.67,27.17,30.93,-19.21,-6.29,-4.56,20.66,25.52,26.52,0,5.86,0.66
nw_cut_3_0_3f_opt_disp_struct_3.xyz,Nucleus 18H :,1.288305,0.744281,2.258473,28.74,35.12,27.35,23.76,42.24,27.27,32.4,-0.59,-9.51,-5.57,23.76,27.35,35.12,0,11.36,-0.37
nw_cut_3_0_3f_opt_disp_struct_3.xyz,Nucleus 20H :,1.696817,1.190841,3.061224,29.92,35.6,27.79,26.37,40.03,17.65,10.47,-4.62,9.98,16.25,26.37,27.79,35.6,0,9.23,-0.69
nw_cut_3_0_3f_opt_disp_struct_3.xyz,Nucleus 21H :,0.265914,-0.170296,2.325316,30.29,25.33,31.93,33.61,23.81,35.09,39.4,-6.75,-2.67,1.99,25.33,31.93,33.61,0,8.28,0.59
nw_cut_3_0_3f_opt_disp_struct_3.xyz,Nucleus 25H :,-0.004197,-0.59451,1.022038,28.53,37.89,21.38,26.33,51.89,32.17,37.6,-2.89,-15.27,-17.91,21.38,26.33,37.89,0,16.51,-0.4
nw_cut_3_0_3f_opt_disp_struct_3.xyz,Nucleus 26H :,-1.03197,-1.544275,0.834547,28.37,36.05,26.39,22.68,26.25,38.8,37.75,0.11,-5.77,-12.01,22.68,26.39,36.05,0,13.37,-0.44
nw_cut_3_0_3f_opt_disp_struct_3.xyz,Nucleus 27H :,-1.334582,-1.983963,-0.395338,29.78,34.28,28.17,26.9,38.18,18.49,21.96,-4.95,10.23,5.44,26.9,28.17,34.28,0,7.38,-0.65
nw_cut_3_0_3f_opt_disp_struct_3.xyz,Nucleus 0C :,-1.749556,-2.0418,1.923054,171.14,186.64,160.59,166.2,258.42,237.51,238.33,-78.29,-74.87,-67.66,160.59,166.2,186.64,0,26.05,-0.57
nw_cut_3_0_3f_opt_disp_struct_3.xyz,Nucleus 3C :,-2.53638,-2.772146,1.77502,62.22,148.45,54.41,-16.19,243.24,274.93,264.94,-94.82,-220.47,-281.14,-16.19,54.41,148.45,0,164.64,-0.14
nw_cut_3_0_3f_opt_disp_struct_3.xyz,Nucleus 4C :,-1.449357,-1.595885,3.202332,54.91,-28.24,126.55,66.43,274.9,258.04,257.45,-292.76,-131.47,-201.43,-28.24,66.43,126.55,0,154.79,0.22
nw_cut_3_0_3f_opt_disp_struct_3.xyz,Nucleus 7C :,-2.146016,-2.081671,4.239838,50.67,138.08,-3.66,17.59,274.64,261.66,267.81,-124.07,-278.03,-249.99,-3.66,17.59,138.08,0,141.74,-0.7
nw_cut_3_0_3f_opt_disp_struct_3.xyz,Nucleus 8C :,-0.442694,-0.657054,3.42605,62.3,156.27,30.47,0.16,237.65,265.68,269.91,-81.92,-235.86,-268.57,0.16,30.47,156.27,0,156.11,-0.61
nw_cut_3_0_3f_opt_disp_struct_3.xyz,Nucleus 9C :,-0.161232,-0.231632,4.664738,19.49,-52.02,79.1,31.38,236.94,267.45,269.14,-158.03,-236.19,-320.85,-52.02,31.38,79.1,0,131.12,0.27
nw_cut_3_0_3f_opt_disp_struct_3.xyz,Nucleus 11C :,2.468406,1.59812,0.687711,79.4,154.65,14.36,69.18,236.3,264.41,277.62,-81.83,-254.36,-203.96,14.36,69.18,154.65,0,140.29,-0.22
nw_cut_3_0_3f_opt_disp_struct_3.xyz,Nucleus 13C :,0.043715,0.257557,-1.804025,27.17,88.35,18.16,-24.99,233.33,260.93,273.19,-145.07,-253.59,-287.28,-24.99,18.16,88.35,0,113.34,-0.24
nw_cut_3_0_3f_opt_disp_struct_3.xyz,Nucleus 15C :,3.69377,-4.619286,1.63,37.81,89.58,24.66,-0.81,234.75,272.35,266.74,-145.21,-247.14,-268.05,-0.81,24.66,89.58,0,90.39,-0.44
nw_cut_3_0_3f_opt_disp_struct_3.xyz,Nucleus 19C :,4.612682,-4.961317,2.109172,163.42,191.42,156.78,142.05,259.44,234.3,241.46,-67.33,-83.4,-94.22,142.05,156.78,191.42,0,49.37,-0.4
nw_cut_3_0_3f_opt_disp_struct_3.xyz,Nucleus 22C :,3.864296,-3.646948,1.158044,2.58,-91.36,94.12,4.98,197.82,251.86,270.19,-103.84,-345.34,-262.96,-91.36,4.98,94.12,0,185.48,0.04
nw_cut_3_0_3f_opt_disp_struct_3.xyz,Nucleus 5N :,2.580059,-4.600366,2.637576,120.33,47.33,185.14,128.52,293.35,338.11,330.13,-109.16,-208.82,-282.62,47.33,128.52,185.14,0,137.81,0.18
nw_cut_3_0_3f_opt_disp_struct_3.xyz,Nucleus 24N :,2.464441,-5.435643,3.526304,146.61,46.03,245.4,148.39,288.22,325.33,345.1,-279.83,-89.94,-149.06,46.03,148.39,245.4,0,199.37,0.03
nw_cut_3_0_3f_opt_disp_struct_3.xyz,Nucleus 23O :,1.678191,-3.590907,2.492663,-115.03,315.68,-241.03,-419.75,337.99,380.51,426.81,-23.07,-622.6,-844.74,-419.75,-241.03,315.68,0,735.43,-0.51
nw_cut_3_0_3f_opt_disp_struct_3.xyz,Nucleus 10F :,1.654048,-3.121691,1.608384,303.62,397.97,223.22,289.68,482.34,458.17,467.0,-68.97,-235.52,-192.15,223.22,289.68,397.97,0,174.75,-0.24
nw_cut_3_0_3f_opt_disp_struct_3.xyz,Nucleus 14F :,0.806027,-3.759908,2.956261,321.2,411.31,295.54,256.74,459.36,477.3,479.75,-65.49,-182.15,-205.19,256.74,295.54,411.31,0,154.57,-0.5
nw_cut_3_0_3f_opt_disp_struct_3.xyz,Nucleus 16F :,3.440935,-5.344771,0.849076,346.01,456.61,282.54,298.87,458.1,472.22,482.56,-14.94,-170.4,-189.52,282.54,298.87,456.61,0,174.07,-0.81
nw_cut_3_0_3f_opt_disp_struct_4.xyz,Nucleus 1H :,0.985827,-0.026268,-1.323171,29.13,35.33,23.49,28.57,41.27,26.16,28.7,-7.15,0.57,-2.17,23.49,28.57,35.33,0,11.84,-0.14
nw_cut_3_0_3f_opt_disp_struct_4.xyz,Nucleus 2H :,1.775162,0.616305,-1.720895,28.83,34.65,24.08,27.75,45.97,25.62,27.11,-12.26,1.43,-1.39,24.08,27.75,34.65,0,10.57,-0.31
nw_cut_3_0_3f_opt_disp_struct_4.xyz,Nucleus 6H :,1.201801,-1.055038,-1.630788,23.68,15.52,25.21,30.32,10.3,30.17,49.73,-19.85,5.55,-4.85,15.52,25.21,30.32,0,14.8,0.31
nw_cut_3_0_3f_opt_disp_struct_4.xyz,Nucleus 12H :,0.900938,0.098278,0.155971,24.5,20.85,25.13,27.51,47.95,16.5,32.28,-23.01,4.61,-4.84,20.85,25.13,27.51,0,6.66,0.28
nw_cut_3_0_3f_opt_disp_struct_4.xyz,Nucleus 17H :,1.676783,0.915114,0.956718,24.25,20.68,25.51,26.55,44.69,27.19,30.91,-19.24,-6.31,-4.51,20.68,25.51,26.55,0,5.87,0.64
nw_cut_3_0_3f_opt_disp_struct_4.xyz,Nucleus 18H :,1.288305,0.744281,2.258473,28.75,35.1,27.36,23.78,42.19,27.2,32.36,-0.54,-9.46,-5.52,23.78,27.36,35.1,0,11.32,-0.37
nw_cut_3_0_3f_opt_disp_struct_4.xyz,Nucleus 20H :,1.696817,1.190841,3.061224,29.88,35.48,27.8,26.36,39.82,17.49,9.81,-4.54,10.15,16.92,26.36,27.8,35.48,0,9.12,-0.68
nw_cut_3_0_3f_opt_disp_struct_4.xyz,Nucleus 21H :,0.265914,-0.170296,2.325316,30.23,25.39,31.74,33.56,23.75,39.65,34.67,-7.01,-2.47,2.1,25.39,31.74,33.56,0,8.17,0.55
nw_cut_3_0_3f_opt_disp_struct_4.xyz,Nucleus 25H :,-0.004197,-0.59451,1.022038,28.33,36.94,21.64,26.42,50.98,32.67,39.12,-3.33,-16.57,-17.87,21.64,26.42,36.94,0,15.3,-0.37
nw_cut_3_0_3f_opt_disp_struct_4.xyz,Nucleus 26H :,-1.03197,-1.544275,0.834547,28.21,35.6,26.14,22.9,39.77,36.64,27.42,-0.38,-6.4,-12.41,22.9,26.14,35.6,0,12.7,-0.49
nw_cut_3_0_3f_opt_disp_struct_4.xyz,Nucleus 27H :,-1.334582,-1.983963,-0.395338,29.75,34.22,28.11,26.92,38.11,17.85,21.8,-4.99,10.86,5.62,26.92,28.11,34.22,0,7.3,-0.67
nw_cut_3_0_3f_opt_disp_struct_4.xyz,Nucleus 0C :,-1.749556,-2.0418,1.923054,171.13,186.63,160.6,166.17,258.3,237.44,238.27,-78.13,-74.8,-67.66,160.6,166.17,186.63,0,26.03,-0.57
nw_cut_3_0_3f_opt_disp_struct_4.xyz,Nucleus 3C :,-2.53638,-2.772146,1.77502,62.14,148.43,54.34,-16.34,243.0,274.63,264.76,-94.6,-220.22,-281.13,-16.34,54.34,148.43,0,164.77,-0.14
nw_cut_3_0_3f_opt_disp_struct_4.xyz,Nucleus 4C :,-1.449357,-1.595885,3.202332,55.06,-28.06,126.52,66.71,274.74,258.11,257.35,-292.53,-131.44,-201.05,-28.06,66.71,126.52,0,154.58,0.23
nw_cut_3_0_3f_opt_disp_struct_4.xyz,Nucleus 7C :,-2.146016,-2.081671,4.239838,50.88,137.96,-3.23,17.9,274.28,261.4,267.47,-123.73,-277.31,-249.49,-3.23,17.9,137.96,0,141.19,-0.7
nw_cut_3_0_3f_opt_disp_struct_4.xyz,Nucleus 8C :,-0.442694,-0.657054,3.42605,62.23,156.09,30.46,0.14,237.43,265.8,269.91,-81.93,-235.95,-268.56,0.14,30.46,156.09,0,155.95,-0.61
nw_cut_3_0_3f_opt_disp_struct_4.xyz,Nucleus 9C :,-0.161232,-0.231632,4.664738,19.41,-52.16,78.94,31.45,236.3,267.23,268.92,-157.57,-236.08,-320.58,-52.16,31.45,78.94,0,131.1,0.28
nw_cut_3_0_3f_opt_disp_struct_4.xyz,Nucleus 11C :,2.468406,1.59812,0.687711,79.49,154.49,14.5,69.47,236.27,264.24,277.57,-81.96,-254.01,-203.65,14.5,69.47,154.49,0,139.99,-0.21
nw_cut_3_0_3f_opt_disp_struct_4.xyz,Nucleus 13C :,0.043715,0.257557,-1.804025,27.14,88.19,18.29,-25.07,233.26,260.97,273.07,-145.08,-253.4,-287.4,-25.07,18.29,88.19,0,113.26,-0.23
nw_cut_3_0_3f_opt_disp_struct_4.xyz,Nucleus 15C :,3.860218,-4.804049,1.655643,38.06,89.45,25.1,-0.36,234.64,272.09,266.53,-145.23,-246.63,-267.2,-0.36,25.1,89.45,0,89.81,-0.43
nw_cut_3_0_3f_opt_disp_struct_4.xyz,Nucleus 19C :,4.779129,-5.146081,2.134815,163.36,191.38,156.61,142.09,259.84,233.8,240.97,-67.76,-82.95,-93.82,142.09,156.61,191.38,0,49.29,-0.41
nw_cut_3_0_3f_opt_disp_struct_4.xyz,Nucleus 22C :,4.030744,-3.831712,1.183687,2.57,-91.63,94.15,5.2,197.06,251.79,270.02,-103.07,-345.48,-262.61,-91.63,5.2,94.15,0,185.78,0.04
nw_cut_3_0_3f_opt_disp_struct_4.xyz,Nucleus 5N :,2.746506,-4.78513,2.663219,120.67,47.93,185.12,128.95,293.48,338.01,330.08,-109.21,-208.31,-282.05,47.93,128.95,185.12,0,137.19,0.18
nw_cut_3_0_3f_opt_disp_struct_4.xyz,Nucleus 24N :,2.630888,-5.620406,3.551946,146.68,46.96,245.28,147.8,288.41,325.54,344.94,-279.19,-88.81,-150.86,46.96,147.8,245.28,0,198.32,0.02
nw_cut_3_0_3f_opt_disp_struct_4.xyz,Nucleus 23O :,1.844638,-3.77567,2.518306,-115.59,315.54,-241.63,-420.67,336.56,380.4,426.9,-21.77,-623.14,-845.71,-420.67,-241.63,315.54,0,736.21,-0.51
nw_cut_3_0_3f_opt_disp_struct_4.xyz,Nucleus 10F :,1.820496,-3.306455,1.634027,303.73,398.0,223.36,289.83,482.51,458.33,466.84,-68.84,-235.41,-192.23,223.36,289.83,398.0,0,174.64,-0.24
nw_cut_3_0_3f_opt_disp_struct_4.xyz,Nucleus 14F :,0.972475,-3.944672,2.981904,321.38,411.42,295.84,256.87,459.58,476.93,479.59,-65.01,-181.96,-205.01,256.87,295.84,411.42,0,154.55,-0.5
nw_cut_3_0_3f_opt_disp_struct_4.xyz,Nucleus 16F :,3.607382,-5.529535,0.874719,346.72,456.73,283.81,299.61,458.27,471.32,482.88,-13.94,-169.29,-189.09,283.81,299.61,456.73,0,172.92,-0.82
nw_cut_3_0_3f_opt_disp_struct_5.xyz,Nucleus 1H :,0.985827,-0.026268,-1.323171,29.14,35.32,23.5,28.59,41.23,26.18,28.71,-7.1,0.54,-2.15,23.5,28.59,35.32,0,11.82,-0.14
nw_cut_3_0_3f_opt_disp_struct_5.xyz,Nucleus 2H :,1.775162,0.616305,-1.720895,28.83,34.68,24.08,27.73,45.94,25.61,27.06,-12.19,1.51,-1.43,24.08,27.73,34.68,0,10.6,-0.31
nw_cut_3_0_3f_opt_disp_struct_5.xyz,Nucleus 6H :,1.201801,-1.055038,-1.630788,23.7,15.53,25.24,30.32,10.38,30.25,49.69,-19.79,5.45,-4.89,15.53,25.24,30.32,0,14.79,0.31
nw_cut_3_0_3f_opt_disp_struct_5.xyz,Nucleus 12H :,0.900938,0.098278,0.155971,24.5,20.84,25.11,27.55,47.85,16.47,32.24,-22.91,4.59,-4.74,20.84,25.11,27.55,0,6.71,0.27
nw_cut_3_0_3f_opt_disp_struct_5.xyz,Nucleus 17H :,1.676783,0.915114,0.956718,24.26,20.7,25.51,26.57,44.69,27.2,30.9,-19.24,-6.32,-4.47,20.7,25.51,26.57,0,5.87,0.64
nw_cut_3_0_3f_opt_disp_struct_5.xyz,Nucleus 18H :,1.288305,0.744281,2.258473,28.75,35.08,27.37,23.8,42.15,27.14,32.34,-0.47,-9.42,-5.49,23.8,27.37,35.08,0,11.28,-0.37
nw_cut_3_0_3f_opt_disp_struct_5.xyz,Nucleus 20H :,1.696817,1.190841,3.061224,29.85,35.38,27.81,26.35,39.65,17.33,9.15,-4.49,10.31,17.59,26.35,27.81,35.38,0,9.03,-0.68
nw_cut_3_0_3f_opt_disp_struct_5.xyz,Nucleus 21H :,0.265914,-0.170296,2.325316,30.18,25.44,31.54,33.55,23.67,39.93,34.28,-7.31,-2.27,2.23,25.44,31.54,33.55,0,8.11,0.5
nw_cut_3_0_3f_opt_disp_struct_5.xyz,Nucleus 25H :,-0.004197,-0.59451,1.022038,28.14,36.16,21.81,26.45,33.1,50.29,40.57,-3.67,-18.01,-17.86,21.81,26.45,36.16,0,14.35,-0.35
nw_cut_3_0_3f_opt_disp_struct_5.xyz,Nucleus 26H :,-1.03197,-1.544275,0.834547,28.07,35.29,23.05,25.86,40.66,35.77,28.56,-0.85,-7.1,-12.84,23.05,25.86,35.29,0,12.24,-0.54
nw_cut_3_0_3f_opt_disp_struct_5.xyz,Nucleus 27H :,-1.334582,-1.983963,-0.395338,29.72,34.18,28.05,26.94,38.07,17.22,21.65,-5.04,11.48,5.78,26.94,28.05,34.18,0,7.24,-0.69
nw_cut_3_0_3f_opt_disp_struct_5.xyz,Nucleus 0C :,-1.749556,-2.0418,1.923054,171.13,186.63,160.62,166.15,258.21,238.22,237.36,-78.02,-74.73,-67.65,160.62,166.15,186.63,0,26.01,-0.57
nw_cut_3_0_3f_opt_disp_struct_5.xyz,Nucleus 3C :,-2.53638,-2.772146,1.77502,62.08,148.42,54.26,-16.45,242.76,274.29,264.63,-94.39,-219.94,-281.12,-16.45,54.26,148.42,0,164.87,-0.14
nw_cut_3_0_3f_opt_disp_struct_5.xyz,Nucleus 4C :,-1.449357,-1.595885,3.202332,55.18,-27.91,126.49,66.96,274.58,258.1,257.35,-292.33,-131.44,-200.71,-27.91,66.96,126.49,0,154.4,0.23
nw_cut_3_0_3f_opt_disp_struct_5.xyz,Nucleus 7C :,-2.146016,-2.081671,4.239838,50.99,137.84,-2.98,18.12,273.97,261.13,267.28,-123.47,-276.78,-249.14,-2.98,18.12,137.84,0,140.82,-0.7
nw_cut_3_0_3f_opt_disp_struct_5.xyz,Nucleus 8C :,-0.442694,-0.657054,3.42605,62.15,155.97,30.41,0.08,237.35,265.83,269.78,-81.98,-235.93,-268.6,0.08,30.41,155.97,0,155.89,-0.61
nw_cut_3_0_3f_opt_disp_struct_5.xyz,Nucleus 9C :,-0.161232,-0.231632,4.664738,19.32,-52.32,78.8,31.48,235.87,266.95,268.56,-157.24,-235.87,-320.32,-52.32,31.48,78.8,0,131.12,0.28
nw_cut_3_0_3f_opt_disp_struct_5.xyz,Nucleus 11C :,2.468406,1.59812,0.687711,79.51,154.35,14.55,69.63,236.32,264.13,277.29,-82.13,-253.75,-203.32,14.55,69.63,154.35,0,139.8,-0.21
nw_cut_3_0_3f_opt_disp_struct_5.xyz,Nucleus 13C :,0.043715,0.257557,-1.804025,27.09,88.06,18.38,-25.16,233.15,261.03,272.88,-145.11,-253.2,-287.48,-25.16,18.38,88.06,0,113.22,-0.23
nw_cut_3_0_3f_opt_disp_struct_5.xyz,Nucleus 15C :,4.026666,-4.988813,1.681286,38.22,89.33,25.39,-0.07,234.58,271.84,266.37,-145.28,-246.21,-266.65,-0.07,25.39,89.33,0,89.4,-0.43
nw_cut_3_0_3f_opt_disp_struct_5.xyz,Nucleus 19C :,4.945577,-5.330844,2.160458,163.32,191.35,156.47,142.13,260.26,233.32,240.51,-68.18,-82.54,-93.41,142.13,156.47,191.35,0,49.22,-0.42
nw_cut_3_0_3f_opt_disp_struct_5.xyz,Nucleus 22C :,4.197191,-4.016475,1.20933,2.56,-91.86,94.18,5.35,196.35,251.77,269.9,-102.33,-345.59,-262.42,-91.86,5.35,94.18,0,186.04,0.04
nw_cut_3_0_3f_opt_disp_struct_5.xyz,Nucleus 5N :,2.912954,-4.969893,2.688862,120.92,48.37,185.09,129.3,293.62,337.92,330.03,-109.28,-207.91,-281.62,48.37,129.3,185.09,0,136.72,0.18
nw_cut_3_0_3f_opt_disp_struct_5.xyz,Nucleus 24N :,2.797336,-5.80517,3.577589,146.63,47.43,245.0,147.46,288.64,325.93,344.88,-279.06,-88.05,-152.44,47.43,147.46,245.0,0,197.57,0.01
nw_cut_3_0_3f_opt_disp_struct_5.xyz,Nucleus 23O :,2.011086,-3.960434,2.543949,-115.95,315.43,-242.01,-421.28,335.15,380.31,427.02,-20.45,-623.5,-846.4,-421.28,-242.01,315.43,0,736.71,-0.51
nw_cut_3_0_3f_opt_disp_struct_5.xyz,Nucleus 10F :,1.986943,-3.491219,1.659669,303.79,398.02,223.4,289.95,482.62,458.48,466.73,-68.72,-235.44,-192.31,223.4,289.95,398.02,0,174.62,-0.24
nw_cut_3_0_3f_opt_disp_struct_5.xyz,Nucleus 14F :,1.138923,-4.129436,3.007547,321.51,411.52,296.05,256.96,459.88,476.54,479.39,-64.54,-181.84,-204.9,256.96,296.05,411.52,0,154.56,-0.49
nw_cut_3_0_3f_opt_disp_struct_5.xyz,Nucleus 16F :,3.77383,-5.714299,0.900361,347.26,456.82,284.76,300.2,458.51,470.39,483.17,-13.0,-168.55,-188.74,284.76,300.2,456.82,0,172.06,-0.82
nw_cut_3_0_3f_opt_disp_struct_6.xyz,Nucleus 1H :,0.985827,-0.026268,-1.323171,29.14,35.31,23.51,28.61,41.18,26.19,28.73,-7.05,0.53,-2.15,23.51,28.61,35.31,0,11.8,-0.13
nw_cut_3_0_3f_opt_disp_struct_6.xyz,Nucleus 2H :,1.775162,0.616305,-1.720895,28.83,34.71,24.08,27.71,45.91,25.6,27.02,-12.12,1.57,-1.48,24.08,27.71,34.71,0,10.63,-0.32
nw_cut_3_0_3f_opt_disp_struct_6.xyz,Nucleus 6H :,1.201801,-1.055038,-1.630788,23.71,15.54,25.26,30.33,10.45,30.32,49.64,-19.72,5.37,-4.92,15.54,25.26,30.33,0,14.79,0.31
nw_cut_3_0_3f_opt_disp_struct_6.xyz,Nucleus 12H :,0.900938,0.098278,0.155971,24.5,20.83,25.09,27.58,47.75,16.45,32.15,-22.8,4.57,-4.61,20.83,25.09,27.58,0,6.75,0.26
nw_cut_3_0_3f_opt_disp_struct_6.xyz,Nucleus 17H :,1.676783,0.915114,0.956718,24.27,20.71,25.5,26.59,44.69,27.21,30.9,-19.23,-6.33,-4.43,20.71,25.5,26.59,0,5.88,0.63
nw_cut_3_0_3f_opt_disp_struct_6.xyz,Nucleus 18H :,1.288305,0.744281,2.258473,28.75,35.07,27.38,23.81,42.11,27.09,32.33,-0.41,-9.4,-5.46,23.81,27.38,35.07,0,11.26,-0.37
nw_cut_3_0_3f_opt_disp_struct_6.xyz,Nucleus 20H :,1.696817,1.190841,3.061224,29.82,35.29,27.82,26.35,39.5,17.16,8.47,-4.44,10.49,18.28,26.35,27.82,35.29,0,8.94,-0.67
nw_cut_3_0_3f_opt_disp_struct_6.xyz,Nucleus 21H :,0.265914,-0.170296,2.325316,30.13,25.49,31.36,33.55,23.58,40.21,33.93,-7.62,-2.09,2.38,25.49,31.36,33.55,0,8.06,0.46
nw_cut_3_0_3f_opt_disp_struct_6.xyz,Nucleus 25H :,-0.004197,-0.59451,1.022038,27.97,35.52,21.93,26.47,33.41,49.79,41.93,-3.89,-19.24,-18.08,21.93,26.47,35.52,0,13.59,-0.33
nw_cut_3_0_3f_opt_disp_struct_6.xyz,Nucleus 26H :,-1.03197,-1.544275,0.834547,27.93,35.06,23.15,25.58,41.43,35.1,29.67,-1.26,-7.88,-13.27,23.15,25.58,35.06,0,11.91,-0.59
nw_cut_3_0_3f_opt_disp_struct_6.xyz,Nucleus 27H :,-1.334582,-1.983963,-0.395338,29.7,34.14,27.99,26.96,38.05,16.6,21.51,-5.1,12.11,5.93,26.96,27.99,34.14,0,7.18,-0.71
nw_cut_3_0_3f_opt_disp_struct_6.xyz,Nucleus 0C :,-1.749556,-2.0418,1.923054,171.13,186.63,160.63,166.14,258.15,238.17,237.28,-77.93,-74.67,-67.61,160.63,166.14,186.63,0,26.0,-0.58
nw_cut_3_0_3f_opt_disp_struct_6.xyz,Nucleus 3C :,-2.53638,-2.772146,1.77502,62.01,148.4,54.19,-16.56,242.57,273.96,264.53,-94.22,-219.69,-281.12,-16.56,54.19,148.4,0,164.96,-0.14
nw_cut_3_0_3f_opt_disp_struct_6.xyz,Nucleus 4C :,-1.449357,-1.595885,3.202332,55.28,-27.79,126.46,67.16,274.42,258.02,257.46,-292.18,-131.45,-200.42,-27.79,67.16,126.46,0,154.25,0.23
nw_cut_3_0_3f_opt_disp_struct_6.xyz,Nucleus 7C :,-2.146016,-2.081671,4.239838,51.07,137.75,-2.81,18.27,273.63,260.93,267.17,-123.31,-276.3,-248.9,-2.81,18.27,137.75,0,140.56,-0.7
nw_cut_3_0_3f_opt_disp_struct_6.xyz,Nucleus 8C :,-0.442694,-0.657054,3.42605,62.08,155.86,30.36,0.01,237.37,265.79,269.52,-82.07,-235.79,-268.6,0.01,30.36,155.86,0,155.85,-0.61
nw_cut_3_0_3f_opt_disp_struct_6.xyz,Nucleus 9C :,-0.161232,-0.231632,4.664738,19.23,-52.48,78.69,31.49,235.57,266.67,268.12,-157.0,-235.63,-320.03,-52.48,31.49,78.69,0,131.17,0.28
nw_cut_3_0_3f_opt_disp_struct_6.xyz,Nucleus 11C :,2.468406,1.59812,0.687711,79.5,154.23,14.55,69.73,236.34,264.06,276.89,-82.25,-253.52,-203.01,14.55,69.73,154.23,0,139.68,-0.21
nw_cut_3_0_3f_opt_disp_struct_6.xyz,Nucleus 13C :,0.043715,0.257557,-1.804025,27.05,87.94,18.45,-25.24,233.09,261.03,272.59,-145.16,-252.93,-287.47,-25.24,18.45,87.94,0,113.18,-0.23
nw_cut_3_0_3f_opt_disp_struct_6.xyz,Nucleus 15C :,4.193114,-5.173576,1.706929,38.32,89.23,25.6,0.14,234.56,271.54,266.28,-145.35,-245.77,-266.29,0.14,25.6,89.23,0,89.09,-0.43
nw_cut_3_0_3f_opt_disp_struct_6.xyz,Nucleus 19C :,5.112025,-5.515608,2.186101,163.28,191.32,156.35,142.16,260.66,232.83,240.07,-68.57,-82.16,-93.01,142.16,156.35,191.32,0,49.16,-0.42
nw_cut_3_0_3f_opt_disp_struct_6.xyz,Nucleus 22C :,4.363639,-4.201239,1.234973,2.53,-92.04,94.22,5.42,195.65,251.79,269.84,-101.62,-345.69,-262.38,-92.04,5.42,94.22,0,186.26,0.05
nw_cut_3_0_3f_opt_disp_struct_6.xyz,Nucleus 5N :,3.079402,-5.154657,2.714505,121.13,48.73,185.06,129.59,293.74,337.85,329.98,-109.33,-207.59,-281.26,48.73,129.59,185.06,0,136.33,0.19
nw_cut_3_0_3f_opt_disp_struct_6.xyz,Nucleus 24N :,2.963784,-5.989933,3.603232,146.56,47.68,244.71,147.28,288.8,326.3,344.87,-279.1,-87.48,-153.73,47.68,147.28,244.71,0,197.03,0.01
nw_cut_3_0_3f_opt_disp_struct_6.xyz,Nucleus 23O :,2.177534,-4.145198,2.569592,-116.17,315.36,-242.23,-421.64,333.83,380.21,427.14,-19.14,-623.7,-846.84,-421.64,-242.23,315.36,0,737.0,-0.51
nw_cut_3_0_3f_opt_disp_struct_6.xyz,Nucleus 10F :,2.153391,-3.675982,1.685312,303.81,398.02,223.37,290.03,482.7,458.61,466.66,-68.64,-235.52,-192.37,223.37,290.03,398.02,0,174.65,-0.24
nw_cut_3_0_3f_opt_disp_struct_6.xyz,Nucleus 14F :,1.30537,-4.314199,3.03319,321.61,411.59,296.2,257.04,460.19,476.1,479.25,-64.11,-181.77,-204.83,257.04,296.2,411.59,0,154.55,-0.49
nw_cut_3_0_3f_opt_disp_struct_6.xyz,Nucleus 16F :,3.940278,-5.899062,0.926004,347.68,456.89,285.49,300.67,458.8,469.5,483.42,-12.16,-168.06,-188.46,285.49,300.67,456.89,0,171.4,-0.82
nw_cut_3_0_3f_opt_disp_struct_7.xyz,Nucleus 1H :,0.985827,-0.026268,-1.323171,29.15,35.3,23.52,28.63,41.14,26.19,28.76,-7.0,0.51,-2.15,23.52,28.63,35.3,0,11.78,-0.13
nw_cut_3_0_3f_opt_disp_struct_7.xyz,Nucleus 2H :,1.775162,0.616305,-1.720895,28.84,34.73,24.08,27.7,45.88,25.58,26.99,-12.06,1.63,-1.51,24.08,27.7,34.73,0,10.65,-0.32
nw_cut_3_0_3f_opt_disp_struct_7.xyz,Nucleus 6H :,1.201801,-1.055038,-1.630788,23.72,15.54,25.29,30.34,10.5,30.37,49.59,-19.64,5.3,-4.96,15.54,25.29,30.34,0,14.8,0.32
nw_cut_3_0_3f_opt_disp_struct_7.xyz,Nucleus 12H :,0.900938,0.098278,0.155971,24.5,20.82,25.08,27.61,47.65,16.42,32.05,-22.68,4.55,-4.48,20.82,25.08,27.61,0,6.79,0.26
nw_cut_3_0_3f_opt_disp_struct_7.xyz,Nucleus 17H :,1.676783,0.915114,0.956718,24.28,20.72,25.5,26.61,44.68,27.21,30.89,-19.22,-6.34,-4.41,20.72,25.5,26.61,0,5.89,0.62
nw_cut_3_0_3f_opt_disp_struct_7.xyz,Nucleus 18H :,1.288305,0.744281,2.258473,28.76,35.06,27.39,23.82,42.09,27.05,32.32,-0.36,-9.39,-5.44,23.82,27.39,35.06,0,11.24,-0.37
nw_cut_3_0_3f_opt_disp_struct_7.xyz,Nucleus 20H :,1.696817,1.190841,3.061224,29.79,35.21,27.82,26.34,39.37,16.98,7.79,-4.41,10.68,18.97,26.34,27.82,35.21,0,8.87,-0.67
nw_cut_3_0_3f_opt_disp_struct_7.xyz,Nucleus 21H :,0.265914,-0.170296,2.325316,30.1,25.53,31.2,33.56,23.47,40.51,33.61,-7.94,-1.92,2.56,25.53,31.2,33.56,0,8.03,0.41
nw_cut_3_0_3f_opt_disp_struct_7.xyz,Nucleus 25H :,-0.004197,-0.59451,1.022038,27.83,34.98,22.03,26.48,33.62,43.17,49.47,-4.04,-20.47,-18.26,22.03,26.48,34.98,0,12.95,-0.31
nw_cut_3_0_3f_opt_disp_struct_7.xyz,Nucleus 26H :,-1.03197,-1.544275,0.834547,27.82,34.89,23.24,25.32,42.12,34.61,30.7,-1.59,-13.69,-8.7,23.24,25.32,34.89,0,11.65,-0.64
nw_cut_3_0_3f_opt_disp_struct_7.xyz,Nucleus 27H :,-1.334582,-1.983963,-0.395338,29.68,34.11,27.94,26.98,38.03,15.98,21.37,-5.17,12.73,6.08,26.98,27.94,34.11,0,7.13,-0.73
nw_cut_3_0_3f_opt_disp_struct_7.xyz,Nucleus 0C :,-1.749556,-2.0418,1.923054,171.13,186.64,160.64,166.12,258.1,238.13,237.21,-77.85,-74.62,-67.58,160.64,166.12,186.64,0,26.0,-0.58
nw_cut_3_0_3f_opt_disp_struct_7.xyz,Nucleus 3C :,-2.53638,-2.772146,1.77502,61.95,148.38,54.12,-16.64,242.44,273.68,264.48,-94.11,-219.49,-281.14,-16.64,54.12,148.38,0,165.02,-0.14
nw_cut_3_0_3f_opt_disp_struct_7.xyz,Nucleus 4C :,-1.449357,-1.595885,3.202332,55.37,-27.68,126.44,67.34,274.27,257.93,257.59,-292.06,-131.47,-200.16,-27.68,67.34,126.44,0,154.12,0.23
nw_cut_3_0_3f_opt_disp_struct_7.xyz,Nucleus 7C :,-2.146016,-2.081671,4.239838,51.12,137.67,-2.7,18.39,273.29,260.78,267.13,-123.21,-275.87,-248.75,-2.7,18.39,137.67,0,140.37,-0.7
nw_cut_3_0_3f_opt_disp_struct_7.xyz,Nucleus 8C :,-0.442694,-0.657054,3.42605,62.01,155.77,30.3,-0.05,237.44,265.73,269.2,-82.18,-235.62,-268.55,-0.05,30.3,155.77,0,155.82,-0.61
nw_cut_3_0_3f_opt_disp_struct_7.xyz,Nucleus 9C :,-0.161232,-0.231632,4.664738,19.16,-52.61,78.6,31.49,235.33,266.41,267.69,-156.8,-235.43,-319.72,-52.61,31.49,78.6,0,131.21,0.28
nw_cut_3_0_3f_opt_disp_struct_7.xyz,Nucleus 11C :,2.468406,1.59812,0.687711,79.48,154.14,14.53,69.78,236.34,264.01,276.47,-82.32,-253.31,-202.74,14.53,69.78,154.14,0,139.61,-0.21
nw_cut_3_0_3f_opt_disp_struct_7.xyz,Nucleus 13C :,0.043715,0.257557,-1.804025,27.01,87.85,18.5,-25.31,233.04,261.01,272.25,-145.2,-252.62,-287.43,-25.31,18.5,87.85,0,113.16,-0.23
nw_cut_3_0_3f_opt_disp_struct_7.xyz,Nucleus 15C :,4.359562,-5.35834,1.732572,38.39,89.13,25.75,0.29,234.55,271.2,266.26,-145.43,-245.33,-266.08,0.29,25.75,89.13,0,88.84,-0.43
nw_cut_3_0_3f_opt_disp_struct_7.xyz,Nucleus 19C :,5.278473,-5.700371,2.211744,163.24,191.29,156.24,142.18,261.03,232.34,239.64,-68.91,-81.8,-92.59,142.18,156.24,191.29,0,49.11,-0.43
nw_cut_3_0_3f_opt_disp_struct_7.xyz,Nucleus 22C :,4.530087,-4.386002,1.260616,2.51,-92.19,94.25,5.46,194.96,251.82,269.83,-100.9,-345.76,-262.42,-92.19,5.46,94.25,0,186.44,0.05
nw_cut_3_0_3f_opt_disp_struct_7.xyz,Nucleus 5N :,3.24585,-5.33942,2.740148,121.3,49.03,185.04,129.84,293.83,337.79,329.92,-109.36,-207.32,-280.97,49.03,129.84,185.04,0,136.01,0.19
nw_cut_3_0_3f_opt_disp_struct_7.xyz,Nucleus 24N :,3.130232,-6.174697,3.628875,146.48,47.83,244.42,147.19,288.84,326.66,344.86,-279.16,-87.01,-154.74,47.83,147.19,244.42,0,196.59,0.01
nw_cut_3_0_3f_opt_disp_struct_7.xyz,Nucleus 23O :,2.343982,-4.329961,2.595235,-116.31,315.33,-242.38,-421.87,332.66,380.11,427.24,-17.96,-623.83,-847.15,-421.87,-242.38,315.33,0,737.2,-0.51
nw_cut_3_0_3f_opt_disp_struct_7.xyz,Nucleus 10F :,2.319839,-3.860746,1.710955,303.81,398.01,223.33,290.09,482.75,458.71,466.6,-68.58,-235.62,-192.42,223.33,290.09,398.01,0,174.68,-0.24
nw_cut_3_0_3f_opt_disp_struct_7.xyz,Nucleus 14F :,1.471818,-4.498963,3.058833,321.71,411.65,296.33,257.15,460.46,475.65,479.2,-63.71,-181.71,-204.76,257.15,296.33,411.65,0,154.5,-0.49
nw_cut_3_0_3f_opt_disp_struct_7.xyz,Nucleus 16F :,4.106726,-6.083826,0.951647,348.02,456.95,301.05,286.06,459.08,468.68,483.64,-11.41,-167.7,-188.22,286.06,301.05,456.95,0,170.89,-0.82
nw_cut_3_0_3f_opt_disp_struct_8.xyz,Nucleus 1H :,0.985827,-0.026268,-1.323171,29.16,35.31,23.52,28.64,41.11,26.19,28.78,-6.95,0.5,-2.16,23.52,28.64,35.31,0,11.79,-0.13
nw_cut_3_0_3f_opt_disp_struct_8.xyz,Nucleus 2H :,1.775162,0.616305,-1.720895,28.83,34.75,24.07,27.68,45.85,25.56,26.96,-12.0,1.68,-1.55,24.07,27.68,34.75,0,10.68,-0.32
nw_cut_3_0_3f_opt_disp_struct_8.xyz,Nucleus 6H :,1.201801,-1.055038,-1.630788,23.73,15.54,25.3,30.34,10.52,30.41,49.53,-19.56,5.26,-4.98,15.54,25.3,30.34,0,14.8,0.32
nw_cut_3_0_3f_opt_disp_struct_8.xyz,Nucleus 12H :,0.900938,0.098278,0.155971,24.52,20.81,25.08,27.66,47.54,16.39,32.0,-22.56,4.54,-4.36,20.81,25.08,27.66,0,6.85,0.25
nw_cut_3_0_3f_opt_disp_struct_8.xyz,Nucleus 17H :,1.676783,0.915114,0.956718,24.28,20.73,25.49,26.63,44.67,27.21,30.9,-19.2,-6.35,-4.39,20.73,25.49,26.63,0,5.9,0.62
nw_cut_3_0_3f_opt_disp_struct_8.xyz,Nucleus 18H :,1.288305,0.744281,2.258473,28.76,35.05,27.41,23.82,42.08,27.02,32.31,-0.31,-9.4,-5.42,23.82,27.41,35.05,0,11.23,-0.36
nw_cut_3_0_3f_opt_disp_struct_8.xyz,Nucleus 20H :,1.696817,1.190841,3.061224,29.78,35.14,27.84,26.35,39.25,16.78,7.1,-4.38,10.88,19.69,26.35,27.84,35.14,0,8.79,-0.66
nw_cut_3_0_3f_opt_disp_struct_8.xyz,Nucleus 21H :,0.265914,-0.170296,2.325316,30.06,25.57,31.04,33.58,23.34,40.8,33.32,-8.27,-1.76,2.76,25.57,31.04,33.58,0,8.01,0.37
nw_cut_3_0_3f_opt_disp_struct_8.xyz,Nucleus 25H :,-0.004197,-0.59451,1.022038,27.69,34.52,22.09,26.46,33.74,44.26,49.28,-4.11,-21.61,-18.47,22.09,26.46,34.52,0,12.43,-0.3
nw_cut_3_0_3f_opt_disp_struct_8.xyz,Nucleus 26H :,-1.03197,-1.544275,0.834547,27.71,34.76,23.27,25.09,42.74,34.32,31.55,-1.85,-14.13,-9.52,23.27,25.09,34.76,0,11.49,-0.68
nw_cut_3_0_3f_opt_disp_struct_8.xyz,Nucleus 27H :,-1.334582,-1.983963,-0.395338,29.66,34.09,27.9,27.0,38.03,15.37,21.23,-5.25,13.35,6.23,27.0,27.9,34.09,0,7.09,-0.74
nw_cut_3_0_3f_opt_disp_struct_8.xyz,Nucleus 0C :,-1.749556,-2.0418,1.923054,171.14,186.66,160.67,166.1,258.07,238.1,237.16,-77.79,-74.58,-67.53,160.67,166.1,186.66,0,25.99,-0.58
nw_cut_3_0_3f_opt_disp_struct_8.xyz,Nucleus 3C :,-2.53638,-2.772146,1.77502,61.92,148.37,54.1,-16.72,242.36,273.5,264.43,-94.04,-219.34,-281.16,-16.72,54.1,148.37,0,165.09,-0.14
nw_cut_3_0_3f_opt_disp_struct_8.xyz,Nucleus 4C :,-1.449357,-1.595885,3.202332,55.44,-27.59,126.39,67.52,274.19,257.87,257.65,-291.97,-131.51,-199.92,-27.59,67.52,126.39,0,153.98,0.24
nw_cut_3_0_3f_opt_disp_struct_8.xyz,Nucleus 7C :,-2.146016,-2.081671,4.239838,51.16,137.6,-2.56,18.45,273.0,260.7,267.08,-123.17,-275.45,-248.66,-2.56,18.45,137.6,0,140.16,-0.7
nw_cut_3_0_3f_opt_disp_struct_8.xyz,Nucleus 8C :,-0.442694,-0.657054,3.42605,61.96,155.66,30.33,-0.12,237.43,265.63,268.9,-82.25,-235.39,-268.45,-0.12,30.33,155.66,0,155.78,-0.61
nw_cut_3_0_3f_opt_disp_struct_8.xyz,Nucleus 9C :,-0.161232,-0.231632,4.664738,19.15,-52.64,78.57,31.52,235.14,266.17,267.43,-156.62,-235.27,-319.39,-52.64,31.52,78.57,0,131.21,0.28
nw_cut_3_0_3f_opt_disp_struct_8.xyz,Nucleus 11C :,2.468406,1.59812,0.687711,79.48,154.04,14.51,69.89,236.28,263.94,276.18,-82.36,-253.1,-202.5,14.51,69.89,154.04,0,139.53,-0.21
nw_cut_3_0_3f_opt_disp_struct_8.xyz,Nucleus 13C :,0.043715,0.257557,-1.804025,26.99,87.75,18.57,-25.34,233.01,260.97,271.93,-145.26,-252.3,-287.37,-25.34,18.57,87.75,0,113.09,-0.22
nw_cut_3_0_3f_opt_disp_struct_8.xyz,Nucleus 15C :,4.526009,-5.543104,1.758214,38.46,89.05,25.94,0.38,234.53,270.92,266.24,-145.49,-244.9,-265.93,0.38,25.94,89.05,0,88.67,-0.42
nw_cut_3_0_3f_opt_disp_struct_8.xyz,Nucleus 19C :,5.444921,-5.885135,2.237387,163.24,191.28,156.18,142.25,261.38,231.89,239.25,-69.21,-81.45,-92.16,142.25,156.18,191.28,0,49.03,-0.43
nw_cut_3_0_3f_opt_disp_struct_8.xyz,Nucleus 22C :,4.696535,-4.570766,1.286259,2.49,-92.33,94.3,5.49,194.27,251.84,269.83,-100.18,-345.81,-262.5,-92.33,5.49,94.3,0,186.63,0.05
nw_cut_3_0_3f_opt_disp_struct_8.xyz,Nucleus 5N :,3.412298,-5.524184,2.765791,121.42,49.22,184.98,130.07,293.87,337.76,329.86,-109.41,-207.08,-280.73,49.22,130.07,184.98,0,135.76,0.19
nw_cut_3_0_3f_opt_disp_struct_8.xyz,Nucleus 24N :,3.29668,-6.35946,3.654518,146.38,47.86,244.17,147.12,288.69,326.96,344.96,-279.24,-86.59,-155.61,47.86,147.12,244.17,0,196.31,0.01
nw_cut_3_0_3f_opt_disp_struct_8.xyz,Nucleus 23O :,2.51043,-4.514725,2.620878,-116.4,315.4,-242.5,-422.11,331.72,380.02,427.31,-16.92,-623.92,-847.42,-422.11,-242.5,315.4,0,737.51,-0.51
nw_cut_3_0_3f_opt_disp_struct_8.xyz,Nucleus 10F :,2.486287,-4.045509,1.736598,303.76,398.0,223.21,290.08,482.73,458.75,466.54,-68.54,-235.74,-192.45,223.21,290.08,398.0,0,174.79,-0.23
nw_cut_3_0_3f_opt_disp_struct_8.xyz,Nucleus 14F :,1.638266,-4.683726,3.084475,321.82,411.83,296.41,257.21,460.57,475.39,479.19,-63.34,-181.66,-204.69,257.21,296.41,411.83,0,154.62,-0.49
nw_cut_3_0_3f_opt_disp_struct_8.xyz,Nucleus 16F :,4.273174,-6.268589,0.97729,348.36,457.25,301.29,286.55,459.25,468.25,483.71,-10.77,-167.37,-187.98,286.55,301.29,457.25,0,170.7,-0.83
nw_cut_3_0_3f_opt_disp_struct_9.xyz,Nucleus 1H :,0.985827,-0.026268,-1.323171,29.16,35.3,23.53,28.66,41.06,26.2,28.82,-6.9,0.49,-2.18,23.53,28.66,35.3,0,11.77,-0.13
nw_cut_3_0_3f_opt_disp_struct_9.xyz,Nucleus 2H :,1.775162,0.616305,-1.720895,28.84,34.78,24.06,27.67,45.82,25.54,26.94,-11.94,1.73,-1.57,24.06,27.67,34.78,0,10.72,-0.33
nw_cut_3_0_3f_opt_disp_struct_9.xyz,Nucleus 6H :,1.201801,-1.055038,-1.630788,23.74,15.54,25.32,30.36,10.56,30.45,49.48,-19.48,5.2,-4.99,15.54,25.32,30.36,0,14.82,0.32
nw_cut_3_0_3f_opt_disp_struct_9.xyz,Nucleus 12H :,0.900938,0.098278,0.155971,24.51,20.79,25.07,27.66,47.44,16.36,31.9,-22.45,4.54,-4.26,20.79,25.07,27.66,0,6.87,0.24
nw_cut_3_0_3f_opt_disp_struct_9.xyz,Nucleus 17H :,1.676783,0.915114,0.956718,24.29,20.73,25.49,26.64,44.65,27.22,30.9,-19.17,-6.35,-4.38,20.73,25.49,26.64,0,5.91,0.61
nw_cut_3_0_3f_opt_disp_struct_9.xyz,Nucleus 18H :,1.288305,0.744281,2.258473,28.76,35.04,27.41,23.84,42.06,26.99,32.33,-0.27,-9.41,-5.41,23.84,27.41,35.04,0,11.2,-0.36
nw_cut_3_0_3f_opt_disp_struct_9.xyz,Nucleus 20H :,1.696817,1.190841,3.061224,29.75,35.08,27.84,26.34,39.15,16.58,6.39,-4.36,11.1,20.4,26.34,27.84,35.08,0,8.74,-0.66
nw_cut_3_0_3f_opt_disp_struct_9.xyz,Nucleus 21H :,0.265914,-0.170296,2.325316,30.03,25.59,30.91,33.58,41.08,33.05,23.15,-8.59,-1.61,3.0,25.59,30.91,33.58,0,7.99,0.33
nw_cut_3_0_3f_opt_disp_struct_9.xyz,Nucleus 25H :,-0.004197,-0.59451,1.022038,27.6,34.14,22.17,26.48,33.77,45.26,49.25,-4.13,-18.69,-22.67,22.17,26.48,34.14,0,11.97,-0.28
nw_cut_3_0_3f_opt_disp_struct_9.xyz,Nucleus 26H :,-1.03197,-1.544275,0.834547,27.64,34.68,23.37,24.88,43.3,34.39,32.16,-2.04,-14.58,-10.3,23.37,24.88,34.68,0,11.31,-0.73
nw_cut_3_0_3f_opt_disp_struct_9.xyz,Nucleus 27H :,-1.334582,-1.983963,-0.395338,29.64,34.06,27.85,27.01,38.03,14.75,21.08,-5.32,13.97,6.39,27.01,27.85,34.06,0,7.05,-0.76
nw_cut_3_0_3f_opt_disp_struct_9.xyz,Nucleus 0C :,-1.749556,-2.0418,1.923054,171.14,186.66,160.66,166.09,258.04,238.07,237.08,-77.73,-74.54,-67.5,160.66,166.09,186.66,0,26.0,-0.58
nw_cut_3_0_3f_opt_disp_struct_9.xyz,Nucleus 3C :,-2.53638,-2.772146,1.77502,61.86,148.33,54.01,-16.76,242.3,273.25,264.42,-94.01,-219.2,-281.18,-16.76,54.01,148.33,0,165.09,-0.14
nw_cut_3_0_3f_opt_disp_struct_9.xyz,Nucleus 4C :,-1.449357,-1.595885,3.202332,55.49,-27.52,126.38,67.61,274.07,257.6,257.98,-291.91,-131.53,-199.73,-27.52,67.61,126.38,0,153.9,0.24
nw_cut_3_0_3f_opt_disp_struct_9.xyz,Nucleus 7C :,-2.146016,-2.081671,4.239838,51.18,137.53,-2.55,18.55,260.62,272.64,267.12,-123.15,-275.08,-248.62,-2.55,18.55,137.53,0,140.08,-0.7
nw_cut_3_0_3f_opt_disp_struct_9.xyz,Nucleus 8C :,-0.442694,-0.657054,3.42605,61.91,155.63,30.24,-0.13,237.54,265.46,268.58,-82.32,-235.17,-268.36,-0.13,30.24,155.63,0,155.76,-0.61
nw_cut_3_0_3f_opt_disp_struct_9.xyz,Nucleus 9C :,-0.161232,-0.231632,4.664738,19.05,-52.81,78.46,31.49,234.9,265.89,267.06,-156.47,-235.14,-319.1,-52.81,31.49,78.46,0,131.27,0.28
nw_cut_3_0_3f_opt_disp_struct_9.xyz,Nucleus 11C :,2.468406,1.59812,0.687711,79.44,153.98,14.5,69.84,236.25,263.94,275.77,-82.38,-252.93,-202.32,14.5,69.84,153.98,0,139.48,-0.21
nw_cut_3_0_3f_opt_disp_struct_9.xyz,Nucleus 13C :,0.043715,0.257557,-1.804025,26.96,87.69,18.58,-25.38,232.98,260.94,271.56,-145.28,-251.99,-287.31,-25.38,18.58,87.69,0,113.07,-0.22
nw_cut_3_0_3f_opt_disp_struct_9.xyz,Nucleus 15C :,4.692457,-5.727867,1.783857,38.48,88.98,25.95,0.5,234.53,270.55,266.29,-145.56,-244.54,-265.83,0.5,25.95,88.98,0,88.48,-0.42
nw_cut_3_0_3f_opt_disp_struct_9.xyz,Nucleus 19C :,5.611368,-6.069898,2.263029,163.18,191.25,156.07,142.22,261.74,231.34,238.82,-69.51,-81.13,-91.72,142.22,156.07,191.25,0,49.03,-0.44
nw_cut_3_0_3f_opt_disp_struct_9.xyz,Nucleus 22C :,4.862983,-4.75553,1.311902,2.46,-92.44,94.32,5.49,193.54,251.86,269.87,-99.45,-345.84,-262.62,-92.44,5.49,94.32,0,186.76,0.05
nw_cut_3_0_3f_opt_disp_struct_9.xyz,Nucleus 5N :,3.578745,-5.708947,2.791433,121.56,49.46,184.98,130.23,293.93,337.69,329.83,-109.38,-206.86,-280.53,49.46,130.23,184.98,0,135.52,0.19
nw_cut_3_0_3f_opt_disp_struct_9.xyz,Nucleus 24N :,3.463127,-6.544224,3.680161,146.37,48.02,243.95,147.15,288.76,327.27,345.0,-279.26,-86.17,-156.48,48.02,147.15,243.95,0,195.93,0.01
nw_cut_3_0_3f_opt_disp_struct_9.xyz,Nucleus 23O :,2.676877,-4.699488,2.64652,-116.44,315.34,-242.53,-422.12,330.84,379.89,427.4,-16.04,-623.9,-847.5,-422.12,-242.53,315.34,0,737.46,-0.51
nw_cut_3_0_3f_opt_disp_struct_9.xyz,Nucleus 10F :,2.652735,-4.230273,1.762241,303.8,397.98,223.23,290.19,482.79,458.86,466.49,-68.5,-235.79,-192.44,223.23,290.19,397.98,0,174.75,-0.23
nw_cut_3_0_3f_opt_disp_struct_9.xyz,Nucleus 14F :,1.804714,-4.86849,3.110118,321.89,411.73,296.56,257.38,460.79,474.85,479.24,-63.02,-181.6,-204.6,257.38,296.56,411.73,0,154.35,-0.49
nw_cut_3_0_3f_opt_disp_struct_9.xyz,Nucleus 16F :,4.439622,-6.453353,1.002933,348.54,457.04,301.65,286.92,483.96,467.36,459.49,-10.22,-167.17,-187.82,286.92,301.65,457.04,0,170.12,-0.83
nw_cut_3_0_4f_opt.xyz,Nucleus 1H :,0.992927,-0.019378,-1.324582,29.09,35.46,23.38,28.42,41.3,25.23,28.14,-6.96,1.59,-2.04,23.38,28.42,35.46,0,12.08,-0.17
nw_cut_3_0_4f_opt.xyz,Nucleus 2H :,1.782855,0.623316,-1.720717,28.77,34.5,23.95,27.87,45.7,24.07,27.36,-12.17,1.79,-0.43,23.95,27.87,34.5,0,10.55,-0.26
nw_cut_3_0_4f_opt.xyz,Nucleus 6H :,1.209351,-1.047789,-1.63274,23.55,15.3,24.97,30.39,9.28,30.01,49.4,-19.55,6.41,-4.9,15.3,24.97,30.39,0,15.09,0.28
nw_cut_3_0_4f_opt.xyz,Nucleus 17H :,0.907907,0.105083,0.155016,24.13,20.46,25.51,26.41,44.29,26.51,30.04,-18.78,-5.84,-3.84,20.46,25.51,26.41,0,5.95,0.7
nw_cut_3_0_4f_opt.xyz,Nucleus 18H :,1.683949,0.921938,0.955162,28.72,35.17,27.36,23.62,41.81,27.02,32.18,-0.21,-9.23,-5.42,23.62,27.36,35.17,0,11.55,-0.35
nw_cut_3_0_4f_opt.xyz,Nucleus 20H :,1.296802,0.752259,2.257238,30.17,36.24,27.82,26.44,41.17,18.51,13.2,-5.06,9.16,13.52,26.44,27.82,36.24,0,9.8,-0.72
nw_cut_3_0_4f_opt.xyz,Nucleus 21H :,1.707274,1.199018,3.058867,30.69,25.12,32.37,34.58,23.07,37.04,38.82,-6.08,-3.37,2.6,25.12,32.37,34.58,0,9.46,0.53
nw_cut_3_0_4f_opt.xyz,Nucleus 25H :,0.273993,-0.162561,2.325043,27.78,43.88,16.46,23.0,57.82,26.17,27.56,1.52,-9.84,-19.88,16.46,23.0,43.88,0,27.42,-0.52
nw_cut_3_0_4f_opt.xyz,Nucleus 26H :,0.003195,-0.587277,1.021738,27.6,39.98,24.02,18.81,48.58,33.55,25.1,-2.09,-9.44,-12.9,18.81,24.02,39.98,0,21.17,-0.51
nw_cut_3_0_4f_opt.xyz,Nucleus 27H :,-1.023864,-1.536495,0.833496,29.97,34.58,28.47,26.87,38.46,21.08,22.6,-4.64,4.71,7.72,26.87,28.47,34.58,0,7.71,-0.58
nw_cut_3_0_4f_opt.xyz,Nucleus 0C :,-1.324552,-1.974523,-0.398096,171.29,186.9,160.73,166.24,258.9,236.57,238.31,-67.69,-74.01,-78.21,160.73,166.24,186.9,0,26.17,-0.58
nw_cut_3_0_4f_opt.xyz,Nucleus 3C :,-1.732483,-2.024771,1.932067,62.24,147.6,54.52,-15.41,241.46,272.3,265.01,-93.92,-217.74,-280.41,-15.41,54.52,147.6,0,163.01,-0.14
nw_cut_3_0_4f_opt.xyz,Nucleus 4C :,-2.706166,-2.928344,1.744399,53.21,-30.05,127.23,62.46,274.51,256.23,258.56,-294.5,-131.04,-204.13,-30.05,62.46,127.23,0,157.28,0.18
nw_cut_3_0_4f_opt.xyz,Nucleus 7C :,-1.43964,-1.585278,3.213607,51.54,139.31,-6.77,22.07,275.16,269.15,262.63,-125.49,-281.82,-245.02,-6.77,22.07,139.31,0,146.08,-0.61
nw_cut_3_0_4f_opt.xyz,Nucleus 8C :,-2.131139,-2.065707,4.257766,61.24,160.66,22.68,0.37,235.31,260.7,268.45,-75.28,-237.97,-267.51,0.37,22.68,160.66,0,160.29,-0.72
nw_cut_3_0_4f_opt.xyz,Nucleus 9C :,-0.433125,-0.647751,3.42838,28.41,84.35,19.7,-18.81,239.25,268.22,273.21,-155.8,-247.76,-291.87,-18.81,19.7,84.35,0,103.16,-0.25
nw_cut_3_0_4f_opt.xyz,Nucleus 11C :,-0.146691,-0.21831,4.664467,35.25,95.43,17.7,-7.39,241.59,263.59,275.93,-146.69,-246.27,-282.41,-7.39,17.7,95.43,0,102.82,-0.51
nw_cut_3_0_4f_opt.xyz,Nucleus 13C :,2.475455,1.60431,0.684336,35.32,95.73,14.28,-4.06,237.93,263.15,280.23,-142.44,-255.53,-277.39,-4.06,14.28,95.73,0,99.79,-0.63
nw_cut_3_0_4f_opt.xyz,Nucleus 15C :,0.051589,0.265611,-1.80606,33.58,90.47,17.23,-6.95,234.96,276.57,264.17,-144.59,-257.21,-273.16,-6.95,17.23,90.47,0,97.42,-0.5
nw_cut_3_0_4f_opt.xyz,Nucleus 19C :,3.028148,-3.879618,1.527175,163.87,191.75,157.88,141.99,258.42,235.43,243.69,-65.9,-85.13,-94.9,141.99,157.88,191.75,0,49.76,-0.36
nw_cut_3_0_4f_opt.xyz,Nucleus 22C :,3.946878,-4.220899,2.007093,2.87,-88.75,94.62,2.74,201.76,251.61,270.8,-107.2,-343.7,-264.67,-88.75,2.74,94.62,0,183.37,-0.0
nw_cut_3_0_4f_opt.xyz,Nucleus 5N :,3.198278,-2.907507,1.054645,118.5,43.1,184.74,127.66,292.75,338.92,329.31,-108.68,-209.69,-287.11,43.1,127.66,184.74,0,141.64,0.19
nw_cut_3_0_4f_opt.xyz,Nucleus 24N :,1.914482,-3.860801,2.534804,138.3,22.68,234.33,157.89,289.97,331.93,348.7,-306.26,-112.03,-137.42,22.68,157.89,234.33,0,211.65,0.28
nw_cut_3_0_4f_opt.xyz,Nucleus 23O :,1.798979,-4.696094,3.423531,-108.34,316.49,-232.83,-408.68,343.16,382.16,427.04,-27.59,-615.93,-833.86,-408.68,-232.83,316.49,0,725.17,-0.52
nw_cut_3_0_4f_opt.xyz,Nucleus 10F :,1.012521,-2.851419,2.389941,325.92,442.72,255.13,279.9,477.25,456.08,465.5,-20.96,-207.95,-192.16,255.13,279.9,442.72,0,187.59,-0.74
nw_cut_3_0_4f_opt.xyz,Nucleus 12F :,0.9782,-2.390711,1.501647,343.56,448.86,285.5,296.31,457.8,473.32,479.19,-24.58,-192.46,-162.6,285.5,296.31,448.86,0,163.36,-0.87
nw_cut_3_0_4f_opt.xyz,Nucleus 14F :,0.148906,-3.023617,2.868025,340.52,452.57,287.78,281.21,460.45,475.48,481.76,-28.72,-173.43,-193.99,281.21,287.78,452.57,0,171.36,-0.92
nw_cut_3_0_4f_opt.xyz,Nucleus 16F :,2.77599,-4.606065,0.746918,334.98,446.04,271.81,287.09,457.21,487.4,476.38,-40.95,-183.88,-191.21,271.81,287.09,446.04,0,174.23,-0.82
nw_cut_3_0_4f_opt_disp_struct_0.xyz,Nucleus 1H :,0.992927,-0.019378,-1.324582,29.09,35.45,23.4,28.43,41.38,25.42,28.37,-7.04,1.22,-2.07,23.4,28.43,35.45,0,12.05,-0.16
nw_cut_3_0_4f_opt_disp_struct_0.xyz,Nucleus 2H :,1.782855,0.623316,-1.720717,28.79,34.51,23.97,27.88,45.83,24.67,27.27,-12.22,1.42,-0.61,23.97,27.88,34.51,0,10.54,-0.26
nw_cut_3_0_4f_opt_disp_struct_0.xyz,Nucleus 6H :,1.209351,-1.047789,-1.63274,23.63,15.35,25.07,30.46,9.49,29.97,49.8,-19.87,6.25,-4.77,15.35,25.07,30.46,0,15.11,0.29
nw_cut_3_0_4f_opt_disp_struct_0.xyz,Nucleus 17H :,0.907907,0.105083,0.155016,24.16,20.52,25.53,26.42,44.46,26.59,30.36,-18.93,-5.86,-4.15,20.52,25.53,26.42,0,5.9,0.7
nw_cut_3_0_4f_opt_disp_struct_0.xyz,Nucleus 18H :,1.683949,0.921938,0.955162,28.72,35.16,27.37,23.64,41.88,27.25,32.21,-0.47,-9.15,-5.54,23.64,27.37,35.16,0,11.52,-0.35
nw_cut_3_0_4f_opt_disp_struct_0.xyz,Nucleus 20H :,1.296802,0.752259,2.257238,30.08,36.05,27.79,26.39,40.86,18.26,12.46,-4.95,9.36,14.24,26.39,27.79,36.05,0,9.66,-0.71
nw_cut_3_0_4f_opt_disp_struct_0.xyz,Nucleus 21H :,1.707274,1.199018,3.058867,30.56,25.13,32.38,34.16,23.58,36.58,38.87,-6.26,-3.21,2.09,25.13,32.38,34.16,0,9.03,0.6
nw_cut_3_0_4f_opt_disp_struct_0.xyz,Nucleus 25H :,0.273993,-0.162561,2.325043,28.59,41.9,18.98,24.88,55.87,29.62,31.68,-0.92,-11.71,-18.8,18.98,24.88,41.9,0,22.92,-0.49
nw_cut_3_0_4f_opt_disp_struct_0.xyz,Nucleus 26H :,0.003195,-0.587277,1.021738,28.34,38.36,25.75,20.9,44.74,35.63,23.54,-0.18,-6.58,-12.13,20.9,25.75,38.36,0,17.46,-0.45
nw_cut_3_0_4f_opt_disp_struct_0.xyz,Nucleus 27H :,-1.023864,-1.536495,0.833496,29.9,34.48,28.37,26.84,38.44,20.41,22.42,-4.8,4.87,8.36,26.84,28.37,34.48,0,7.64,-0.6
nw_cut_3_0_4f_opt_disp_struct_0.xyz,Nucleus 0C :,-1.324552,-1.974523,-0.398096,171.26,186.83,160.73,166.22,258.87,237.02,238.22,-67.55,-74.33,-78.44,160.73,166.22,186.83,0,26.1,-0.58
nw_cut_3_0_4f_opt_disp_struct_0.xyz,Nucleus 3C :,-1.732483,-2.024771,1.932067,62.29,147.69,54.89,-15.71,241.24,272.94,265.06,-93.59,-218.05,-280.72,-15.71,54.89,147.69,0,163.4,-0.14
nw_cut_3_0_4f_opt_disp_struct_0.xyz,Nucleus 4C :,-2.706166,-2.928344,1.744399,53.3,-30.09,127.19,62.8,274.56,256.56,258.37,-294.49,-130.77,-204.33,-30.09,62.8,127.19,0,157.28,0.18
nw_cut_3_0_4f_opt_disp_struct_0.xyz,Nucleus 7C :,-1.43964,-1.585278,3.213607,53.48,139.37,-3.1,24.18,276.1,269.26,262.49,-125.2,-279.06,-243.14,-3.1,24.18,139.37,0,142.47,-0.62
nw_cut_3_0_4f_opt_disp_struct_0.xyz,Nucleus 8C :,-2.131139,-2.065707,4.257766,62.71,160.46,25.08,2.59,236.17,261.76,269.98,-76.03,-237.34,-266.41,2.59,25.08,160.46,0,157.87,-0.72
nw_cut_3_0_4f_opt_disp_struct_0.xyz,Nucleus 9C :,-0.433125,-0.647751,3.42838,29.5,84.34,20.05,-15.89,240.16,268.6,273.83,-156.09,-248.38,-289.62,-15.89,20.05,84.34,0,100.23,-0.28
nw_cut_3_0_4f_opt_disp_struct_0.xyz,Nucleus 11C :,-0.146691,-0.21831,4.664467,36.47,95.49,18.87,-4.96,240.99,264.24,275.39,-145.79,-245.56,-279.88,-4.96,18.87,95.49,0,100.45,-0.53
nw_cut_3_0_4f_opt_disp_struct_0.xyz,Nucleus 13C :,2.475455,1.60431,0.684336,35.96,95.64,14.83,-2.59,237.72,263.81,277.66,-142.33,-253.68,-275.28,-2.59,14.83,95.64,0,98.23,-0.65
nw_cut_3_0_4f_opt_disp_struct_0.xyz,Nucleus 15C :,0.051589,0.265611,-1.80606,35.35,90.59,18.35,-2.89,234.62,275.44,264.97,-144.13,-255.38,-269.48,-2.89,18.35,90.59,0,93.48,-0.55
nw_cut_3_0_4f_opt_disp_struct_0.xyz,Nucleus 19C :,3.194604,-4.064376,1.552798,163.74,191.69,157.44,142.09,258.73,235.54,243.1,-66.31,-84.82,-95.01,142.09,157.44,191.69,0,49.6,-0.38
nw_cut_3_0_4f_opt_disp_struct_0.xyz,Nucleus 22C :,4.113334,-4.405657,2.032716,2.59,-90.11,94.36,3.52,200.53,251.97,270.45,-106.24,-345.04,-263.89,-90.11,3.52,94.36,0,184.47,0.02
nw_cut_3_0_4f_opt_disp_struct_0.xyz,Nucleus 5N :,3.364735,-3.092266,1.080268,119.73,45.35,184.8,129.04,292.65,339.15,329.68,-108.73,-208.37,-285.19,45.35,129.04,184.8,0,139.45,0.2
nw_cut_3_0_4f_opt_disp_struct_0.xyz,Nucleus 24N :,2.080939,-4.04556,2.560427,143.28,35.18,241.64,153.03,289.38,329.91,346.54,-292.71,-101.12,-142.15,35.18,153.03,241.64,0,206.46,0.14
nw_cut_3_0_4f_opt_disp_struct_0.xyz,Nucleus 23O :,1.965435,-4.880853,3.449153,-112.77,315.67,-238.21,-415.77,341.79,381.51,426.85,-26.96,-620.67,-840.85,-415.77,-238.21,315.67,0,731.44,-0.51
nw_cut_3_0_4f_opt_disp_struct_0.xyz,Nucleus 10F :,1.178977,-3.036178,2.415564,327.63,443.1,258.43,281.35,477.94,456.74,465.44,-20.92,-205.97,-190.36,258.43,281.35,443.1,0,184.67,-0.75
nw_cut_3_0_4f_opt_disp_struct_0.xyz,Nucleus 12F :,1.144656,-2.57547,1.52727,345.55,449.28,287.82,299.56,457.91,472.56,479.57,-23.51,-190.74,-159.14,287.82,299.56,449.28,0,161.46,-0.85
nw_cut_3_0_4f_opt_disp_struct_0.xyz,Nucleus 14F :,0.315363,-3.208375,2.893648,342.3,452.88,291.06,282.96,460.69,475.92,481.18,-27.91,-170.35,-192.62,282.96,291.06,452.88,0,169.92,-0.9
nw_cut_3_0_4f_opt_disp_struct_0.xyz,Nucleus 16F :,2.942447,-4.790824,0.772541,337.88,446.32,277.62,289.69,457.6,486.44,477.09,-39.9,-178.72,-188.89,277.62,289.69,446.32,0,168.7,-0.86
nw_cut_3_0_4f_opt_disp_struct_1.xyz,Nucleus 1H :,0.992927,-0.019378,-1.324582,29.1,35.43,23.42,28.45,41.41,25.58,28.46,-7.1,1.01,-2.05,23.42,28.45,35.43,0,12.01,-0.16
nw_cut_3_0_4f_opt_disp_struct_1.xyz,Nucleus 2H :,1.782855,0.623316,-1.720717,28.8,34.53,23.99,27.87,45.85,25.08,27.18,-12.2,1.28,-0.79,23.99,27.87,34.53,0,10.54,-0.26
nw_cut_3_0_4f_opt_disp_struct_1.xyz,Nucleus 6H :,1.209351,-1.047789,-1.63274,23.67,15.39,25.14,30.48,9.63,29.99,49.97,-20.01,6.15,-4.72,15.39,25.14,30.48,0,15.09,0.29
nw_cut_3_0_4f_opt_disp_struct_1.xyz,Nucleus 17H :,0.907907,0.105083,0.155016,24.17,20.55,25.53,26.44,44.56,26.68,30.49,-19.04,-5.92,-4.25,20.55,25.53,26.44,0,5.89,0.69
nw_cut_3_0_4f_opt_disp_struct_1.xyz,Nucleus 18H :,1.683949,0.921938,0.955162,28.73,35.14,27.37,23.67,41.93,27.34,32.2,-0.61,-9.12,-5.56,23.67,27.37,35.14,0,11.47,-0.36
nw_cut_3_0_4f_opt_disp_struct_1.xyz,Nucleus 20H :,1.296802,0.752259,2.257238,30.0,35.88,27.77,26.36,40.58,18.02,11.73,-4.85,9.58,14.96,26.36,27.77,35.88,0,9.52,-0.7
nw_cut_3_0_4f_opt_disp_struct_1.xyz,Nucleus 21H :,1.707274,1.199018,3.058867,30.45,25.19,32.3,33.87,23.8,36.09,39.02,-6.41,-3.04,1.9,25.19,32.3,33.87,0,8.68,0.64
nw_cut_3_0_4f_opt_disp_struct_1.xyz,Nucleus 25H :,0.273993,-0.162561,2.325043,28.78,40.24,20.32,25.78,54.29,31.27,34.16,-2.3,-12.87,-18.2,20.32,25.78,40.24,0,19.92,-0.45
nw_cut_3_0_4f_opt_disp_struct_1.xyz,Nucleus 26H :,0.003195,-0.587277,1.021738,28.53,37.21,26.41,21.97,41.94,36.81,23.76,0.41,-5.5,-11.83,21.97,26.41,37.21,0,15.24,-0.42
nw_cut_3_0_4f_opt_disp_struct_1.xyz,Nucleus 27H :,-1.023864,-1.536495,0.833496,29.84,34.39,28.29,26.84,38.36,19.76,22.24,-4.88,5.06,8.99,26.84,28.29,34.39,0,7.55,-0.62
nw_cut_3_0_4f_opt_disp_struct_1.xyz,Nucleus 0C :,-1.324552,-1.974523,-0.398096,171.25,186.79,160.75,166.2,258.74,237.32,238.09,-67.48,-74.55,-78.39,160.75,166.2,186.79,0,26.04,-0.58
nw_cut_3_0_4f_opt_disp_struct_1.xyz,Nucleus 3C :,-1.732483,-2.024771,1.932067,62.26,147.74,55.01,-15.96,241.17,273.24,264.98,-93.46,-218.22,-280.93,-15.96,55.01,147.74,0,163.7,-0.13
nw_cut_3_0_4f_opt_disp_struct_1.xyz,Nucleus 4C :,-2.706166,-2.928344,1.744399,53.48,-29.92,127.16,63.21,274.45,256.83,258.07,-294.23,-130.54,-204.12,-29.92,63.21,127.16,0,157.08,0.19
nw_cut_3_0_4f_opt_disp_struct_1.xyz,Nucleus 7C :,-1.43964,-1.585278,3.213607,54.61,139.27,-0.93,25.49,276.53,269.12,262.24,-124.97,-277.25,-241.85,-0.93,25.49,139.27,0,140.2,-0.62
nw_cut_3_0_4f_opt_disp_struct_1.xyz,Nucleus 8C :,-2.131139,-2.065707,4.257766,63.37,160.23,26.3,3.59,236.78,262.51,270.63,-76.81,-237.31,-265.68,3.59,26.3,160.23,0,156.64,-0.71
nw_cut_3_0_4f_opt_disp_struct_1.xyz,Nucleus 9C :,-0.433125,-0.647751,3.42838,29.98,84.2,20.34,-14.59,240.34,269.27,273.79,-156.18,-248.93,-288.34,-14.59,20.34,84.2,0,98.79,-0.29
nw_cut_3_0_4f_opt_disp_struct_1.xyz,Nucleus 11C :,-0.146691,-0.21831,4.664467,37.08,95.38,19.62,-3.76,240.42,264.62,275.28,-145.18,-245.32,-278.59,-3.76,19.62,95.38,0,99.14,-0.53
nw_cut_3_0_4f_opt_disp_struct_1.xyz,Nucleus 13C :,2.475455,1.60431,0.684336,36.29,95.45,15.31,-1.88,237.32,264.16,275.98,-142.13,-252.67,-273.77,-1.88,15.31,95.45,0,97.33,-0.65
nw_cut_3_0_4f_opt_disp_struct_1.xyz,Nucleus 15C :,0.051589,0.265611,-1.80606,36.43,90.53,19.43,-0.66,234.13,274.44,265.33,-143.69,-253.67,-267.24,-0.66,19.43,90.53,0,91.19,-0.56
nw_cut_3_0_4f_opt_disp_struct_1.xyz,Nucleus 19C :,3.361061,-4.249135,1.57842,163.63,191.62,157.13,142.14,259.02,235.27,242.51,-66.7,-84.4,-94.81,142.14,157.13,191.62,0,49.48,-0.39
nw_cut_3_0_4f_opt_disp_struct_1.xyz,Nucleus 22C :,4.27979,-4.590416,2.058338,2.53,-90.83,94.24,4.18,199.42,252.21,270.38,-105.27,-345.65,-263.51,-90.83,4.18,94.24,0,185.07,0.03
nw_cut_3_0_4f_opt_disp_struct_1.xyz,Nucleus 5N :,3.531191,-3.277025,1.10589,120.55,46.84,184.81,130.01,292.46,339.3,329.78,-108.66,-283.78,-207.44,46.84,130.01,184.81,0,137.97,0.21
nw_cut_3_0_4f_opt_disp_struct_1.xyz,Nucleus 24N :,2.247395,-4.230319,2.586049,145.64,41.78,244.76,150.37,288.22,327.47,345.52,-284.79,-95.09,-144.41,41.78,150.37,244.76,0,202.98,0.07
nw_cut_3_0_4f_opt_disp_struct_1.xyz,Nucleus 23O :,2.131891,-5.065612,3.474776,-115.07,315.1,-240.89,-419.43,340.74,381.05,426.72,-26.42,-622.9,-844.41,-419.43,-240.89,315.1,0,734.53,-0.51
nw_cut_3_0_4f_opt_disp_struct_1.xyz,Nucleus 10F :,1.345433,-3.220937,2.441186,328.56,443.33,260.04,282.3,478.54,457.18,465.31,-21.0,-205.29,-189.07,260.04,282.3,443.33,0,183.29,-0.76
nw_cut_3_0_4f_opt_disp_struct_1.xyz,Nucleus 12F :,1.311112,-2.760228,1.552892,346.82,449.51,289.22,301.72,479.77,472.09,458.0,-22.9,-189.59,-156.91,289.22,301.72,449.51,0,160.29,-0.84
nw_cut_3_0_4f_opt_disp_struct_1.xyz,Nucleus 14F :,0.481819,-3.393134,2.91927,343.27,453.06,292.71,284.03,460.71,476.04,480.88,-27.31,-168.74,-191.79,284.03,292.71,453.06,0,169.03,-0.9
nw_cut_3_0_4f_opt_disp_struct_1.xyz,Nucleus 16F :,3.108903,-4.975583,0.798163,339.76,446.45,281.43,291.4,457.95,485.76,477.61,-39.15,-175.15,-187.73,281.43,291.4,446.45,0,165.02,-0.88
nw_cut_3_0_4f_opt_disp_struct_10.xyz,Nucleus 1H :,0.992927,-0.019378,-1.324582,29.16,35.35,23.51,28.62,41.09,25.83,28.52,-6.77,0.76,-1.95,23.51,28.62,35.35,0,11.84,-0.14
nw_cut_3_0_4f_opt_disp_struct_10.xyz,Nucleus 2H :,1.782855,0.623316,-1.720717,28.83,34.76,24.01,27.71,45.46,25.39,26.59,-11.55,1.77,-1.19,24.01,27.71,34.76,0,10.75,-0.31
nw_cut_3_0_4f_opt_disp_struct_10.xyz,Nucleus 6H :,1.209351,-1.047789,-1.63274,23.8,15.47,25.36,30.57,10.14,30.49,49.61,-19.48,5.56,-4.91,15.47,25.36,30.57,0,15.1,0.31
nw_cut_3_0_4f_opt_disp_struct_10.xyz,Nucleus 17H :,0.907907,0.105083,0.155016,24.26,20.67,25.51,26.6,44.6,26.86,30.44,-19.08,-6.08,-3.96,20.67,25.51,26.6,0,5.93,0.63
nw_cut_3_0_4f_opt_disp_struct_10.xyz,Nucleus 18H :,1.683949,0.921938,0.955162,28.76,35.0,27.46,23.81,41.74,32.01,26.92,-0.22,-8.93,-5.25,23.81,27.46,35.0,0,11.19,-0.35
nw_cut_3_0_4f_opt_disp_struct_10.xyz,Nucleus 20H :,1.296802,0.752259,2.257238,29.73,35.03,27.85,26.32,39.08,16.38,5.65,-4.35,11.3,21.15,26.32,27.85,35.03,0,8.71,-0.65
nw_cut_3_0_4f_opt_disp_struct_10.xyz,Nucleus 21H :,1.707274,1.199018,3.058867,30.0,25.61,30.8,33.59,41.39,32.81,22.9,-8.95,-1.45,3.3,25.61,30.8,33.59,0,7.98,0.3
nw_cut_3_0_4f_opt_disp_struct_10.xyz,Nucleus 25H :,0.273993,-0.162561,2.325043,27.49,33.79,22.23,26.44,33.91,45.54,49.4,-4.3,-18.83,-23.27,22.23,26.44,33.79,0,11.56,-0.27
nw_cut_3_0_4f_opt_disp_struct_10.xyz,Nucleus 26H :,0.003195,-0.587277,1.021738,27.54,34.52,23.39,24.7,43.72,34.91,32.44,-2.53,-14.87,-11.07,23.39,24.7,34.52,0,11.13,-0.77
nw_cut_3_0_4f_opt_disp_struct_10.xyz,Nucleus 27H :,-1.023864,-1.536495,0.833496,29.62,34.04,27.81,27.0,38.01,14.13,20.84,-5.35,14.61,6.62,27.0,27.81,34.04,0,7.04,-0.77
nw_cut_3_0_4f_opt_disp_struct_10.xyz,Nucleus 0C :,-1.324552,-1.974523,-0.398096,171.22,186.74,160.87,166.05,257.95,237.41,236.96,-77.23,-74.16,-67.27,160.87,166.05,186.74,0,25.87,-0.6
nw_cut_3_0_4f_opt_disp_struct_10.xyz,Nucleus 3C :,-1.732483,-2.024771,1.932067,61.68,147.58,54.52,-17.05,240.36,271.54,264.2,-92.81,-216.97,-281.26,-17.05,54.52,147.58,0,164.63,-0.13
nw_cut_3_0_4f_opt_disp_struct_10.xyz,Nucleus 4C :,-2.706166,-2.928344,1.744399,54.45,-28.79,126.96,65.18,273.29,256.91,257.95,-292.86,-130.47,-201.47,-28.79,65.18,126.96,0,155.75,0.21
nw_cut_3_0_4f_opt_disp_struct_10.xyz,Nucleus 7C :,-1.43964,-1.585278,3.213607,56.11,138.39,2.22,27.72,274.14,261.77,266.27,-123.43,-271.79,-238.65,2.22,27.72,138.39,0,136.17,-0.63
nw_cut_3_0_4f_opt_disp_struct_10.xyz,Nucleus 8C :,-2.131139,-2.065707,4.257766,63.08,159.11,26.71,3.43,236.4,262.92,268.49,-77.61,-236.85,-264.1,3.43,26.71,159.11,0,155.68,-0.7
nw_cut_3_0_4f_opt_disp_struct_10.xyz,Nucleus 9C :,-0.433125,-0.647751,3.42838,29.64,83.17,20.52,-14.76,237.6,268.68,270.02,-154.44,-248.19,-284.74,-14.76,20.52,83.17,0,97.93,-0.28
nw_cut_3_0_4f_opt_disp_struct_10.xyz,Nucleus 11C :,-0.146691,-0.21831,4.664467,37.36,94.48,20.39,-2.79,239.89,264.24,272.91,-145.44,-244.51,-275.01,-2.79,20.39,94.48,0,97.27,-0.52
nw_cut_3_0_4f_opt_disp_struct_10.xyz,Nucleus 13C :,2.475455,1.60431,0.684336,36.21,94.45,15.6,-1.41,237.14,264.12,273.27,-142.7,-252.24,-270.95,-1.41,15.6,94.45,0,95.86,-0.65
nw_cut_3_0_4f_opt_disp_struct_10.xyz,Nucleus 15C :,0.051589,0.265611,-1.80606,38.2,89.69,22.12,2.78,232.98,271.85,263.67,-143.32,-249.65,-260.95,2.78,22.12,89.69,0,86.91,-0.56
nw_cut_3_0_4f_opt_disp_struct_10.xyz,Nucleus 19C :,4.859168,-5.911964,1.809022,163.22,191.28,156.0,142.39,262.24,230.7,238.45,-69.93,-80.74,-91.04,142.39,156.0,191.28,0,48.89,-0.44
nw_cut_3_0_4f_opt_disp_struct_10.xyz,Nucleus 22C :,5.777897,-6.253245,2.28894,2.32,-92.46,94.46,4.96,192.79,252.06,269.87,-98.57,-346.01,-263.18,-92.46,4.96,94.46,0,186.92,0.04
nw_cut_3_0_4f_opt_disp_struct_10.xyz,Nucleus 5N :,5.029298,-4.939853,1.336492,122.93,50.98,184.65,133.16,292.58,338.75,329.42,-108.37,-203.94,-279.65,50.98,133.16,184.65,0,133.67,0.23
nw_cut_3_0_4f_opt_disp_struct_10.xyz,Nucleus 24N :,3.745502,-5.893147,2.816651,146.22,47.65,244.25,146.77,287.84,327.63,343.94,-279.66,-85.32,-155.76,47.65,146.77,244.25,0,196.6,0.01
nw_cut_3_0_4f_opt_disp_struct_10.xyz,Nucleus 23O :,3.629998,-6.72844,3.705378,-116.92,314.37,-242.94,-422.2,330.48,379.82,427.47,-16.58,-624.33,-847.63,-422.2,-242.94,314.37,0,736.57,-0.51
nw_cut_3_0_4f_opt_disp_struct_10.xyz,Nucleus 10F :,2.84354,-4.883765,2.671788,329.17,443.65,260.47,283.39,480.31,458.68,464.02,-20.3,-205.05,-190.14,260.47,283.39,443.65,0,183.18,-0.75
nw_cut_3_0_4f_opt_disp_struct_10.xyz,Nucleus 12F :,2.809219,-4.423057,1.783494,349.37,450.18,292.12,305.8,479.69,471.25,458.52,-21.06,-187.14,-153.17,292.12,305.8,450.18,0,158.06,-0.83
nw_cut_3_0_4f_opt_disp_struct_10.xyz,Nucleus 14F :,1.979926,-5.055963,3.149872,344.83,453.83,294.41,286.26,460.78,477.69,477.18,-23.58,-167.03,-190.54,286.26,294.41,453.83,0,167.57,-0.9
nw_cut_3_0_4f_opt_disp_struct_10.xyz,Nucleus 16F :,4.60701,-6.638411,1.028765,344.7,447.21,296.53,290.35,459.3,480.92,479.14,-33.48,-166.84,-184.94,290.35,296.53,447.21,0,156.86,-0.92
nw_cut_3_0_4f_opt_disp_struct_11.xyz,Nucleus 1H :,0.992927,-0.019378,-1.324582,29.16,35.35,23.51,28.63,41.06,25.83,28.55,-6.73,0.76,-1.97,23.51,28.63,35.35,0,11.84,-0.13
nw_cut_3_0_4f_opt_disp_struct_11.xyz,Nucleus 2H :,1.782855,0.623316,-1.720717,28.83,34.77,24.0,27.71,45.42,25.37,26.56,-11.5,1.82,-1.2,24.0,27.71,34.77,0,10.77,-0.31
nw_cut_3_0_4f_opt_disp_struct_11.xyz,Nucleus 6H :,1.209351,-1.047789,-1.63274,23.81,15.47,25.37,30.58,10.15,30.51,49.55,-19.4,5.53,-4.91,15.47,25.37,30.58,0,15.11,0.31
nw_cut_3_0_4f_opt_disp_struct_11.xyz,Nucleus 17H :,0.907907,0.105083,0.155016,24.26,20.67,25.51,26.61,44.58,26.85,30.44,-19.05,-6.08,-3.95,20.67,25.51,26.61,0,5.94,0.63
nw_cut_3_0_4f_opt_disp_struct_11.xyz,Nucleus 18H :,1.683949,0.921938,0.955162,28.76,34.99,27.47,23.82,41.73,32.01,26.91,-0.19,-8.95,-5.24,23.82,27.47,34.99,0,11.17,-0.35
nw_cut_3_0_4f_opt_disp_struct_11.xyz,Nucleus 20H :,1.296802,0.752259,2.257238,29.72,34.98,27.86,26.31,38.99,16.16,4.94,-4.33,21.86,11.53,26.31,27.86,34.98,0,8.67,-0.64
nw_cut_3_0_4f_opt_disp_struct_11.xyz,Nucleus 21H :,1.707274,1.199018,3.058867,29.98,25.64,30.69,33.61,41.67,32.58,22.7,-9.26,-1.32,3.57,25.64,30.69,33.61,0,7.97,0.27
nw_cut_3_0_4f_opt_disp_struct_11.xyz,Nucleus 25H :,0.273993,-0.162561,2.325043,27.41,33.52,22.28,26.44,33.87,46.23,49.69,-4.25,-19.08,-24.23,22.28,26.44,33.52,0,11.24,-0.26
nw_cut_3_0_4f_opt_disp_struct_11.xyz,Nucleus 26H :,0.003195,-0.587277,1.021738,27.48,34.45,23.43,24.55,44.2,32.38,35.6,-2.61,-15.4,-11.74,23.43,24.55,34.45,0,11.02,-0.8
nw_cut_3_0_4f_opt_disp_struct_11.xyz,Nucleus 27H :,-1.023864,-1.536495,0.833496,29.61,34.03,27.77,27.02,38.02,13.52,20.68,-5.42,15.22,6.79,27.02,27.77,34.03,0,7.01,-0.79
nw_cut_3_0_4f_opt_disp_struct_11.xyz,Nucleus 0C :,-1.324552,-1.974523,-0.398096,171.22,186.75,160.88,166.04,257.92,237.39,236.91,-77.19,-74.13,-67.25,160.88,166.04,186.75,0,25.87,-0.6
nw_cut_3_0_4f_opt_disp_struct_11.xyz,Nucleus 3C :,-1.732483,-2.024771,1.932067,61.65,147.56,54.49,-17.09,240.31,271.37,264.2,-92.77,-216.85,-281.29,-17.09,54.49,147.56,0,164.65,-0.13
nw_cut_3_0_4f_opt_disp_struct_11.xyz,Nucleus 4C :,-2.706166,-2.928344,1.744399,54.49,-28.74,126.94,65.27,273.25,256.78,258.09,-292.82,-130.51,-201.32,-28.74,65.27,126.94,0,155.68,0.21
nw_cut_3_0_4f_opt_disp_struct_11.xyz,Nucleus 7C :,-1.43964,-1.585278,3.213607,56.13,138.35,2.26,27.77,273.89,261.7,266.3,-123.41,-271.47,-238.63,2.26,27.77,138.35,0,136.09,-0.63
nw_cut_3_0_4f_opt_disp_struct_11.xyz,Nucleus 8C :,-2.131139,-2.065707,4.257766,63.05,159.06,26.69,3.4,236.42,262.85,268.15,-77.64,-236.64,-263.99,3.4,26.69,159.06,0,155.66,-0.7
nw_cut_3_0_4f_opt_disp_struct_11.xyz,Nucleus 9C :,-0.433125,-0.647751,3.42838,29.61,83.12,20.52,-14.81,237.48,268.55,269.7,-154.37,-248.06,-284.47,-14.81,20.52,83.12,0,97.93,-0.28
nw_cut_3_0_4f_opt_disp_struct_11.xyz,Nucleus 11C :,-0.146691,-0.21831,4.664467,37.34,94.43,20.4,-2.8,239.87,264.2,272.58,-145.45,-244.47,-274.7,-2.8,20.4,94.43,0,97.23,-0.52
nw_cut_3_0_4f_opt_disp_struct_11.xyz,Nucleus 13C :,2.475455,1.60431,0.684336,36.21,94.4,15.61,-1.39,237.12,264.12,272.96,-142.73,-252.17,-270.69,-1.39,15.61,94.4,0,95.79,-0.65
nw_cut_3_0_4f_opt_disp_struct_11.xyz,Nucleus 15C :,0.051589,0.265611,-1.80606,38.22,89.64,22.18,2.85,232.98,271.66,263.65,-143.37,-249.42,-260.83,2.85,22.18,89.64,0,86.79,-0.55
nw_cut_3_0_4f_opt_disp_struct_11.xyz,Nucleus 19C :,5.025624,-6.096722,1.834645,163.21,191.26,155.94,142.42,262.57,230.2,238.06,-70.18,-80.43,-90.6,142.42,155.94,191.26,0,48.84,-0.45
nw_cut_3_0_4f_opt_disp_struct_11.xyz,Nucleus 22C :,5.944353,-6.438003,2.314563,2.3,-92.55,94.49,4.95,192.05,252.03,269.94,-97.81,-345.99,-263.33,-92.55,4.95,94.49,0,187.04,0.04
nw_cut_3_0_4f_opt_disp_struct_11.xyz,Nucleus 5N :,5.195754,-5.124612,1.362115,123.0,51.1,184.61,133.28,292.57,338.7,329.37,-108.34,-203.78,-279.52,51.1,133.28,184.61,0,133.51,0.23
nw_cut_3_0_4f_opt_disp_struct_11.xyz,Nucleus 24N :,3.911958,-6.077906,2.842274,146.15,47.65,244.04,146.75,287.63,327.8,344.22,-279.74,-84.88,-156.59,47.65,146.75,244.04,0,196.39,0.01
nw_cut_3_0_4f_opt_disp_struct_11.xyz,Nucleus 23O :,3.796454,-6.913199,3.731,-116.96,314.28,-242.92,-422.25,329.85,379.7,427.52,-16.02,-624.23,-847.71,-422.25,-242.92,314.28,0,736.53,-0.51
nw_cut_3_0_4f_opt_disp_struct_11.xyz,Nucleus 10F :,3.009996,-5.068524,2.697411,329.15,443.63,260.42,283.4,480.34,458.7,463.97,-20.28,-204.98,-190.31,260.42,283.4,443.63,0,183.21,-0.75
nw_cut_3_0_4f_opt_disp_struct_11.xyz,Nucleus 12F :,2.975676,-4.607815,1.809117,349.42,450.18,292.21,305.86,479.67,471.18,458.55,-21.0,-187.02,-153.14,292.21,305.86,450.18,0,157.97,-0.83
nw_cut_3_0_4f_opt_disp_struct_11.xyz,Nucleus 14F :,2.146382,-5.240721,3.175495,344.92,453.84,294.53,286.38,460.78,477.86,476.9,-23.4,-166.89,-190.49,286.38,294.53,453.84,0,167.46,-0.9
nw_cut_3_0_4f_opt_disp_struct_11.xyz,Nucleus 16F :,4.773466,-6.82317,1.054387,344.88,447.25,296.77,290.62,459.34,480.68,479.12,-33.16,-166.61,-184.74,290.62,296.77,447.25,0,156.63,-0.92
nw_cut_3_0_4f_opt_disp_struct_12.xyz,Nucleus 1H :,0.992927,-0.019378,-1.324582,29.17,35.35,23.51,28.64,41.03,25.83,28.57,-6.69,0.75,-1.99,23.51,28.64,35.35,0,11.84,-0.13
nw_cut_3_0_4f_opt_disp_struct_12.xyz,Nucleus 2H :,1.782855,0.623316,-1.720717,28.83,34.79,23.99,27.7,45.38,25.35,26.53,-11.46,1.86,-1.2,23.99,27.7,34.79,0,10.8,-0.31
nw_cut_3_0_4f_opt_disp_struct_12.xyz,Nucleus 6H :,1.209351,-1.047789,-1.63274,23.81,15.46,25.39,30.59,10.16,30.52,49.49,-19.32,5.5,-4.91,15.46,25.39,30.59,0,15.13,0.31
nw_cut_3_0_4f_opt_disp_struct_12.xyz,Nucleus 17H :,0.907907,0.105083,0.155016,24.27,20.67,25.51,26.62,44.56,26.84,30.45,-19.02,-6.08,-3.95,20.67,25.51,26.62,0,5.95,0.63
nw_cut_3_0_4f_opt_disp_struct_12.xyz,Nucleus 18H :,1.683949,0.921938,0.955162,28.76,34.98,27.48,23.82,41.72,32.01,26.89,-0.16,-8.96,-5.22,23.82,27.48,34.98,0,11.16,-0.34
nw_cut_3_0_4f_opt_disp_struct_12.xyz,Nucleus 20H :,1.296802,0.752259,2.257238,29.71,34.94,27.87,26.31,38.91,15.93,4.24,-4.32,22.58,11.77,26.31,27.87,34.94,0,8.63,-0.64
nw_cut_3_0_4f_opt_disp_struct_12.xyz,Nucleus 21H :,1.707274,1.199018,3.058867,29.96,25.66,30.59,33.62,41.95,32.37,22.48,-9.57,-1.19,3.84,25.66,30.59,33.62,0,7.96,0.24
nw_cut_3_0_4f_opt_disp_struct_12.xyz,Nucleus 25H :,0.273993,-0.162561,2.325043,27.35,33.29,26.43,22.32,33.83,46.79,50.11,-4.2,-19.33,-25.16,22.32,26.43,33.29,0,10.97,-0.25
nw_cut_3_0_4f_opt_disp_struct_12.xyz,Nucleus 26H :,0.003195,-0.587277,1.021738,27.43,34.41,23.46,24.42,44.65,32.24,36.36,-2.66,-15.98,-12.33,23.46,24.42,34.41,0,10.95,-0.82
nw_cut_3_0_4f_opt_disp_struct_12.xyz,Nucleus 27H :,-1.023864,-1.536495,0.833496,29.59,34.01,27.74,27.03,38.04,12.92,20.52,-5.5,15.84,6.97,27.03,27.74,34.01,0,6.98,-0.8
nw_cut_3_0_4f_opt_disp_struct_12.xyz,Nucleus 0C :,-1.324552,-1.974523,-0.398096,171.22,186.75,160.89,166.03,257.89,237.37,236.87,-77.14,-74.1,-67.24,160.89,166.03,186.75,0,25.86,-0.6
nw_cut_3_0_4f_opt_disp_struct_12.xyz,Nucleus 3C :,-1.732483,-2.024771,1.932067,61.63,147.54,54.46,-17.12,240.26,271.23,264.19,-92.74,-216.75,-281.31,-17.12,54.46,147.54,0,164.66,-0.13
nw_cut_3_0_4f_opt_disp_struct_12.xyz,Nucleus 4C :,-2.706166,-2.928344,1.744399,54.52,-28.7,126.92,65.35,273.2,256.66,258.22,-292.79,-130.54,-201.19,-28.7,65.35,126.92,0,155.62,0.21
nw_cut_3_0_4f_opt_disp_struct_12.xyz,Nucleus 7C :,-1.43964,-1.585278,3.213607,56.13,138.31,2.29,27.8,273.68,261.62,266.33,-123.4,-271.21,-238.62,2.29,27.8,138.31,0,136.02,-0.62
nw_cut_3_0_4f_opt_disp_struct_12.xyz,Nucleus 8C :,-2.131139,-2.065707,4.257766,63.03,159.02,26.68,3.38,236.44,262.77,267.89,-77.67,-236.46,-263.89,3.38,26.68,159.02,0,155.64,-0.7
nw_cut_3_0_4f_opt_disp_struct_12.xyz,Nucleus 9C :,-0.433125,-0.647751,3.42838,29.58,83.08,20.51,-14.86,237.39,268.45,269.43,-154.31,-247.96,-284.26,-14.86,20.51,83.08,0,97.94,-0.28
nw_cut_3_0_4f_opt_disp_struct_12.xyz,Nucleus 11C :,-0.146691,-0.21831,4.664467,37.33,94.39,20.4,-2.8,239.83,264.16,272.32,-145.45,-244.43,-274.44,-2.8,20.4,94.39,0,97.19,-0.52
nw_cut_3_0_4f_opt_disp_struct_12.xyz,Nucleus 13C :,2.475455,1.60431,0.684336,36.19,94.35,15.61,-1.38,237.09,264.12,272.71,-142.75,-252.11,-270.48,-1.38,15.61,94.35,0,95.73,-0.64
nw_cut_3_0_4f_opt_disp_struct_12.xyz,Nucleus 15C :,0.051589,0.265611,-1.80606,38.24,89.59,22.22,2.91,232.98,271.51,263.62,-143.42,-249.25,-260.72,2.91,22.22,89.59,0,86.68,-0.55
nw_cut_3_0_4f_opt_disp_struct_12.xyz,Nucleus 19C :,5.19208,-6.281481,1.860267,163.19,191.25,155.89,142.43,262.9,229.72,237.7,-70.42,-80.13,-90.2,142.43,155.89,191.25,0,48.82,-0.45
nw_cut_3_0_4f_opt_disp_struct_12.xyz,Nucleus 22C :,6.11081,-6.622762,2.340185,2.27,-92.61,94.52,4.91,191.3,251.99,270.03,-97.05,-345.95,-263.51,-92.61,4.91,94.52,0,187.13,0.04
nw_cut_3_0_4f_opt_disp_struct_12.xyz,Nucleus 5N :,5.36221,-5.309371,1.387737,123.07,51.22,184.59,133.39,292.54,338.66,329.31,-108.31,-203.62,-279.37,51.22,133.39,184.59,0,133.37,0.23
nw_cut_3_0_4f_opt_disp_struct_12.xyz,Nucleus 24N :,4.078415,-6.262665,2.867896,146.08,47.64,243.87,146.74,287.2,327.88,344.58,-279.76,-84.38,-157.27,47.64,146.74,243.87,0,196.23,0.01
nw_cut_3_0_4f_opt_disp_struct_12.xyz,Nucleus 23O :,3.962911,-7.097958,3.756623,-116.93,314.29,-242.88,-422.2,329.19,379.57,427.57,-15.33,-624.09,-847.71,-422.2,-242.88,314.29,0,736.49,-0.51
nw_cut_3_0_4f_opt_disp_struct_12.xyz,Nucleus 10F :,3.176453,-5.253282,2.723033,329.12,443.61,260.34,283.41,480.34,458.71,463.91,-20.25,-204.92,-190.44,260.34,283.41,443.61,0,183.27,-0.75
nw_cut_3_0_4f_opt_disp_struct_12.xyz,Nucleus 12F :,3.142132,-4.792574,1.834739,349.46,450.18,292.29,305.91,479.64,471.12,458.56,-20.95,-186.9,-153.1,292.29,305.91,450.18,0,157.89,-0.83
nw_cut_3_0_4f_opt_disp_struct_12.xyz,Nucleus 14F :,2.312839,-5.42548,3.201117,344.98,453.86,294.62,286.47,460.76,477.97,476.69,-23.24,-166.79,-190.44,286.47,294.62,453.86,0,167.39,-0.9
nw_cut_3_0_4f_opt_disp_struct_12.xyz,Nucleus 16F :,4.939922,-7.007929,1.08001,345.03,447.28,296.95,290.86,459.38,479.08,480.51,-32.91,-166.39,-184.58,290.86,296.95,447.28,0,156.42,-0.92
nw_cut_3_0_4f_opt_disp_struct_13.xyz,Nucleus 1H :,0.992927,-0.019378,-1.324582,29.17,35.35,23.51,28.65,41.0,25.83,28.58,-6.66,0.75,-1.99,23.51,28.65,35.35,0,11.84,-0.13
nw_cut_3_0_4f_opt_disp_struct_13.xyz,Nucleus 2H :,1.782855,0.623316,-1.720717,28.82,34.8,23.98,27.69,45.34,25.32,26.5,-11.41,1.9,-1.2,23.98,27.69,34.8,0,10.82,-0.31
nw_cut_3_0_4f_opt_disp_struct_13.xyz,Nucleus 6H :,1.209351,-1.047789,-1.63274,23.82,15.46,25.4,30.6,10.17,30.53,49.42,-19.24,5.48,-4.91,15.46,25.4,30.6,0,15.14,0.31
nw_cut_3_0_4f_opt_disp_struct_13.xyz,Nucleus 17H :,0.907907,0.105083,0.155016,24.27,20.67,25.51,26.63,44.54,26.84,30.44,-18.99,-6.08,-3.93,20.67,25.51,26.63,0,5.96,0.62
nw_cut_3_0_4f_opt_disp_struct_13.xyz,Nucleus 18H :,1.683949,0.921938,0.955162,28.77,34.98,27.49,23.83,41.72,32.0,26.87,-0.14,-8.97,-5.2,23.83,27.49,34.98,0,11.15,-0.34
nw_cut_3_0_4f_opt_disp_struct_13.xyz,Nucleus 20H :,1.296802,0.752259,2.257238,29.69,34.9,27.87,26.31,38.84,15.7,3.53,-4.31,23.31,12.01,26.31,27.87,34.9,0,8.59,-0.64
nw_cut_3_0_4f_opt_disp_struct_13.xyz,Nucleus 21H :,1.707274,1.199018,3.058867,29.94,25.68,30.5,33.63,42.22,32.17,22.27,-9.89,-1.08,4.11,25.68,30.5,33.63,0,7.95,0.21
nw_cut_3_0_4f_opt_disp_struct_13.xyz,Nucleus 25H :,0.273993,-0.162561,2.325043,27.29,33.09,26.43,22.36,33.79,47.25,50.64,-4.15,-19.59,-26.06,22.36,26.43,33.09,0,10.73,-0.24
nw_cut_3_0_4f_opt_disp_struct_13.xyz,Nucleus 26H :,0.003195,-0.587277,1.021738,27.39,34.37,23.49,24.3,45.1,32.09,37.12,-2.7,-16.6,-12.84,23.49,24.3,34.37,0,10.88,-0.85
nw_cut_3_0_4f_opt_disp_struct_13.xyz,Nucleus 27H :,-1.023864,-1.536495,0.833496,29.58,34.0,27.7,27.04,38.08,12.32,20.35,-5.59,16.45,7.14,27.04,27.7,34.0,0,6.96,-0.81
nw_cut_3_0_4f_opt_disp_struct_13.xyz,Nucleus 0C :,-1.324552,-1.974523,-0.398096,171.22,186.76,160.89,166.01,257.86,237.37,236.84,-77.11,-74.07,-67.23,160.89,166.01,186.76,0,25.87,-0.6
nw_cut_3_0_4f_opt_disp_struct_13.xyz,Nucleus 3C :,-1.732483,-2.024771,1.932067,61.6,147.53,54.43,-17.16,240.21,271.1,264.17,-92.71,-216.65,-281.32,-17.16,54.43,147.53,0,164.69,-0.13
nw_cut_3_0_4f_opt_disp_struct_13.xyz,Nucleus 4C :,-2.706166,-2.928344,1.744399,54.55,-28.66,126.9,65.42,273.16,256.54,258.32,-292.76,-130.56,-201.06,-28.66,65.42,126.9,0,155.56,0.21
nw_cut_3_0_4f_opt_disp_struct_13.xyz,Nucleus 7C :,-1.43964,-1.585278,3.213607,56.14,138.28,2.32,27.83,273.5,261.56,266.35,-123.39,-270.98,-238.61,2.32,27.83,138.28,0,135.96,-0.62
nw_cut_3_0_4f_opt_disp_struct_13.xyz,Nucleus 8C :,-2.131139,-2.065707,4.257766,63.01,158.98,26.68,3.36,236.45,262.69,267.67,-77.69,-236.3,-263.8,3.36,26.68,158.98,0,155.62,-0.7
nw_cut_3_0_4f_opt_disp_struct_13.xyz,Nucleus 9C :,-0.433125,-0.647751,3.42838,29.55,83.05,20.5,-14.9,237.3,268.34,269.17,-154.26,-247.86,-284.05,-14.9,20.5,83.05,0,97.95,-0.28
nw_cut_3_0_4f_opt_disp_struct_13.xyz,Nucleus 11C :,-0.146691,-0.21831,4.664467,37.32,94.36,20.41,-2.8,239.8,264.13,272.08,-145.45,-244.39,-274.2,-2.8,20.41,94.36,0,97.16,-0.52
nw_cut_3_0_4f_opt_disp_struct_13.xyz,Nucleus 13C :,2.475455,1.60431,0.684336,36.19,94.32,15.61,-1.37,237.06,264.11,272.49,-142.75,-252.05,-270.29,-1.37,15.61,94.32,0,95.69,-0.65
nw_cut_3_0_4f_opt_disp_struct_13.xyz,Nucleus 15C :,0.051589,0.265611,-1.80606,38.26,89.55,22.26,2.96,232.98,271.38,263.57,-143.45,-249.09,-260.62,2.96,22.26,89.55,0,86.59,-0.55
nw_cut_3_0_4f_opt_disp_struct_13.xyz,Nucleus 19C :,5.358537,-6.46624,1.88589,163.17,191.23,155.84,142.45,263.23,229.27,237.36,-70.65,-79.86,-89.83,142.45,155.84,191.23,0,48.78,-0.45
nw_cut_3_0_4f_opt_disp_struct_13.xyz,Nucleus 22C :,6.277266,-6.807521,2.365808,2.25,-92.68,94.54,4.88,190.55,251.94,270.13,-96.3,-345.9,-263.68,-92.68,4.88,94.54,0,187.22,0.04
nw_cut_3_0_4f_opt_disp_struct_13.xyz,Nucleus 5N :,5.528667,-5.494129,1.41336,123.12,51.32,184.57,133.48,292.5,338.62,329.24,-108.27,-203.5,-279.22,51.32,133.48,184.57,0,133.25,0.23
nw_cut_3_0_4f_opt_disp_struct_13.xyz,Nucleus 24N :,4.244871,-6.447423,2.893519,146.02,47.62,243.72,146.73,286.6,327.93,345.03,-279.8,-83.83,-157.88,47.62,146.73,243.72,0,196.1,0.01
nw_cut_3_0_4f_opt_disp_struct_13.xyz,Nucleus 23O :,4.129367,-7.282717,3.782245,-116.91,314.31,-242.86,-422.18,328.41,379.44,427.64,-14.52,-623.96,-847.74,-422.18,-242.86,314.31,0,736.49,-0.51
nw_cut_3_0_4f_opt_disp_struct_13.xyz,Nucleus 10F :,3.342909,-5.438041,2.748656,329.1,443.6,260.28,283.41,480.33,458.71,463.87,-20.23,-204.87,-190.53,260.28,283.41,443.6,0,183.32,-0.75
nw_cut_3_0_4f_opt_disp_struct_13.xyz,Nucleus 12F :,3.308588,-4.977333,1.860362,349.49,450.17,292.35,305.95,479.6,471.06,458.56,-20.9,-186.79,-153.05,292.35,305.95,450.17,0,157.82,-0.83
nw_cut_3_0_4f_opt_disp_struct_13.xyz,Nucleus 14F :,2.479295,-5.610239,3.22674,345.04,453.88,294.7,286.55,460.72,478.04,476.53,-23.11,-166.67,-190.39,286.55,294.7,453.88,0,167.33,-0.9
nw_cut_3_0_4f_opt_disp_struct_13.xyz,Nucleus 16F :,5.106379,-7.192687,1.105632,345.16,447.3,297.11,291.07,459.4,479.02,480.38,-32.71,-166.19,-184.43,291.07,297.11,447.3,0,156.23,-0.92
nw_cut_3_0_4f_opt_disp_struct_14.xyz,Nucleus 1H :,0.992927,-0.019378,-1.324582,29.17,35.35,23.51,28.66,40.98,25.83,28.59,-6.63,0.75,-2.0,23.51,28.66,35.35,0,11.84,-0.13
nw_cut_3_0_4f_opt_disp_struct_14.xyz,Nucleus 2H :,1.782855,0.623316,-1.720717,28.82,34.81,23.96,27.69,45.29,25.3,26.48,-11.36,1.94,-1.19,23.96,27.69,34.81,0,10.85,-0.31
nw_cut_3_0_4f_opt_disp_struct_14.xyz,Nucleus 6H :,1.209351,-1.047789,-1.63274,23.82,15.45,25.41,30.61,10.17,30.53,49.36,-19.16,5.47,-4.9,15.45,25.41,30.61,0,15.16,0.31
nw_cut_3_0_4f_opt_disp_struct_14.xyz,Nucleus 17H :,0.907907,0.105083,0.155016,24.27,20.66,25.51,26.64,44.52,26.83,30.43,-18.97,-6.08,-3.91,20.66,25.51,26.64,0,5.98,0.62
nw_cut_3_0_4f_opt_disp_struct_14.xyz,Nucleus 18H :,1.683949,0.921938,0.955162,28.76,34.97,27.49,23.83,41.71,31.99,26.85,-0.11,-8.97,-5.18,23.83,27.49,34.97,0,11.14,-0.34
nw_cut_3_0_4f_opt_disp_struct_14.xyz,Nucleus 20H :,1.296802,0.752259,2.257238,29.68,34.86,27.88,26.31,38.78,15.46,2.82,-4.3,24.03,12.26,26.31,27.88,34.86,0,8.55,-0.63
nw_cut_3_0_4f_opt_disp_struct_14.xyz,Nucleus 21H :,1.707274,1.199018,3.058867,29.92,25.7,30.43,33.64,42.5,31.99,22.05,-10.2,-0.97,4.4,25.7,30.43,33.64,0,7.94,0.19
nw_cut_3_0_4f_opt_disp_struct_14.xyz,Nucleus 25H :,0.273993,-0.162561,2.325043,27.25,32.92,26.43,22.4,33.74,47.63,51.27,-4.1,-19.86,-26.95,22.4,26.43,32.92,0,10.52,-0.23
nw_cut_3_0_4f_opt_disp_struct_14.xyz,Nucleus 26H :,0.003195,-0.587277,1.021738,27.35,34.34,23.51,24.21,45.54,31.94,37.85,-2.72,-17.27,-13.29,23.51,24.21,34.34,0,10.83,-0.87
nw_cut_3_0_4f_opt_disp_struct_14.xyz,Nucleus 27H :,-1.023864,-1.536495,0.833496,29.58,34.0,27.68,27.05,38.11,11.72,20.18,-5.68,17.07,7.32,27.05,27.68,34.0,0,6.95,-0.82
nw_cut_3_0_4f_opt_disp_struct_14.xyz,Nucleus 0C :,-1.324552,-1.974523,-0.398096,171.22,186.77,160.9,166.0,257.83,237.36,236.81,-77.07,-74.04,-67.22,160.9,166.0,186.77,0,25.87,-0.61
nw_cut_3_0_4f_opt_disp_struct_14.xyz,Nucleus 3C :,-1.732483,-2.024771,1.932067,61.58,147.51,54.4,-17.18,240.17,270.99,264.14,-92.68,-216.57,-281.32,-17.18,54.4,147.51,0,164.69,-0.13
nw_cut_3_0_4f_opt_disp_struct_14.xyz,Nucleus 4C :,-2.706166,-2.928344,1.744399,54.58,-28.63,126.88,65.48,273.11,256.44,258.41,-292.72,-130.58,-200.93,-28.63,65.48,126.88,0,155.51,0.21
nw_cut_3_0_4f_opt_disp_struct_14.xyz,Nucleus 7C :,-1.43964,-1.585278,3.213607,56.15,138.25,2.34,27.85,273.33,261.49,266.36,-123.39,-270.77,-238.59,2.34,27.85,138.25,0,135.91,-0.62
nw_cut_3_0_4f_opt_disp_struct_14.xyz,Nucleus 8C :,-2.131139,-2.065707,4.257766,62.99,158.95,26.67,3.34,236.44,262.62,267.48,-77.69,-236.17,-263.7,3.34,26.67,158.95,0,155.61,-0.7
nw_cut_3_0_4f_opt_disp_struct_14.xyz,Nucleus 9C :,-0.433125,-0.647751,3.42838,29.52,83.02,20.48,-14.93,237.24,268.26,268.95,-154.23,-247.78,-283.87,-14.93,20.48,83.02,0,97.95,-0.28
nw_cut_3_0_4f_opt_disp_struct_14.xyz,Nucleus 11C :,-0.146691,-0.21831,4.664467,37.32,94.33,20.42,-2.8,239.76,264.09,271.87,-145.44,-244.35,-273.98,-2.8,20.42,94.33,0,97.13,-0.52
nw_cut_3_0_4f_opt_disp_struct_14.xyz,Nucleus 13C :,2.475455,1.60431,0.684336,36.18,94.29,15.61,-1.36,237.03,264.11,272.29,-142.75,-252.0,-270.13,-1.36,15.61,94.29,0,95.65,-0.65
nw_cut_3_0_4f_opt_disp_struct_14.xyz,Nucleus 15C :,0.051589,0.265611,-1.80606,38.27,89.52,22.29,3.0,232.98,271.25,263.53,-143.48,-248.95,-260.52,3.0,22.29,89.52,0,86.52,-0.55
nw_cut_3_0_4f_opt_disp_struct_14.xyz,Nucleus 19C :,5.524993,-6.650999,1.911512,163.16,191.22,155.79,142.46,263.56,228.8,237.03,-70.87,-79.58,-89.46,142.46,155.79,191.22,0,48.76,-0.45
nw_cut_3_0_4f_opt_disp_struct_14.xyz,Nucleus 22C :,6.443722,-6.99228,2.39143,2.23,-92.73,94.56,4.85,189.78,251.88,270.24,-95.53,-345.84,-263.85,-92.73,4.85,94.56,0,187.29,0.04
nw_cut_3_0_4f_opt_disp_struct_14.xyz,Nucleus 5N :,5.695123,-5.678888,1.438982,123.17,51.41,184.55,133.56,292.47,338.59,329.17,-108.24,-203.39,-279.07,51.41,133.56,184.55,0,133.14,0.23
nw_cut_3_0_4f_opt_disp_struct_14.xyz,Nucleus 24N :,4.411327,-6.632182,2.919141,145.99,47.65,243.58,146.74,286.06,328.01,345.55,-279.81,-83.29,-158.55,47.65,146.74,243.58,0,195.93,0.01
nw_cut_3_0_4f_opt_disp_struct_14.xyz,Nucleus 23O :,4.295823,-7.467475,3.807868,-116.9,314.32,-242.85,-422.17,327.7,379.31,427.71,-13.79,-623.83,-847.8,-422.17,-242.85,314.32,0,736.49,-0.51
nw_cut_3_0_4f_opt_disp_struct_14.xyz,Nucleus 10F :,3.509365,-5.6228,2.774278,329.07,443.58,260.22,283.4,480.29,458.7,463.83,-20.21,-204.81,-190.59,260.22,283.4,443.58,0,183.36,-0.75
nw_cut_3_0_4f_opt_disp_struct_14.xyz,Nucleus 12F :,3.475045,-5.162092,1.885984,349.53,450.17,292.41,306.0,479.56,471.01,458.55,-20.87,-186.69,-153.0,292.41,306.0,450.17,0,157.76,-0.83
nw_cut_3_0_4f_opt_disp_struct_14.xyz,Nucleus 14F :,2.645751,-5.794998,3.252362,345.1,453.89,294.78,286.62,460.67,478.08,476.43,-23.01,-166.54,-190.34,286.62,294.78,453.89,0,167.27,-0.9
nw_cut_3_0_4f_opt_disp_struct_14.xyz,Nucleus 16F :,5.272835,-7.377446,1.131255,345.27,447.32,297.24,291.25,459.41,478.95,480.3,-32.57,-166.0,-184.28,291.25,297.24,447.32,0,156.07,-0.92
nw_cut_3_0_4f_opt_disp_struct_15.xyz,Nucleus 1H :,0.992927,-0.019378,-1.324582,29.18,35.35,23.51,28.67,40.96,25.83,28.58,-6.6,0.76,-2.0,23.51,28.67,35.35,0,11.84,-0.13
nw_cut_3_0_4f_opt_disp_struct_15.xyz,Nucleus 2H :,1.782855,0.623316,-1.720717,28.82,34.82,23.95,27.69,45.25,25.27,26.45,-11.32,1.99,-1.18,23.95,27.69,34.82,0,10.87,-0.31
nw_cut_3_0_4f_opt_disp_struct_15.xyz,Nucleus 6H :,1.209351,-1.047789,-1.63274,23.82,15.44,25.42,30.61,10.17,30.54,49.29,-19.08,5.45,-4.9,15.44,25.42,30.61,0,15.17,0.32
nw_cut_3_0_4f_opt_disp_struct_15.xyz,Nucleus 17H :,0.907907,0.105083,0.155016,24.27,20.66,25.51,26.65,44.5,26.82,30.42,-18.94,-6.08,-3.89,20.66,25.51,26.65,0,5.99,0.62
nw_cut_3_0_4f_opt_disp_struct_15.xyz,Nucleus 18H :,1.683949,0.921938,0.955162,28.77,34.97,27.5,23.83,41.7,31.98,26.83,-0.08,-8.97,-5.15,23.83,27.5,34.97,0,11.14,-0.34
nw_cut_3_0_4f_opt_disp_struct_15.xyz,Nucleus 20H :,1.296802,0.752259,2.257238,29.68,34.83,27.89,26.31,38.72,15.21,2.11,-4.29,24.76,12.51,26.31,27.89,34.83,0,8.52,-0.63
nw_cut_3_0_4f_opt_disp_struct_15.xyz,Nucleus 21H :,1.707274,1.199018,3.058867,29.91,25.72,30.35,33.65,42.78,31.82,21.81,-10.51,-0.87,4.69,25.72,30.35,33.65,0,7.93,0.17
nw_cut_3_0_4f_opt_disp_struct_15.xyz,Nucleus 25H :,0.273993,-0.162561,2.325043,27.21,32.77,26.42,22.43,33.69,47.96,51.96,-4.05,-20.13,-27.82,22.43,26.42,32.77,0,10.34,-0.23
nw_cut_3_0_4f_opt_disp_struct_15.xyz,Nucleus 26H :,0.003195,-0.587277,1.021738,27.32,34.31,23.53,24.13,45.99,31.81,38.56,-2.74,-17.96,-13.69,23.53,24.13,34.31,0,10.78,-0.89
nw_cut_3_0_4f_opt_disp_struct_15.xyz,Nucleus 27H :,-1.023864,-1.536495,0.833496,29.57,33.99,27.65,27.06,38.15,11.11,20.01,-5.77,17.69,7.5,27.06,27.65,33.99,0,6.93,-0.83
nw_cut_3_0_4f_opt_disp_struct_15.xyz,Nucleus 0C :,-1.324552,-1.974523,-0.398096,171.23,186.78,160.91,165.99,257.8,237.36,236.78,-77.02,-74.02,-67.21,160.91,165.99,186.78,0,25.87,-0.61
nw_cut_3_0_4f_opt_disp_struct_15.xyz,Nucleus 3C :,-1.732483,-2.024771,1.932067,61.55,147.49,54.38,-17.21,240.13,270.89,264.11,-92.66,-216.49,-281.32,-17.21,54.38,147.49,0,164.7,-0.13
nw_cut_3_0_4f_opt_disp_struct_15.xyz,Nucleus 4C :,-2.706166,-2.928344,1.744399,54.59,-28.61,126.86,65.53,273.06,256.36,258.47,-292.7,-130.6,-200.82,-28.61,65.53,126.86,0,155.47,0.21
nw_cut_3_0_4f_opt_disp_struct_15.xyz,Nucleus 7C :,-1.43964,-1.585278,3.213607,56.15,138.22,2.36,27.87,273.2,261.44,266.34,-123.39,-270.59,-238.56,2.36,27.87,138.22,0,135.86,-0.62
nw_cut_3_0_4f_opt_disp_struct_15.xyz,Nucleus 8C :,-2.131139,-2.065707,4.257766,62.97,158.93,26.66,3.33,236.42,262.56,267.32,-77.68,-236.08,-263.61,3.33,26.66,158.93,0,155.6,-0.7
nw_cut_3_0_4f_opt_disp_struct_15.xyz,Nucleus 9C :,-0.433125,-0.647751,3.42838,29.5,82.99,20.47,-14.96,237.19,268.19,268.77,-154.21,-247.73,-283.71,-14.96,20.47,82.99,0,97.95,-0.28
nw_cut_3_0_4f_opt_disp_struct_15.xyz,Nucleus 11C :,-0.146691,-0.21831,4.664467,37.31,94.3,20.42,-2.8,239.73,264.06,271.7,-145.44,-244.33,-273.8,-2.8,20.42,94.3,0,97.1,-0.52
nw_cut_3_0_4f_opt_disp_struct_15.xyz,Nucleus 13C :,2.475455,1.60431,0.684336,36.18,94.26,15.61,-1.34,237.0,264.1,272.13,-142.75,-251.94,-270.0,-1.34,15.61,94.26,0,95.6,-0.65
nw_cut_3_0_4f_opt_disp_struct_15.xyz,Nucleus 15C :,0.051589,0.265611,-1.80606,38.28,89.49,22.31,3.03,232.96,271.14,263.47,-143.5,-248.82,-260.42,3.03,22.31,89.49,0,86.46,-0.55
nw_cut_3_0_4f_opt_disp_struct_15.xyz,Nucleus 19C :,5.691449,-6.835757,1.937134,163.14,191.21,155.75,142.47,263.88,228.33,236.7,-71.07,-79.31,-89.1,142.47,155.75,191.21,0,48.74,-0.45
nw_cut_3_0_4f_opt_disp_struct_15.xyz,Nucleus 22C :,6.610179,-7.177038,2.417052,2.21,-92.78,94.58,4.82,189.0,251.81,270.37,-94.75,-345.78,-264.03,-92.78,4.82,94.58,0,187.36,0.04
nw_cut_3_0_4f_opt_disp_struct_15.xyz,Nucleus 5N :,5.861579,-5.863647,1.464605,123.22,51.48,184.53,133.64,292.44,338.56,329.09,-108.22,-203.3,-278.92,51.48,133.64,184.53,0,133.05,0.23
nw_cut_3_0_4f_opt_disp_struct_15.xyz,Nucleus 24N :,4.577783,-6.816941,2.944764,145.97,47.69,243.47,146.75,285.48,328.07,346.12,-279.8,-82.74,-159.22,47.69,146.75,243.47,0,195.78,0.01
nw_cut_3_0_4f_opt_disp_struct_15.xyz,Nucleus 23O :,4.46228,-7.652234,3.83349,-116.89,314.33,-242.84,-422.16,326.99,379.18,427.78,-13.07,-623.7,-847.86,-422.16,-242.84,314.33,0,736.49,-0.51
nw_cut_3_0_4f_opt_disp_struct_15.xyz,Nucleus 10F :,3.675822,-5.807559,2.799901,329.04,443.57,260.17,283.39,480.24,458.68,463.8,-20.2,-204.75,-190.64,260.17,283.39,443.57,0,183.4,-0.75
nw_cut_3_0_4f_opt_disp_struct_15.xyz,Nucleus 12F :,3.641501,-5.34685,1.911606,349.55,450.17,292.45,306.04,479.51,470.97,458.54,-20.84,-186.58,-152.95,292.45,306.04,450.17,0,157.72,-0.83
nw_cut_3_0_4f_opt_disp_struct_15.xyz,Nucleus 14F :,2.812208,-5.979756,3.277985,345.15,453.91,294.86,286.68,460.62,478.09,476.37,-22.94,-166.41,-190.29,286.68,294.86,453.91,0,167.23,-0.9
nw_cut_3_0_4f_opt_disp_struct_15.xyz,Nucleus 16F :,5.439291,-7.562205,1.156877,345.37,447.34,297.37,291.41,459.42,478.88,480.23,-32.46,-165.83,-184.14,291.41,297.37,447.34,0,155.93,-0.92
nw_cut_3_0_4f_opt_disp_struct_16.xyz,Nucleus 1H :,0.992927,-0.019378,-1.324582,29.18,35.35,23.5,28.68,40.93,25.82,28.57,-6.57,0.77,-1.99,23.5,28.68,35.35,0,11.85,-0.13
nw_cut_3_0_4f_opt_disp_struct_16.xyz,Nucleus 2H :,1.782855,0.623316,-1.720717,28.81,34.82,23.94,27.68,45.2,25.24,26.43,-11.27,2.02,-1.17,23.94,27.68,34.82,0,10.88,-0.31
nw_cut_3_0_4f_opt_disp_struct_16.xyz,Nucleus 6H :,1.209351,-1.047789,-1.63274,23.83,15.44,25.42,30.62,10.17,30.54,49.23,-19.01,5.44,-4.89,15.44,25.42,30.62,0,15.18,0.31
nw_cut_3_0_4f_opt_disp_struct_16.xyz,Nucleus 17H :,0.907907,0.105083,0.155016,24.28,20.66,25.52,26.66,44.48,26.82,30.4,-18.92,-6.08,-3.87,20.66,25.52,26.66,0,6.0,0.62
nw_cut_3_0_4f_opt_disp_struct_16.xyz,Nucleus 18H :,1.683949,0.921938,0.955162,28.77,34.96,27.51,23.84,41.7,31.96,26.81,-0.06,-8.97,-5.13,23.84,27.51,34.96,0,11.12,-0.34
nw_cut_3_0_4f_opt_disp_struct_16.xyz,Nucleus 20H :,1.296802,0.752259,2.257238,29.67,34.8,27.89,26.31,38.67,14.97,1.39,-4.28,25.49,12.77,26.31,27.89,34.8,0,8.49,-0.63
nw_cut_3_0_4f_opt_disp_struct_16.xyz,Nucleus 21H :,1.707274,1.199018,3.058867,29.89,25.73,30.29,33.66,43.05,31.65,21.57,-10.82,-0.77,4.99,25.73,30.29,33.66,0,7.93,0.15
nw_cut_3_0_4f_opt_disp_struct_16.xyz,Nucleus 25H :,0.273993,-0.162561,2.325043,27.17,32.64,26.42,22.45,33.65,48.25,52.69,-4.0,-20.4,-28.68,22.45,26.42,32.64,0,10.19,-0.22
nw_cut_3_0_4f_opt_disp_struct_16.xyz,Nucleus 26H :,0.003195,-0.587277,1.021738,27.3,34.29,23.53,24.07,46.44,31.7,39.22,-2.75,-18.67,-14.05,23.53,24.07,34.29,0,10.76,-0.9
nw_cut_3_0_4f_opt_disp_struct_16.xyz,Nucleus 27H :,-1.023864,-1.536495,0.833496,29.56,33.98,27.63,27.06,38.2,10.51,19.83,-5.87,18.31,7.69,27.06,27.63,33.98,0,6.92,-0.84
nw_cut_3_0_4f_opt_disp_struct_16.xyz,Nucleus 0C :,-1.324552,-1.974523,-0.398096,171.23,186.78,160.91,165.99,257.76,237.36,236.74,-76.98,-74.0,-67.2,160.91,165.99,186.78,0,25.87,-0.61
nw_cut_3_0_4f_opt_disp_struct_16.xyz,Nucleus 3C :,-1.732483,-2.024771,1.932067,61.54,147.48,54.36,-17.23,240.1,270.81,264.07,-92.64,-216.42,-281.3,-17.23,54.36,147.48,0,164.71,-0.13
nw_cut_3_0_4f_opt_disp_struct_16.xyz,Nucleus 4C :,-2.706166,-2.928344,1.744399,54.61,-28.58,126.85,65.57,273.02,256.3,258.51,-292.67,-130.61,-200.71,-28.58,65.57,126.85,0,155.43,0.21
nw_cut_3_0_4f_opt_disp_struct_16.xyz,Nucleus 7C :,-1.43964,-1.585278,3.213607,56.15,138.2,2.37,27.89,273.09,261.41,266.31,-123.39,-270.44,-238.51,2.37,27.89,138.2,0,135.83,-0.62
nw_cut_3_0_4f_opt_disp_struct_16.xyz,Nucleus 8C :,-2.131139,-2.065707,4.257766,62.96,158.91,26.66,3.32,236.39,262.51,267.18,-77.68,-236.0,-263.52,3.32,26.66,158.91,0,155.59,-0.7
nw_cut_3_0_4f_opt_disp_struct_16.xyz,Nucleus 9C :,-0.433125,-0.647751,3.42838,29.48,82.97,20.46,-14.98,237.15,268.14,268.61,-154.2,-247.69,-283.58,-14.98,20.46,82.97,0,97.95,-0.28
nw_cut_3_0_4f_opt_disp_struct_16.xyz,Nucleus 11C :,-0.146691,-0.21831,4.664467,37.3,94.28,20.42,-2.8,239.71,264.02,271.55,-145.43,-244.3,-273.65,-2.8,20.42,94.28,0,97.08,-0.52
nw_cut_3_0_4f_opt_disp_struct_16.xyz,Nucleus 13C :,2.475455,1.60431,0.684336,36.17,94.23,15.61,-1.33,236.97,264.09,271.98,-142.75,-251.89,-269.88,-1.33,15.61,94.23,0,95.56,-0.65
nw_cut_3_0_4f_opt_disp_struct_16.xyz,Nucleus 15C :,0.051589,0.265611,-1.80606,38.28,89.46,22.33,3.06,232.95,271.04,263.42,-143.51,-248.71,-260.33,3.06,22.33,89.46,0,86.4,-0.55
nw_cut_3_0_4f_opt_disp_struct_16.xyz,Nucleus 19C :,5.857906,-7.020516,1.962757,163.13,191.21,155.71,142.48,264.21,227.87,236.39,-71.26,-79.04,-88.76,142.48,155.71,191.21,0,48.73,-0.46
nw_cut_3_0_4f_opt_disp_struct_16.xyz,Nucleus 22C :,6.776635,-7.361797,2.442675,2.19,-92.83,94.6,4.8,188.21,251.74,270.5,-93.96,-345.72,-264.21,-92.83,4.8,94.6,0,187.43,0.04
nw_cut_3_0_4f_opt_disp_struct_16.xyz,Nucleus 5N :,6.028036,-6.048406,1.490227,123.26,51.55,184.52,133.7,292.41,338.54,329.02,-108.2,-203.23,-278.77,51.55,133.7,184.52,0,132.97,0.24
nw_cut_3_0_4f_opt_disp_struct_16.xyz,Nucleus 24N :,4.74424,-7.0017,2.970386,145.94,47.71,243.36,146.76,284.84,328.12,346.73,-279.81,-82.18,-159.86,47.71,146.76,243.36,0,195.65,0.01
nw_cut_3_0_4f_opt_disp_struct_16.xyz,Nucleus 23O :,4.628736,-7.836993,3.859113,-116.89,314.33,-242.84,-422.16,326.22,379.05,427.86,-12.3,-623.56,-847.93,-422.16,-242.84,314.33,0,736.49,-0.51
nw_cut_3_0_4f_opt_disp_struct_16.xyz,Nucleus 10F :,3.842278,-5.992317,2.825523,329.02,443.55,260.12,283.38,480.18,458.66,463.77,-20.19,-204.7,-190.66,260.12,283.38,443.55,0,183.43,-0.75
nw_cut_3_0_4f_opt_disp_struct_16.xyz,Nucleus 12F :,3.807957,-5.531609,1.937229,349.58,450.17,292.49,306.08,479.46,470.94,458.52,-20.8,-186.49,-152.89,292.49,306.08,450.17,0,157.68,-0.83
nw_cut_3_0_4f_opt_disp_struct_16.xyz,Nucleus 14F :,2.978664,-6.164515,3.303607,345.19,453.92,294.93,286.73,460.56,478.09,476.32,-22.88,-166.28,-190.24,286.73,294.93,453.92,0,167.19,-0.9
nw_cut_3_0_4f_opt_disp_struct_16.xyz,Nucleus 16F :,5.605748,-7.746964,1.1825,345.45,447.35,297.47,291.54,459.42,478.81,480.18,-32.37,-165.67,-184.0,291.54,297.47,447.35,0,155.81,-0.92
nw_cut_3_0_4f_opt_disp_struct_17.xyz,Nucleus 1H :,0.992927,-0.019378,-1.324582,29.18,35.35,23.5,28.68,40.92,25.82,28.56,-6.55,0.78,-1.98,23.5,28.68,35.35,0,11.85,-0.13
nw_cut_3_0_4f_opt_disp_struct_17.xyz,Nucleus 2H :,1.782855,0.623316,-1.720717,28.81,23.93,27.68,34.83,45.15,25.21,26.41,-11.23,2.06,-1.16,23.93,27.68,34.83,0,10.9,-0.31
nw_cut_3_0_4f_opt_disp_struct_17.xyz,Nucleus 6H :,1.209351,-1.047789,-1.63274,23.83,15.43,25.43,30.63,10.17,30.53,49.16,-18.94,5.43,-4.88,15.43,25.43,30.63,0,15.2,0.32
nw_cut_3_0_4f_opt_disp_struct_17.xyz,Nucleus 17H :,0.907907,0.105083,0.155016,24.28,20.66,25.52,26.66,44.46,26.81,30.38,-18.9,-6.08,-3.84,20.66,25.52,26.66,0,6.0,0.62
nw_cut_3_0_4f_opt_disp_struct_17.xyz,Nucleus 18H :,1.683949,0.921938,0.955162,28.77,34.96,27.51,23.84,41.69,31.94,26.79,-0.04,-8.96,-5.1,23.84,27.51,34.96,0,11.12,-0.34
nw_cut_3_0_4f_opt_disp_struct_17.xyz,Nucleus 20H :,1.296802,0.752259,2.257238,29.66,34.77,27.9,26.3,38.63,14.72,0.67,-4.28,26.22,13.03,26.3,27.9,34.77,0,8.47,-0.62
nw_cut_3_0_4f_opt_disp_struct_17.xyz,Nucleus 21H :,1.707274,1.199018,3.058867,29.88,25.74,30.23,33.66,43.33,31.5,21.33,-11.13,-0.68,5.28,25.74,30.23,33.66,0,7.92,0.13
nw_cut_3_0_4f_opt_disp_struct_17.xyz,Nucleus 25H :,0.273993,-0.162561,2.325043,27.14,32.53,26.41,22.48,33.6,48.54,53.45,-3.95,-20.68,-29.53,22.48,26.41,32.53,0,10.05,-0.22
nw_cut_3_0_4f_opt_disp_struct_17.xyz,Nucleus 26H :,0.003195,-0.587277,1.021738,27.27,34.28,23.52,24.02,31.6,46.9,39.85,-2.75,-19.39,-14.38,23.52,24.02,34.28,0,10.76,-0.91
nw_cut_3_0_4f_opt_disp_struct_17.xyz,Nucleus 27H :,-1.023864,-1.536495,0.833496,29.55,33.98,27.6,27.07,38.25,9.9,19.66,-5.97,18.93,7.87,27.07,27.6,33.98,0,6.91,-0.85
nw_cut_3_0_4f_opt_disp_struct_17.xyz,Nucleus 0C :,-1.324552,-1.974523,-0.398096,171.23,186.79,160.92,165.98,257.72,237.36,236.71,-76.93,-73.99,-67.19,160.92,165.98,186.79,0,25.87,-0.61
nw_cut_3_0_4f_opt_disp_struct_17.xyz,Nucleus 3C :,-1.732483,-2.024771,1.932067,61.52,147.46,54.34,-17.25,240.06,270.72,264.04,-92.62,-216.35,-281.28,-17.25,54.34,147.46,0,164.71,-0.13
nw_cut_3_0_4f_opt_disp_struct_17.xyz,Nucleus 4C :,-2.706166,-2.928344,1.744399,54.63,-28.56,126.83,65.61,272.97,256.24,258.54,-292.64,-130.62,-200.61,-28.56,65.61,126.83,0,155.39,0.21
nw_cut_3_0_4f_opt_disp_struct_17.xyz,Nucleus 7C :,-1.43964,-1.585278,3.213607,56.15,138.18,2.38,27.9,272.98,261.38,266.27,-123.4,-270.3,-238.47,2.38,27.9,138.18,0,135.8,-0.62
nw_cut_3_0_4f_opt_disp_struct_17.xyz,Nucleus 8C :,-2.131139,-2.065707,4.257766,62.95,158.89,26.65,3.31,236.37,262.46,267.05,-77.67,-235.94,-263.42,3.31,26.65,158.89,0,155.58,-0.7
nw_cut_3_0_4f_opt_disp_struct_17.xyz,Nucleus 9C :,-0.433125,-0.647751,3.42838,29.47,82.95,20.45,-15.0,237.12,268.08,268.48,-154.19,-247.65,-283.45,-15.0,20.45,82.95,0,97.95,-0.28
nw_cut_3_0_4f_opt_disp_struct_17.xyz,Nucleus 11C :,-0.146691,-0.21831,4.664467,37.3,94.26,20.43,-2.8,239.68,263.99,271.42,-145.42,-244.27,-273.5,-2.8,20.43,94.26,0,97.06,-0.52
nw_cut_3_0_4f_opt_disp_struct_17.xyz,Nucleus 13C :,2.475455,1.60431,0.684336,36.17,94.21,15.62,-1.32,236.95,264.08,271.84,-142.74,-251.84,-269.77,-1.32,15.62,94.21,0,95.53,-0.65
nw_cut_3_0_4f_opt_disp_struct_17.xyz,Nucleus 15C :,0.051589,0.265611,-1.80606,38.29,89.44,22.35,3.09,232.93,270.95,263.36,-143.51,-248.6,-260.25,3.09,22.35,89.44,0,86.35,-0.55
nw_cut_3_0_4f_opt_disp_struct_17.xyz,Nucleus 19C :,6.024362,-7.205275,1.988379,163.12,191.2,155.68,142.49,264.54,227.42,236.1,-71.44,-78.8,-88.45,142.49,155.68,191.2,0,48.71,-0.46
nw_cut_3_0_4f_opt_disp_struct_17.xyz,Nucleus 22C :,6.943091,-7.546556,2.468297,2.18,-92.87,94.62,4.78,187.42,251.67,270.64,-93.18,-345.65,-264.38,-92.87,4.78,94.62,0,187.49,0.04
nw_cut_3_0_4f_opt_disp_struct_17.xyz,Nucleus 5N :,6.194492,-6.233164,1.51585,123.28,51.6,184.5,133.75,292.39,338.51,328.95,-108.19,-203.16,-278.64,51.6,133.75,184.5,0,132.9,0.24
nw_cut_3_0_4f_opt_disp_struct_17.xyz,Nucleus 24N :,4.910696,-7.186458,2.996008,145.92,47.73,243.27,146.77,284.15,328.17,347.37,-279.84,-81.61,-160.48,47.73,146.77,243.27,0,195.54,0.01
nw_cut_3_0_4f_opt_disp_struct_17.xyz,Nucleus 23O :,4.795192,-8.021751,3.884735,-116.89,314.34,-242.84,-422.16,325.36,378.91,427.95,-11.44,-623.42,-848.02,-422.16,-242.84,314.34,0,736.5,-0.51
nw_cut_3_0_4f_opt_disp_struct_17.xyz,Nucleus 10F :,4.008734,-6.177076,2.851145,329.0,443.54,260.08,283.37,480.12,458.64,463.74,-20.18,-204.65,-190.68,260.08,283.37,443.54,0,183.46,-0.75
nw_cut_3_0_4f_opt_disp_struct_17.xyz,Nucleus 12F :,3.974413,-5.716368,1.962851,349.6,450.16,292.52,306.11,479.41,470.91,458.5,-20.78,-186.39,-152.84,292.52,306.11,450.16,0,157.64,-0.83
nw_cut_3_0_4f_opt_disp_struct_17.xyz,Nucleus 14F :,3.14512,-6.349274,3.32923,345.23,453.93,294.99,286.78,460.5,478.09,476.29,-22.83,-166.15,-190.19,286.78,294.99,453.93,0,167.15,-0.9
nw_cut_3_0_4f_opt_disp_struct_17.xyz,Nucleus 16F :,5.772204,-7.931722,1.208122,345.53,447.36,297.57,291.67,459.42,478.74,480.14,-32.3,-165.53,-183.88,291.67,297.57,447.36,0,155.69,-0.92
nw_cut_3_0_4f_opt_disp_struct_18.xyz,Nucleus 1H :,0.992927,-0.019378,-1.324582,29.18,35.35,23.5,28.69,40.9,25.81,28.54,-6.52,0.8,-1.98,23.5,28.69,35.35,0,11.85,-0.12
nw_cut_3_0_4f_opt_disp_struct_18.xyz,Nucleus 2H :,1.782855,0.623316,-1.720717,28.82,23.93,27.68,34.84,45.1,25.17,26.39,-11.19,2.1,-1.14,23.93,27.68,34.84,0,10.91,-0.31
nw_cut_3_0_4f_opt_disp_struct_18.xyz,Nucleus 6H :,1.209351,-1.047789,-1.63274,23.83,15.43,25.44,30.63,10.17,30.53,49.1,-18.87,5.42,-4.86,15.43,25.44,30.63,0,15.2,0.32
nw_cut_3_0_4f_opt_disp_struct_18.xyz,Nucleus 17H :,0.907907,0.105083,0.155016,24.28,20.65,25.52,26.67,44.44,26.81,30.36,-18.87,-6.08,-3.81,20.65,25.52,26.67,0,6.02,0.62
nw_cut_3_0_4f_opt_disp_struct_18.xyz,Nucleus 18H :,1.683949,0.921938,0.955162,28.77,34.96,27.52,23.84,41.68,31.92,26.77,-0.01,-8.96,-5.08,23.84,27.52,34.96,0,11.12,-0.34
nw_cut_3_0_4f_opt_disp_struct_18.xyz,Nucleus 20H :,1.296802,0.752259,2.257238,29.65,34.75,27.9,26.3,38.58,14.46,-0.05,-4.28,26.96,13.29,26.3,27.9,34.75,0,8.45,-0.62
nw_cut_3_0_4f_opt_disp_struct_18.xyz,Nucleus 21H :,1.707274,1.199018,3.058867,29.87,25.76,30.18,33.67,43.6,31.36,21.08,-11.43,-0.59,5.58,25.76,30.18,33.67,0,7.91,0.12
nw_cut_3_0_4f_opt_disp_struct_18.xyz,Nucleus 25H :,0.273993,-0.162561,2.325043,27.11,32.43,26.41,22.5,33.55,48.8,54.22,-3.9,-20.95,-30.38,22.5,26.41,32.43,0,9.93,-0.21
nw_cut_3_0_4f_opt_disp_struct_18.xyz,Nucleus 26H :,0.003195,-0.587277,1.021738,27.25,34.26,23.99,23.51,31.51,47.38,40.45,-2.75,-20.13,-14.69,23.51,23.99,34.26,0,10.75,-0.91
nw_cut_3_0_4f_opt_disp_struct_18.xyz,Nucleus 27H :,-1.023864,-1.536495,0.833496,29.54,33.97,27.58,27.08,38.31,9.3,19.48,-6.07,19.56,8.06,27.08,27.58,33.97,0,6.89,-0.85
nw_cut_3_0_4f_opt_disp_struct_18.xyz,Nucleus 0C :,-1.324552,-1.974523,-0.398096,171.23,186.79,160.93,165.97,257.69,237.36,236.67,-76.89,-73.97,-67.18,160.93,165.97,186.79,0,25.86,-0.61
nw_cut_3_0_4f_opt_disp_struct_18.xyz,Nucleus 3C :,-1.732483,-2.024771,1.932067,61.5,147.45,54.33,-17.27,240.04,270.64,264.0,-92.61,-216.29,-281.27,-17.27,54.33,147.45,0,164.72,-0.13
nw_cut_3_0_4f_opt_disp_struct_18.xyz,Nucleus 4C :,-2.706166,-2.928344,1.744399,54.64,-28.55,126.82,65.65,272.93,256.19,258.55,-292.61,-130.62,-200.51,-28.55,65.65,126.82,0,155.37,0.21
nw_cut_3_0_4f_opt_disp_struct_18.xyz,Nucleus 7C :,-1.43964,-1.585278,3.213607,56.16,138.16,2.4,27.91,272.89,261.37,266.23,-123.4,-270.18,-238.43,2.4,27.91,138.16,0,135.76,-0.62
nw_cut_3_0_4f_opt_disp_struct_18.xyz,Nucleus 8C :,-2.131139,-2.065707,4.257766,62.94,158.87,26.65,3.3,236.34,262.42,266.93,-77.66,-235.88,-263.33,3.3,26.65,158.87,0,155.57,-0.7
nw_cut_3_0_4f_opt_disp_struct_18.xyz,Nucleus 9C :,-0.433125,-0.647751,3.42838,29.45,82.93,20.44,-15.02,237.09,268.03,268.35,-154.18,-247.62,-283.33,-15.02,20.44,82.93,0,97.95,-0.28
nw_cut_3_0_4f_opt_disp_struct_18.xyz,Nucleus 11C :,-0.146691,-0.21831,4.664467,37.29,94.24,20.43,-2.8,239.66,263.96,271.3,-145.42,-244.24,-273.37,-2.8,20.43,94.24,0,97.04,-0.52
nw_cut_3_0_4f_opt_disp_struct_18.xyz,Nucleus 13C :,2.475455,1.60431,0.684336,36.17,94.19,15.62,-1.31,236.92,264.06,271.72,-142.74,-251.79,-269.67,-1.31,15.62,94.19,0,95.5,-0.65
nw_cut_3_0_4f_opt_disp_struct_18.xyz,Nucleus 15C :,0.051589,0.265611,-1.80606,38.3,89.42,22.37,3.11,232.91,270.86,263.31,-143.52,-248.49,-260.17,3.11,22.37,89.42,0,86.31,-0.55
nw_cut_3_0_4f_opt_disp_struct_18.xyz,Nucleus 19C :,6.190818,-7.390033,2.014002,163.11,191.19,155.65,142.5,264.86,226.96,235.81,-71.59,-78.55,-88.14,142.5,155.65,191.19,0,48.69,-0.46
nw_cut_3_0_4f_opt_disp_struct_18.xyz,Nucleus 22C :,7.109548,-7.731314,2.49392,2.16,-92.91,94.63,4.76,186.62,251.59,270.79,-92.39,-345.58,-264.55,-92.91,4.76,94.63,0,187.54,0.04
nw_cut_3_0_4f_opt_disp_struct_18.xyz,Nucleus 5N :,6.360948,-6.417923,1.541472,123.31,51.65,184.49,133.8,292.37,338.49,328.88,-108.19,-203.1,-278.51,51.65,133.8,184.49,0,132.84,0.24
nw_cut_3_0_4f_opt_disp_struct_18.xyz,Nucleus 24N :,5.077152,-7.371217,3.021631,145.91,47.76,243.18,146.78,283.46,328.22,348.04,-279.86,-81.03,-161.11,47.76,146.78,243.18,0,195.42,0.01
nw_cut_3_0_4f_opt_disp_struct_18.xyz,Nucleus 23O :,4.961649,-8.20651,3.910357,-116.88,314.34,-242.83,-422.16,324.54,378.77,428.05,-10.61,-623.28,-848.11,-422.16,-242.83,314.34,0,736.5,-0.51
nw_cut_3_0_4f_opt_disp_struct_18.xyz,Nucleus 10F :,4.17519,-6.361835,2.876768,328.98,443.53,260.05,283.35,480.05,458.61,463.71,-20.17,-204.59,-190.69,260.05,283.35,443.53,0,183.48,-0.75
nw_cut_3_0_4f_opt_disp_struct_18.xyz,Nucleus 12F :,4.14087,-5.901127,1.988474,349.62,450.16,292.55,306.15,479.35,470.88,458.47,-20.76,-186.3,-152.79,292.55,306.15,450.16,0,157.61,-0.83
nw_cut_3_0_4f_opt_disp_struct_18.xyz,Nucleus 14F :,3.311576,-6.534033,3.354852,345.27,453.94,295.06,286.82,460.43,478.08,476.26,-22.79,-166.03,-190.14,286.82,295.06,453.94,0,167.12,-0.9
nw_cut_3_0_4f_opt_disp_struct_18.xyz,Nucleus 16F :,5.93866,-8.116481,1.233745,345.6,447.37,297.65,291.77,459.41,478.68,480.1,-32.24,-165.4,-183.76,291.77,297.65,447.37,0,155.6,-0.92
nw_cut_3_0_4f_opt_disp_struct_19.xyz,Nucleus 1H :,0.992927,-0.019378,-1.324582,29.18,35.35,23.5,28.7,40.88,25.81,28.52,-6.5,0.81,-1.97,23.5,28.7,35.35,0,11.85,-0.12
nw_cut_3_0_4f_opt_disp_struct_19.xyz,Nucleus 2H :,1.782855,0.623316,-1.720717,28.81,23.92,27.68,34.84,45.05,25.14,26.37,-11.15,2.14,-1.12,23.92,27.68,34.84,0,10.92,-0.31
nw_cut_3_0_4f_opt_disp_struct_19.xyz,Nucleus 6H :,1.209351,-1.047789,-1.63274,23.83,15.42,25.44,30.64,10.17,30.52,49.04,-18.8,5.41,-4.85,15.42,25.44,30.64,0,15.22,0.32
nw_cut_3_0_4f_opt_disp_struct_19.xyz,Nucleus 17H :,0.907907,0.105083,0.155016,24.28,20.65,25.52,26.67,44.42,26.8,30.33,-18.85,-6.08,-3.78,20.65,25.52,26.67,0,6.02,0.62
nw_cut_3_0_4f_opt_disp_struct_19.xyz,Nucleus 18H :,1.683949,0.921938,0.955162,28.77,34.95,27.52,23.84,41.68,31.89,26.75,0.01,-8.96,-5.05,23.84,27.52,34.95,0,11.11,-0.34
nw_cut_3_0_4f_opt_disp_struct_19.xyz,Nucleus 20H :,1.296802,0.752259,2.257238,29.65,34.73,27.91,26.3,38.55,14.2,-0.78,-4.28,27.69,13.55,26.3,27.91,34.73,0,8.43,-0.62
nw_cut_3_0_4f_opt_disp_struct_19.xyz,Nucleus 21H :,1.707274,1.199018,3.058867,29.86,25.77,30.13,33.68,43.88,31.22,20.83,-11.74,-0.51,5.89,25.77,30.13,33.68,0,7.91,0.1
nw_cut_3_0_4f_opt_disp_struct_19.xyz,Nucleus 25H :,0.273993,-0.162561,2.325043,27.09,32.35,26.41,22.52,33.49,49.06,55.0,-3.84,-21.23,-31.22,22.52,26.41,32.35,0,9.83,-0.21
nw_cut_3_0_4f_opt_disp_struct_19.xyz,Nucleus 26H :,0.003195,-0.587277,1.021738,27.24,34.25,23.97,23.49,31.44,47.87,41.0,-2.75,-20.87,-14.98,23.49,23.97,34.25,0,10.76,-0.91
nw_cut_3_0_4f_opt_disp_struct_19.xyz,Nucleus 27H :,-1.023864,-1.536495,0.833496,29.54,33.97,27.57,27.08,38.37,8.69,19.3,-6.17,20.18,8.25,27.08,27.57,33.97,0,6.89,-0.86
nw_cut_3_0_4f_opt_disp_struct_19.xyz,Nucleus 0C :,-1.324552,-1.974523,-0.398096,171.23,186.8,160.93,165.96,257.65,237.36,236.64,-76.84,-73.95,-67.17,160.93,165.96,186.8,0,25.87,-0.61
nw_cut_3_0_4f_opt_disp_struct_19.xyz,Nucleus 3C :,-1.732483,-2.024771,1.932067,61.49,147.44,54.32,-17.28,240.01,270.56,263.97,-92.59,-216.22,-281.25,-17.28,54.32,147.44,0,164.72,-0.13
nw_cut_3_0_4f_opt_disp_struct_19.xyz,Nucleus 4C :,-2.706166,-2.928344,1.744399,54.65,-28.53,126.81,65.68,272.89,256.14,258.56,-292.59,-130.63,-200.42,-28.53,65.68,126.81,0,155.34,0.21
nw_cut_3_0_4f_opt_disp_struct_19.xyz,Nucleus 7C :,-1.43964,-1.585278,3.213607,56.16,138.15,2.41,27.92,272.8,261.35,266.18,-123.41,-270.07,-238.38,2.41,27.92,138.15,0,135.74,-0.62
nw_cut_3_0_4f_opt_disp_struct_19.xyz,Nucleus 8C :,-2.131139,-2.065707,4.257766,62.93,158.85,26.65,3.3,236.31,262.37,266.82,-77.64,-235.82,-263.24,3.3,26.65,158.85,0,155.55,-0.7
nw_cut_3_0_4f_opt_disp_struct_19.xyz,Nucleus 9C :,-0.433125,-0.647751,3.42838,29.44,82.91,20.43,-15.03,237.07,267.97,268.25,-154.18,-247.59,-283.22,-15.03,20.43,82.91,0,97.94,-0.28
nw_cut_3_0_4f_opt_disp_struct_19.xyz,Nucleus 11C :,-0.146691,-0.21831,4.664467,37.29,94.22,20.44,-2.79,239.63,263.92,271.18,-145.41,-244.22,-273.24,-2.79,20.44,94.22,0,97.01,-0.52
nw_cut_3_0_4f_opt_disp_struct_19.xyz,Nucleus 13C :,2.475455,1.60431,0.684336,36.16,94.17,15.62,-1.3,236.91,264.05,271.6,-142.74,-251.74,-269.58,-1.3,15.62,94.17,0,95.47,-0.65
nw_cut_3_0_4f_opt_disp_struct_19.xyz,Nucleus 15C :,0.051589,0.265611,-1.80606,38.3,89.4,22.38,3.13,232.89,270.77,263.25,-143.52,-248.39,-260.1,3.13,22.38,89.4,0,86.27,-0.55
nw_cut_3_0_4f_opt_disp_struct_19.xyz,Nucleus 19C :,6.357274,-7.574792,2.039624,163.11,191.19,155.62,142.51,265.18,226.49,235.51,-71.72,-78.31,-87.84,142.51,155.62,191.19,0,48.68,-0.46
nw_cut_3_0_4f_opt_disp_struct_19.xyz,Nucleus 22C :,7.276004,-7.916073,2.519542,2.15,-92.94,94.64,4.74,185.82,251.51,270.94,-91.59,-345.51,-264.73,-92.94,4.74,94.64,0,187.58,0.04
nw_cut_3_0_4f_opt_disp_struct_19.xyz,Nucleus 5N :,6.527405,-6.602682,1.567094,123.34,51.69,184.48,133.84,292.35,338.47,328.81,-108.18,-203.05,-278.4,51.69,133.84,184.48,0,132.79,0.24
nw_cut_3_0_4f_opt_disp_struct_19.xyz,Nucleus 24N :,5.243609,-7.555976,3.047253,145.9,47.79,243.11,146.79,282.76,328.26,348.73,-279.88,-80.45,-161.74,47.79,146.79,243.11,0,195.32,0.01
nw_cut_3_0_4f_opt_disp_struct_19.xyz,Nucleus 23O :,5.128105,-8.391269,3.93598,-116.88,314.34,-242.83,-422.15,323.72,378.63,428.14,-9.8,-623.13,-848.2,-422.15,-242.83,314.34,0,736.49,-0.51
nw_cut_3_0_4f_opt_disp_struct_19.xyz,Nucleus 10F :,4.341647,-6.546594,2.90239,328.96,443.52,260.01,283.34,479.99,458.59,463.69,-20.17,-204.54,-190.7,260.01,283.34,443.52,0,183.51,-0.75
nw_cut_3_0_4f_opt_disp_struct_19.xyz,Nucleus 12F :,4.307326,-6.085885,2.014096,349.63,450.16,292.57,306.17,479.3,470.86,458.45,-20.75,-186.21,-152.74,292.57,306.17,450.16,0,157.59,-0.83
nw_cut_3_0_4f_opt_disp_struct_19.xyz,Nucleus 14F :,3.478033,-6.718791,3.380474,345.31,453.95,295.12,286.86,460.37,478.08,476.23,-22.76,-165.91,-190.09,286.86,295.12,453.95,0,167.09,-0.9
nw_cut_3_0_4f_opt_disp_struct_19.xyz,Nucleus 16F :,6.105117,-8.30124,1.259367,345.65,447.38,297.72,291.86,459.41,478.61,480.07,-32.2,-165.28,-183.65,291.86,297.72,447.38,0,155.52,-0.92
nw_cut_3_0_4f_opt_disp_struct_2.xyz,Nucleus 1H :,0.992927,-0.019378,-1.324582,29.11,35.41,23.44,28.47,41.41,25.68,28.45,-7.12,0.91,-2.01,23.44,28.47,35.41,0,11.97,-0.16
nw_cut_3_0_4f_opt_disp_struct_2.xyz,Nucleus 2H :,1.782855,0.623316,-1.720717,28.81,34.56,24.01,27.85,45.79,25.29,27.07,-12.12,1.29,-0.9,24.01,27.85,34.56,0,10.55,-0.27
nw_cut_3_0_4f_opt_disp_struct_2.xyz,Nucleus 6H :,1.209351,-1.047789,-1.63274,23.7,15.41,25.18,30.5,9.74,30.05,49.98,-20.01,6.06,-4.73,15.41,25.18,30.5,0,15.09,0.29
nw_cut_3_0_4f_opt_disp_struct_2.xyz,Nucleus 17H :,0.907907,0.105083,0.155016,24.19,20.58,25.53,26.46,44.62,26.75,30.5,-19.11,-5.97,-4.23,20.58,25.53,26.46,0,5.88,0.68
nw_cut_3_0_4f_opt_disp_struct_2.xyz,Nucleus 18H :,1.683949,0.921938,0.955162,28.73,35.11,27.38,23.7,41.94,32.16,27.32,-0.63,-9.08,-5.52,23.7,27.38,35.11,0,11.41,-0.35
nw_cut_3_0_4f_opt_disp_struct_2.xyz,Nucleus 20H :,1.296802,0.752259,2.257238,29.95,35.73,27.78,26.34,40.31,17.81,11.05,-4.75,9.79,15.63,26.34,27.78,35.73,0,9.39,-0.69
nw_cut_3_0_4f_opt_disp_struct_2.xyz,Nucleus 21H :,1.707274,1.199018,3.058867,30.37,25.27,32.15,33.69,23.82,35.61,39.21,-6.59,-2.85,1.92,25.27,32.15,33.69,0,8.42,0.63
nw_cut_3_0_4f_opt_disp_struct_2.xyz,Nucleus 25H :,0.273993,-0.162561,2.325043,28.7,38.87,21.05,26.19,52.94,32.07,35.85,-3.08,-13.81,-17.87,21.05,26.19,38.87,0,17.82,-0.42
nw_cut_3_0_4f_opt_disp_struct_2.xyz,Nucleus 26H :,0.003195,-0.587277,1.021738,28.48,36.41,26.51,22.51,24.79,37.75,39.89,0.19,-5.41,-11.78,22.51,26.51,36.41,0,13.9,-0.43
nw_cut_3_0_4f_opt_disp_struct_2.xyz,Nucleus 27H :,-1.023864,-1.536495,0.833496,29.8,34.32,28.22,26.86,38.26,19.12,22.06,-4.91,9.61,5.26,26.86,28.22,34.32,0,7.46,-0.64
nw_cut_3_0_4f_opt_disp_struct_2.xyz,Nucleus 0C :,-1.324552,-1.974523,-0.398096,171.23,186.74,160.77,166.18,258.57,237.45,237.92,-67.47,-74.6,-78.18,160.77,166.18,186.74,0,25.97,-0.58
nw_cut_3_0_4f_opt_disp_struct_2.xyz,Nucleus 3C :,-1.732483,-2.024771,1.932067,62.19,147.72,55.03,-16.17,241.16,273.29,264.86,-93.46,-218.22,-281.04,-16.17,55.03,147.72,0,163.89,-0.13
nw_cut_3_0_4f_opt_disp_struct_2.xyz,Nucleus 4C :,-2.706166,-2.928344,1.744399,53.68,-29.71,127.15,63.59,274.3,257.12,257.72,-293.96,-130.4,-203.74,-29.71,63.59,127.15,0,156.86,0.19
nw_cut_3_0_4f_opt_disp_struct_2.xyz,Nucleus 7C :,-1.43964,-1.585278,3.213607,55.24,139.12,0.33,26.28,276.45,268.64,262.12,-124.64,-275.89,-240.95,0.33,26.28,139.12,0,138.79,-0.63
nw_cut_3_0_4f_opt_disp_struct_2.xyz,Nucleus 8C :,-2.131139,-2.065707,4.257766,63.58,159.99,26.81,3.94,236.88,270.65,262.92,-77.2,-237.42,-265.09,3.94,26.81,159.99,0,156.05,-0.71
nw_cut_3_0_4f_opt_disp_struct_2.xyz,Nucleus 9C :,-0.433125,-0.647751,3.42838,30.15,84.02,20.52,-14.09,239.87,269.82,273.34,-155.93,-249.25,-287.39,-14.09,20.52,84.02,0,98.11,-0.29
nw_cut_3_0_4f_opt_disp_struct_2.xyz,Nucleus 11C :,-0.146691,-0.21831,4.664467,37.36,95.24,20.03,-3.18,239.98,264.76,275.45,-144.9,-245.19,-278.01,-3.18,20.03,95.24,0,98.42,-0.53
nw_cut_3_0_4f_opt_disp_struct_2.xyz,Nucleus 13C :,2.475455,1.60431,0.684336,36.43,95.27,15.56,-1.55,237.13,264.19,275.32,-142.04,-252.26,-273.06,-1.55,15.56,95.27,0,96.82,-0.65
nw_cut_3_0_4f_opt_disp_struct_2.xyz,Nucleus 15C :,0.051589,0.265611,-1.80606,37.08,90.42,20.24,0.58,233.7,273.82,265.21,-143.35,-252.61,-265.52,0.58,20.24,90.42,0,89.84,-0.56
nw_cut_3_0_4f_opt_disp_struct_2.xyz,Nucleus 19C :,3.527517,-4.433894,1.604043,163.55,191.55,156.9,142.19,259.35,234.82,241.97,-67.12,-83.91,-94.46,142.19,156.9,191.55,0,49.36,-0.4
nw_cut_3_0_4f_opt_disp_struct_2.xyz,Nucleus 22C :,4.446247,-4.775175,2.083961,2.52,-91.24,94.19,4.6,198.46,252.26,270.3,-104.37,-345.88,-263.21,-91.24,4.6,94.19,0,185.43,0.03
nw_cut_3_0_4f_opt_disp_struct_2.xyz,Nucleus 5N :,3.697647,-3.461783,1.131513,121.15,47.91,184.82,130.73,292.29,339.33,329.74,-108.51,-282.68,-206.7,47.91,130.73,184.82,0,136.91,0.21
nw_cut_3_0_4f_opt_disp_struct_2.xyz,Nucleus 24N :,2.413851,-4.415078,2.611672,146.65,45.14,245.92,148.89,287.64,326.02,344.83,-280.71,-91.63,-146.22,45.14,148.89,245.92,0,200.78,0.03
nw_cut_3_0_4f_opt_disp_struct_2.xyz,Nucleus 23O :,2.298348,-5.250371,3.500398,-116.19,314.76,-242.15,-421.17,339.59,380.76,426.71,-25.59,-623.92,-846.11,-421.17,-242.15,314.76,0,735.93,-0.51
nw_cut_3_0_4f_opt_disp_struct_2.xyz,Nucleus 10F :,1.511889,-3.405695,2.466809,329.04,443.5,260.81,282.8,478.98,457.48,465.07,-20.95,-205.07,-188.4,260.81,282.8,443.5,0,182.69,-0.76
nw_cut_3_0_4f_opt_disp_struct_2.xyz,Nucleus 12F :,1.477569,-2.944987,1.578515,347.64,449.76,290.02,303.13,479.83,471.86,458.04,-22.47,-188.91,-155.45,290.02,303.13,449.76,0,159.74,-0.84
nw_cut_3_0_4f_opt_disp_struct_2.xyz,Nucleus 14F :,0.648275,-3.577893,2.944893,343.8,453.22,293.51,284.68,460.59,475.93,480.79,-26.76,-167.85,-191.29,284.68,293.51,453.22,0,168.54,-0.9
nw_cut_3_0_4f_opt_disp_struct_2.xyz,Nucleus 16F :,3.275359,-5.160341,0.823785,341.01,446.54,283.91,292.58,458.15,485.2,477.96,-38.5,-172.7,-187.08,283.91,292.58,446.54,0,162.63,-0.89
nw_cut_3_0_4f_opt_disp_struct_3.xyz,Nucleus 1H :,0.992927,-0.019378,-1.324582,29.12,35.4,23.45,28.5,41.37,25.75,28.4,-7.1,0.87,-1.96,23.45,28.5,35.4,0,11.95,-0.16
nw_cut_3_0_4f_opt_disp_struct_3.xyz,Nucleus 2H :,1.782855,0.623316,-1.720717,28.81,34.59,24.03,27.82,45.72,25.37,26.97,-12.02,1.36,-0.96,24.03,27.82,34.59,0,10.56,-0.28
nw_cut_3_0_4f_opt_disp_struct_3.xyz,Nucleus 6H :,1.209351,-1.047789,-1.63274,23.72,15.43,25.21,30.51,9.83,30.13,49.94,-19.96,5.97,-4.76,15.43,25.21,30.51,0,15.08,0.3
nw_cut_3_0_4f_opt_disp_struct_3.xyz,Nucleus 17H :,0.907907,0.105083,0.155016,24.2,20.6,25.53,26.48,44.65,26.81,30.48,-19.15,-6.01,-4.17,20.6,25.53,26.48,0,5.88,0.68
nw_cut_3_0_4f_opt_disp_struct_3.xyz,Nucleus 18H :,1.683949,0.921938,0.955162,28.73,35.09,27.39,23.72,41.91,32.11,27.24,-0.59,-9.02,-5.45,23.72,27.39,35.09,0,11.37,-0.35
nw_cut_3_0_4f_opt_disp_struct_3.xyz,Nucleus 20H :,1.296802,0.752259,2.257238,29.9,35.6,27.78,26.33,40.07,17.65,10.4,-4.66,9.96,16.3,26.33,27.78,35.6,0,9.27,-0.69
nw_cut_3_0_4f_opt_disp_struct_3.xyz,Nucleus 21H :,1.707274,1.199018,3.058867,30.3,25.33,31.96,33.6,23.76,39.43,35.14,-6.8,-2.65,2.01,25.33,31.96,33.6,0,8.27,0.6
nw_cut_3_0_4f_opt_disp_struct_3.xyz,Nucleus 25H :,0.273993,-0.162561,2.325043,28.52,37.75,21.45,26.37,51.8,32.6,37.34,-3.56,-14.9,-17.73,21.45,26.37,37.75,0,16.3,-0.4
nw_cut_3_0_4f_opt_disp_struct_3.xyz,Nucleus 26H :,0.003195,-0.587277,1.021738,28.34,35.85,26.35,22.81,26.02,38.9,38.17,-0.31,-5.8,-11.97,22.81,26.35,35.85,0,13.04,-0.46
nw_cut_3_0_4f_opt_disp_struct_3.xyz,Nucleus 27H :,-1.023864,-1.536495,0.833496,29.77,34.26,28.16,26.88,38.15,18.48,21.88,-4.92,10.24,5.47,26.88,28.16,34.26,0,7.38,-0.65
nw_cut_3_0_4f_opt_disp_struct_3.xyz,Nucleus 0C :,-1.324552,-1.974523,-0.398096,171.22,186.71,160.78,166.16,258.4,237.48,237.75,-67.47,-74.55,-77.94,160.78,166.16,186.71,0,25.93,-0.59
nw_cut_3_0_4f_opt_disp_struct_3.xyz,Nucleus 3C :,-1.732483,-2.024771,1.932067,62.1,147.71,54.97,-16.38,241.07,273.16,264.69,-93.39,-218.11,-281.11,-16.38,54.97,147.71,0,164.09,-0.13
nw_cut_3_0_4f_opt_disp_struct_3.xyz,Nucleus 4C :,-2.706166,-2.928344,1.744399,53.85,-29.51,127.13,63.92,274.12,257.32,257.46,-293.7,-130.35,-203.31,-29.51,63.92,127.13,0,156.64,0.19
nw_cut_3_0_4f_opt_disp_struct_3.xyz,Nucleus 7C :,-1.43964,-1.585278,3.213607,55.61,139.01,1.04,26.77,276.17,267.86,262.18,-124.21,-274.93,-240.24,1.04,26.77,139.01,0,137.97,-0.63
nw_cut_3_0_4f_opt_disp_struct_3.xyz,Nucleus 8C :,-2.131139,-2.065707,4.257766,63.54,159.76,26.91,3.95,236.65,270.56,263.1,-77.29,-237.6,-264.79,3.95,26.91,159.76,0,155.81,-0.71
nw_cut_3_0_4f_opt_disp_struct_3.xyz,Nucleus 9C :,-0.433125,-0.647751,3.42838,30.12,83.83,20.57,-14.05,239.22,270.05,272.88,-155.58,-249.4,-286.82,-14.05,20.57,83.83,0,97.88,-0.29
nw_cut_3_0_4f_opt_disp_struct_3.xyz,Nucleus 11C :,-0.146691,-0.21831,4.664467,37.46,95.1,20.2,-2.92,239.73,264.75,275.57,-144.88,-245.1,-277.7,-2.92,20.2,95.1,0,98.02,-0.53
nw_cut_3_0_4f_opt_disp_struct_3.xyz,Nucleus 13C :,2.475455,1.60431,0.684336,36.42,95.1,15.65,-1.48,237.14,264.1,275.21,-142.1,-252.21,-272.87,-1.48,15.65,95.1,0,96.58,-0.65
nw_cut_3_0_4f_opt_disp_struct_3.xyz,Nucleus 15C :,0.051589,0.265611,-1.80606,37.51,90.32,20.84,1.36,233.41,273.54,264.79,-143.13,-252.05,-264.05,1.36,20.84,90.32,0,88.96,-0.56
nw_cut_3_0_4f_opt_disp_struct_3.xyz,Nucleus 19C :,3.693973,-4.618653,1.629665,163.48,191.5,156.7,142.23,259.71,234.29,241.46,-67.55,-83.43,-94.05,142.23,156.7,191.5,0,49.27,-0.41
nw_cut_3_0_4f_opt_disp_struct_3.xyz,Nucleus 22C :,4.612703,-4.959934,2.109583,2.51,-91.52,94.19,4.86,197.65,252.16,270.12,-103.58,-345.95,-262.86,-91.52,4.86,94.19,0,185.71,0.04
nw_cut_3_0_4f_opt_disp_struct_3.xyz,Nucleus 5N :,3.864104,-3.646542,1.157135,121.62,48.72,184.83,131.3,292.24,339.26,329.68,-108.42,-281.86,-206.06,48.72,131.3,184.83,0,136.11,0.21
nw_cut_3_0_4f_opt_disp_struct_3.xyz,Nucleus 24N :,2.580308,-4.599836,2.637294,147.0,46.78,246.16,148.06,287.66,325.72,344.35,-279.09,-89.64,-148.01,46.78,148.06,246.16,0,199.38,0.02
nw_cut_3_0_4f_opt_disp_struct_3.xyz,Nucleus 23O :,2.464804,-5.435129,3.526021,-116.72,314.63,-242.79,-421.99,338.32,380.6,426.77,-24.44,-624.44,-846.95,-421.99,-242.79,314.63,0,736.62,-0.51
nw_cut_3_0_4f_opt_disp_struct_3.xyz,Nucleus 10F :,1.678346,-3.590454,2.492431,329.19,443.53,261.03,283.01,479.3,457.73,464.8,-20.88,-205.06,-188.31,261.03,283.01,443.53,0,182.5,-0.76
nw_cut_3_0_4f_opt_disp_struct_3.xyz,Nucleus 12F :,1.644025,-3.129746,1.604137,348.16,449.92,290.54,304.02,479.82,471.79,458.09,-22.18,-188.48,-154.57,290.54,304.02,449.92,0,159.38,-0.83
nw_cut_3_0_4f_opt_disp_struct_3.xyz,Nucleus 14F :,0.814732,-3.762652,2.970515,344.09,453.35,293.82,285.11,460.5,475.86,480.62,-26.25,-167.49,-190.95,285.11,293.82,453.35,0,168.24,-0.9
nw_cut_3_0_4f_opt_disp_struct_3.xyz,Nucleus 16F :,3.441816,-5.3451,0.849408,341.99,446.73,285.7,293.53,458.29,484.58,478.22,-37.68,-170.88,-186.57,285.7,293.53,446.73,0,161.03,-0.9
nw_cut_3_0_4f_opt_disp_struct_4.xyz,Nucleus 1H :,0.992927,-0.019378,-1.324582,29.12,35.38,23.46,28.52,41.33,25.78,28.37,-7.05,0.85,-1.92,23.46,28.52,35.38,0,11.92,-0.15
nw_cut_3_0_4f_opt_disp_struct_4.xyz,Nucleus 2H :,1.782855,0.623316,-1.720717,28.82,34.62,24.04,27.8,45.66,25.4,26.88,-11.93,1.44,-1.0,24.04,27.8,34.62,0,10.58,-0.29
nw_cut_3_0_4f_opt_disp_struct_4.xyz,Nucleus 6H :,1.209351,-1.047789,-1.63274,23.74,15.45,25.24,30.52,9.9,30.21,49.9,-19.91,5.89,-4.79,15.45,25.24,30.52,0,15.07,0.3
nw_cut_3_0_4f_opt_disp_struct_4.xyz,Nucleus 17H :,0.907907,0.105083,0.155016,24.22,20.62,25.52,26.51,44.66,26.83,30.45,-19.17,-6.03,-4.1,20.62,25.52,26.51,0,5.89,0.66
nw_cut_3_0_4f_opt_disp_struct_4.xyz,Nucleus 18H :,1.683949,0.921938,0.955162,28.74,35.07,27.4,23.74,41.87,32.06,27.16,-0.53,-8.96,-5.39,23.74,27.4,35.07,0,11.33,-0.35
nw_cut_3_0_4f_opt_disp_struct_4.xyz,Nucleus 20H :,1.296802,0.752259,2.257238,29.87,35.49,27.79,26.33,39.86,17.49,9.74,-4.58,10.12,16.96,26.33,27.79,35.49,0,9.16,-0.68
nw_cut_3_0_4f_opt_disp_struct_4.xyz,Nucleus 21H :,1.707274,1.199018,3.058867,30.24,25.39,31.76,33.56,23.68,39.69,34.71,-7.06,-2.44,2.14,25.39,31.76,33.56,0,8.17,0.56
nw_cut_3_0_4f_opt_disp_struct_4.xyz,Nucleus 25H :,0.273993,-0.162561,2.325043,28.32,36.83,21.69,26.43,50.89,33.06,38.81,-3.9,-16.17,-17.74,21.69,26.43,36.83,0,15.14,-0.37
nw_cut_3_0_4f_opt_disp_struct_4.xyz,Nucleus 26H :,0.003195,-0.587277,1.021738,28.17,35.45,22.97,26.1,27.26,39.78,37.05,-0.88,-6.38,-12.31,22.97,26.1,35.45,0,12.48,-0.5
nw_cut_3_0_4f_opt_disp_struct_4.xyz,Nucleus 27H :,-1.023864,-1.536495,0.833496,29.74,34.21,28.1,26.9,38.08,17.84,21.71,-4.94,10.86,5.65,26.9,28.1,34.21,0,7.31,-0.67
nw_cut_3_0_4f_opt_disp_struct_4.xyz,Nucleus 0C :,-1.324552,-1.974523,-0.398096,171.21,186.7,160.8,166.14,258.26,237.42,237.64,-77.75,-74.48,-67.46,160.8,166.14,186.7,0,25.9,-0.59
nw_cut_3_0_4f_opt_disp_struct_4.xyz,Nucleus 3C :,-1.732483,-2.024771,1.932067,62.02,147.7,54.9,-16.54,240.91,272.93,264.51,-93.24,-217.93,-281.12,-16.54,54.9,147.7,0,164.24,-0.13
nw_cut_3_0_4f_opt_disp_struct_4.xyz,Nucleus 4C :,-2.706166,-2.928344,1.744399,53.99,-29.35,127.11,64.2,273.96,257.45,257.31,-293.49,-130.33,-202.93,-29.35,64.2,127.11,0,156.46,0.2
nw_cut_3_0_4f_opt_disp_struct_4.xyz,Nucleus 7C :,-1.43964,-1.585278,3.213607,55.81,138.87,1.48,27.08,275.9,262.2,267.15,-123.88,-274.25,-239.69,1.48,27.08,138.87,0,137.39,-0.63
nw_cut_3_0_4f_opt_disp_struct_4.xyz,Nucleus 8C :,-2.131139,-2.065707,4.257766,63.47,159.61,26.92,3.87,236.38,270.48,263.14,-77.23,-237.67,-264.69,3.87,26.92,159.61,0,155.74,-0.7
nw_cut_3_0_4f_opt_disp_struct_4.xyz,Nucleus 9C :,-0.433125,-0.647751,3.42838,30.05,83.68,20.6,-14.12,238.71,269.97,272.45,-155.25,-249.32,-286.4,-14.12,20.6,83.68,0,97.8,-0.29
nw_cut_3_0_4f_opt_disp_struct_4.xyz,Nucleus 11C :,-0.146691,-0.21831,4.664467,37.48,94.97,20.29,-2.81,239.7,264.65,275.46,-145.02,-244.96,-277.37,-2.81,20.29,94.97,0,97.78,-0.53
nw_cut_3_0_4f_opt_disp_struct_4.xyz,Nucleus 13C :,2.475455,1.60431,0.684336,36.4,94.96,15.67,-1.43,237.15,264.08,275.18,-142.21,-252.27,-272.72,-1.43,15.67,94.96,0,96.39,-0.65
nw_cut_3_0_4f_opt_disp_struct_4.xyz,Nucleus 15C :,0.051589,0.265611,-1.80606,37.75,90.19,21.24,1.81,233.25,273.4,264.34,-143.07,-251.71,-262.98,1.81,21.24,90.19,0,88.38,-0.56
nw_cut_3_0_4f_opt_disp_struct_4.xyz,Nucleus 19C :,3.86043,-4.803411,1.655288,163.42,191.45,156.55,142.27,260.1,233.76,240.97,-67.98,-82.96,-93.61,142.27,156.55,191.45,0,49.18,-0.42
nw_cut_3_0_4f_opt_disp_struct_4.xyz,Nucleus 22C :,4.779159,-5.144692,2.135206,2.5,-91.74,94.23,5.01,196.92,252.06,269.94,-102.82,-345.99,-262.6,-91.74,5.01,94.23,0,185.97,0.04
nw_cut_3_0_4f_opt_disp_struct_4.xyz,Nucleus 5N :,4.03056,-3.831301,1.182758,121.93,49.27,184.8,131.72,292.29,339.17,329.64,-108.41,-205.57,-281.33,49.27,131.72,184.8,0,135.53,0.22
nw_cut_3_0_4f_opt_disp_struct_4.xyz,Nucleus 24N :,2.746764,-4.784595,2.662917,146.95,47.43,245.96,147.47,287.9,325.96,344.08,-278.76,-88.51,-149.8,47.43,147.47,245.96,0,198.53,0.01
nw_cut_3_0_4f_opt_disp_struct_4.xyz,Nucleus 23O :,2.63126,-5.619888,3.551643,-117.04,314.45,-243.09,-422.48,336.96,380.49,426.87,-23.24,-624.69,-847.5,-422.48,-243.09,314.45,0,736.93,-0.51
nw_cut_3_0_4f_opt_disp_struct_4.xyz,Nucleus 10F :,1.844802,-3.775213,2.518054,329.27,443.61,261.06,283.15,479.54,457.97,464.56,-20.71,-205.06,-188.48,261.06,283.15,443.61,0,182.55,-0.76
nw_cut_3_0_4f_opt_disp_struct_4.xyz,Nucleus 12F :,1.810481,-3.314504,1.62976,348.51,450.01,290.93,304.59,479.79,471.75,458.14,-21.95,-188.16,-154.04,290.93,304.59,450.01,0,159.08,-0.83
nw_cut_3_0_4f_opt_disp_struct_4.xyz,Nucleus 14F :,0.981188,-3.94741,2.996138,344.28,453.48,293.96,285.39,460.48,475.98,480.27,-25.78,-167.35,-190.78,285.39,293.96,453.48,0,168.09,-0.9
nw_cut_3_0_4f_opt_disp_struct_4.xyz,Nucleus 16F :,3.608272,-5.529859,0.87503,342.67,446.84,286.93,294.25,458.44,483.97,478.43,-36.95,-169.68,-186.17,286.93,294.25,446.84,0,159.91,-0.91
nw_cut_3_0_4f_opt_disp_struct_5.xyz,Nucleus 1H :,0.992927,-0.019378,-1.324582,29.13,35.37,23.48,28.54,41.29,25.8,28.37,-7.0,0.83,-1.9,23.48,28.54,35.37,0,11.89,-0.15
nw_cut_3_0_4f_opt_disp_struct_5.xyz,Nucleus 2H :,1.782855,0.623316,-1.720717,28.82,34.65,24.04,27.78,45.62,25.41,26.82,-11.85,1.51,-1.04,24.04,27.78,34.65,0,10.61,-0.29
nw_cut_3_0_4f_opt_disp_struct_5.xyz,Nucleus 6H :,1.209351,-1.047789,-1.63274,23.75,15.47,25.27,30.52,9.97,30.28,49.86,-19.85,5.82,-4.82,15.47,25.27,30.52,0,15.05,0.3
nw_cut_3_0_4f_opt_disp_struct_5.xyz,Nucleus 17H :,0.907907,0.105083,0.155016,24.23,20.63,25.52,26.53,44.67,26.84,30.44,-19.18,-6.04,-4.06,20.63,25.52,26.53,0,5.9,0.66
nw_cut_3_0_4f_opt_disp_struct_5.xyz,Nucleus 18H :,1.683949,0.921938,0.955162,28.74,35.05,27.41,23.76,41.83,32.03,27.09,-0.46,-8.92,-5.35,23.76,27.41,35.05,0,11.29,-0.35
nw_cut_3_0_4f_opt_disp_struct_5.xyz,Nucleus 20H :,1.296802,0.752259,2.257238,29.83,35.38,27.8,26.32,39.68,17.34,9.09,-4.52,10.28,17.63,26.32,27.8,35.38,0,9.06,-0.67
nw_cut_3_0_4f_opt_disp_struct_5.xyz,Nucleus 21H :,1.707274,1.199018,3.058867,30.18,25.44,31.56,33.55,23.59,39.96,34.32,-7.36,-2.25,2.29,25.44,31.56,33.55,0,8.11,0.51
nw_cut_3_0_4f_opt_disp_struct_5.xyz,Nucleus 25H :,0.273993,-0.162561,2.325043,28.12,36.07,21.85,26.45,50.21,33.44,40.21,-4.14,-17.45,-17.9,21.85,26.45,36.07,0,14.22,-0.35
nw_cut_3_0_4f_opt_disp_struct_5.xyz,Nucleus 26H :,0.003195,-0.587277,1.021738,28.02,35.17,23.07,25.82,40.65,36.11,28.44,-1.37,-7.06,-12.71,23.07,25.82,35.17,0,12.1,-0.55
nw_cut_3_0_4f_opt_disp_struct_5.xyz,Nucleus 27H :,-1.023864,-1.536495,0.833496,29.71,34.17,28.04,26.92,38.03,17.21,21.56,-4.99,11.48,5.83,26.92,28.04,34.17,0,7.25,-0.69
nw_cut_3_0_4f_opt_disp_struct_5.xyz,Nucleus 0C :,-1.324552,-1.974523,-0.398096,171.21,186.7,160.81,166.12,258.17,237.59,237.32,-77.61,-74.4,-67.43,160.81,166.12,186.7,0,25.89,-0.59
nw_cut_3_0_4f_opt_disp_struct_5.xyz,Nucleus 3C :,-1.732483,-2.024771,1.932067,61.95,147.69,54.82,-16.66,240.74,272.66,264.37,-93.09,-217.72,-281.12,-16.66,54.82,147.69,0,164.35,-0.13
nw_cut_3_0_4f_opt_disp_struct_5.xyz,Nucleus 4C :,-2.706166,-2.928344,1.744399,54.1,-29.22,127.08,64.44,273.81,257.46,257.29,-293.31,-130.34,-202.61,-29.22,64.44,127.08,0,156.3,0.2
nw_cut_3_0_4f_opt_disp_struct_5.xyz,Nucleus 7C :,-1.43964,-1.585278,3.213607,55.93,138.76,1.74,27.28,275.66,262.1,266.73,-123.65,-273.76,-239.31,1.74,27.28,138.76,0,137.02,-0.63
nw_cut_3_0_4f_opt_disp_struct_5.xyz,Nucleus 8C :,-2.131139,-2.065707,4.257766,63.38,159.49,26.89,3.77,236.27,270.32,263.13,-77.25,-237.66,-264.67,3.77,26.89,159.49,0,155.72,-0.7
nw_cut_3_0_4f_opt_disp_struct_5.xyz,Nucleus 9C :,-0.433125,-0.647751,3.42838,29.97,83.56,20.6,-14.24,238.41,269.73,272.03,-155.04,-249.11,-286.1,-14.24,20.6,83.56,0,97.8,-0.29
nw_cut_3_0_4f_opt_disp_struct_5.xyz,Nucleus 11C :,-0.146691,-0.21831,4.664467,37.47,94.85,20.33,-2.77,239.78,264.55,275.12,-145.19,-244.85,-276.99,-2.77,20.33,94.85,0,97.62,-0.53
nw_cut_3_0_4f_opt_disp_struct_5.xyz,Nucleus 13C :,2.475455,1.60431,0.684336,36.36,94.83,15.67,-1.42,237.12,264.11,275.03,-142.31,-252.35,-272.52,-1.42,15.67,94.83,0,96.25,-0.64
nw_cut_3_0_4f_opt_disp_struct_5.xyz,Nucleus 15C :,0.051589,0.265611,-1.80606,37.9,90.08,21.52,2.1,233.14,273.24,264.04,-143.06,-251.4,-262.26,2.1,21.52,90.08,0,87.98,-0.56
nw_cut_3_0_4f_opt_disp_struct_5.xyz,Nucleus 19C :,4.026886,-4.98817,1.68091,163.38,191.41,156.43,142.3,260.5,233.23,240.51,-68.39,-82.53,-93.18,142.3,156.43,191.41,0,49.11,-0.42
nw_cut_3_0_4f_opt_disp_struct_5.xyz,Nucleus 22C :,4.945615,-5.329451,2.160828,2.48,-91.92,94.27,5.09,196.23,252.01,269.83,-102.11,-346.02,-262.5,-91.92,5.09,94.27,0,186.19,0.04
nw_cut_3_0_4f_opt_disp_struct_5.xyz,Nucleus 5N :,4.197016,-4.01606,1.20838,122.18,49.71,184.77,132.07,292.38,339.08,329.61,-108.42,-205.18,-280.92,49.71,132.07,184.77,0,135.06,0.22
nw_cut_3_0_4f_opt_disp_struct_5.xyz,Nucleus 24N :,2.91322,-4.969354,2.688539,146.83,47.7,245.63,147.15,288.13,326.32,343.92,-278.85,-87.74,-151.31,47.7,147.15,245.63,0,197.93,0.0
nw_cut_3_0_4f_opt_disp_struct_5.xyz,Nucleus 23O :,2.797717,-5.804647,3.577266,-117.19,314.33,-243.22,-422.69,335.58,380.39,427.0,-21.95,-624.79,-847.8,-422.69,-243.22,314.33,0,737.02,-0.51
nw_cut_3_0_4f_opt_disp_struct_5.xyz,Nucleus 10F :,2.011258,-3.959971,2.543676,329.3,443.66,261.01,283.24,479.74,458.18,464.4,-20.58,-205.07,-188.77,261.01,283.24,443.66,0,182.65,-0.76
nw_cut_3_0_4f_opt_disp_struct_5.xyz,Nucleus 12F :,1.976938,-3.499263,1.655382,348.77,450.07,291.25,304.99,479.77,471.69,458.21,-21.74,-187.92,-153.7,291.25,304.99,450.07,0,158.82,-0.83
nw_cut_3_0_4f_opt_disp_struct_5.xyz,Nucleus 14F :,1.147644,-4.132169,3.02176,344.4,453.57,294.04,285.59,460.52,476.23,479.74,-25.32,-167.29,-190.69,285.59,294.04,453.57,0,167.98,-0.9
nw_cut_3_0_4f_opt_disp_struct_5.xyz,Nucleus 16F :,3.774728,-5.714618,0.900653,343.21,446.94,287.86,294.84,458.62,483.33,478.62,-36.23,-168.85,-185.85,287.86,294.84,446.94,0,159.08,-0.91
nw_cut_3_0_4f_opt_disp_struct_6.xyz,Nucleus 1H :,0.992927,-0.019378,-1.324582,29.14,35.36,23.49,28.56,41.24,25.82,28.39,-6.95,0.81,-1.9,23.49,28.56,35.36,0,11.87,-0.15
nw_cut_3_0_4f_opt_disp_struct_6.xyz,Nucleus 2H :,1.782855,0.623316,-1.720717,28.82,34.67,24.04,27.76,45.59,25.42,26.76,-11.78,1.57,-1.08,24.04,27.76,34.67,0,10.63,-0.3
nw_cut_3_0_4f_opt_disp_struct_6.xyz,Nucleus 6H :,1.209351,-1.047789,-1.63274,23.76,15.47,25.29,30.53,10.02,30.34,49.82,-19.78,5.75,-4.85,15.47,25.29,30.53,0,15.06,0.3
nw_cut_3_0_4f_opt_disp_struct_6.xyz,Nucleus 17H :,0.907907,0.105083,0.155016,24.23,20.64,25.51,26.54,44.66,26.85,30.43,-19.17,-6.05,-4.02,20.64,25.51,26.54,0,5.9,0.65
nw_cut_3_0_4f_opt_disp_struct_6.xyz,Nucleus 18H :,1.683949,0.921938,0.955162,28.74,35.04,27.42,23.77,41.8,32.02,27.04,-0.4,-8.9,-5.32,23.77,27.42,35.04,0,11.27,-0.35
nw_cut_3_0_4f_opt_disp_struct_6.xyz,Nucleus 20H :,1.296802,0.752259,2.257238,29.81,35.3,27.81,26.32,39.53,17.17,8.42,-4.47,10.46,18.31,26.32,27.81,35.3,0,8.98,-0.67
nw_cut_3_0_4f_opt_disp_struct_6.xyz,Nucleus 21H :,1.707274,1.199018,3.058867,30.14,25.48,31.38,33.55,23.5,40.25,33.96,-7.67,-2.06,2.44,25.48,31.38,33.55,0,8.07,0.46
nw_cut_3_0_4f_opt_disp_struct_6.xyz,Nucleus 25H :,0.273993,-0.162561,2.325043,27.95,35.44,21.96,26.46,33.69,49.73,41.53,-4.28,-18.87,-17.94,21.96,26.46,35.44,0,13.48,-0.33
nw_cut_3_0_4f_opt_disp_struct_6.xyz,Nucleus 26H :,0.003195,-0.587277,1.021738,27.89,34.96,23.15,25.55,41.41,35.37,29.6,-1.76,-7.85,-13.12,23.15,25.55,34.96,0,11.81,-0.59
nw_cut_3_0_4f_opt_disp_struct_6.xyz,Nucleus 27H :,-1.023864,-1.536495,0.833496,29.69,34.13,27.99,26.94,38.01,16.59,21.42,-5.05,12.11,5.99,26.94,27.99,34.13,0,7.19,-0.71
nw_cut_3_0_4f_opt_disp_struct_6.xyz,Nucleus 0C :,-1.324552,-1.974523,-0.398096,171.21,186.71,160.82,166.11,258.1,237.54,237.23,-77.5,-74.33,-67.4,160.82,166.11,186.71,0,25.89,-0.59
nw_cut_3_0_4f_opt_disp_struct_6.xyz,Nucleus 3C :,-1.732483,-2.024771,1.932067,61.88,147.67,54.75,-16.77,240.6,272.38,264.28,-92.97,-217.52,-281.13,-16.77,54.75,147.67,0,164.44,-0.13
nw_cut_3_0_4f_opt_disp_struct_6.xyz,Nucleus 4C :,-2.706166,-2.928344,1.744399,54.2,-29.1,127.05,64.64,273.66,257.4,257.38,-293.17,-130.36,-202.32,-29.1,64.64,127.05,0,156.15,0.2
nw_cut_3_0_4f_opt_disp_struct_6.xyz,Nucleus 7C :,-1.43964,-1.585278,3.213607,56.0,138.66,1.91,27.42,275.36,262.0,266.5,-123.52,-273.31,-239.03,1.91,27.42,138.66,0,136.75,-0.63
nw_cut_3_0_4f_opt_disp_struct_6.xyz,Nucleus 8C :,-2.131139,-2.065707,4.257766,63.3,159.39,26.84,3.67,236.26,270.03,263.09,-77.32,-237.55,-264.61,3.67,26.84,159.39,0,155.72,-0.7
nw_cut_3_0_4f_opt_disp_struct_6.xyz,Nucleus 9C :,-0.433125,-0.647751,3.42838,29.89,83.45,20.59,-14.37,238.22,269.44,271.59,-154.89,-248.86,-285.82,-14.37,20.59,83.45,0,97.82,-0.29
nw_cut_3_0_4f_opt_disp_struct_6.xyz,Nucleus 11C :,-0.146691,-0.21831,4.664467,37.45,94.75,20.35,-2.76,239.87,264.46,274.65,-145.32,-244.75,-276.56,-2.76,20.35,94.75,0,97.51,-0.53
nw_cut_3_0_4f_opt_disp_struct_6.xyz,Nucleus 13C :,2.475455,1.60431,0.684336,36.32,94.73,15.65,-1.42,237.12,264.12,274.74,-142.41,-252.39,-272.23,-1.42,15.65,94.73,0,96.15,-0.64
nw_cut_3_0_4f_opt_disp_struct_6.xyz,Nucleus 15C :,0.051589,0.265611,-1.80606,38.0,89.97,21.72,2.32,233.08,273.0,263.85,-143.1,-251.03,-261.78,2.32,21.72,89.97,0,87.65,-0.56
nw_cut_3_0_4f_opt_disp_struct_6.xyz,Nucleus 19C :,4.193342,-5.172929,1.706532,163.34,191.38,156.32,142.33,260.88,232.72,240.07,-68.76,-82.12,-92.76,142.33,156.32,191.38,0,49.05,-0.43
nw_cut_3_0_4f_opt_disp_struct_6.xyz,Nucleus 22C :,5.112072,-5.51421,2.18645,2.45,-92.06,94.31,5.1,195.55,252.02,269.78,-101.41,-346.05,-262.55,-92.06,5.1,94.31,0,186.37,0.04
nw_cut_3_0_4f_opt_disp_struct_6.xyz,Nucleus 5N :,4.363473,-4.200818,1.234003,122.39,50.06,184.74,132.36,292.46,339.0,329.57,-108.43,-204.87,-280.57,50.06,132.36,184.74,0,134.68,0.22
nw_cut_3_0_4f_opt_disp_struct_6.xyz,Nucleus 24N :,3.079677,-5.154112,2.714161,146.67,47.76,245.29,146.96,288.27,326.66,343.83,-279.05,-87.15,-152.54,47.76,146.96,245.29,0,197.53,0.0
nw_cut_3_0_4f_opt_disp_struct_6.xyz,Nucleus 23O :,2.964173,-5.989405,3.602888,-117.23,314.26,-243.23,-422.71,334.26,380.28,427.12,-20.66,-624.79,-847.9,-422.71,-243.23,314.26,0,736.97,-0.51
nw_cut_3_0_4f_opt_disp_struct_6.xyz,Nucleus 10F :,2.177715,-4.14473,2.569299,329.29,443.68,260.91,283.29,479.91,458.34,464.3,-20.48,-205.09,-189.1,260.91,283.29,443.68,0,182.77,-0.76
nw_cut_3_0_4f_opt_disp_struct_6.xyz,Nucleus 12F :,2.143394,-3.684022,1.681004,348.95,450.11,291.49,305.26,479.75,471.61,458.28,-21.55,-187.73,-153.49,291.49,305.26,450.11,0,158.62,-0.83
nw_cut_3_0_4f_opt_disp_struct_6.xyz,Nucleus 14F :,1.314101,-4.316928,3.047383,344.49,453.64,294.09,285.74,460.58,476.54,479.17,-24.9,-167.26,-190.65,285.74,294.09,453.64,0,167.9,-0.9
nw_cut_3_0_4f_opt_disp_struct_6.xyz,Nucleus 16F :,3.941184,-5.899376,0.926275,343.64,447.02,295.31,288.58,458.81,482.72,478.79,-35.55,-168.25,-185.6,288.58,295.31,447.02,0,158.44,-0.92
nw_cut_3_0_4f_opt_disp_struct_7.xyz,Nucleus 1H :,0.992927,-0.019378,-1.324582,29.14,35.36,23.49,28.58,41.21,25.82,28.41,-6.91,0.8,-1.9,23.49,28.58,35.36,0,11.87,-0.14
nw_cut_3_0_4f_opt_disp_struct_7.xyz,Nucleus 2H :,1.782855,0.623316,-1.720717,28.83,34.69,24.04,27.75,45.55,25.43,26.71,-11.72,1.63,-1.12,24.04,27.75,34.69,0,10.65,-0.3
nw_cut_3_0_4f_opt_disp_struct_7.xyz,Nucleus 6H :,1.209351,-1.047789,-1.63274,23.77,15.48,25.3,30.53,10.05,30.38,49.77,-19.71,5.7,-4.87,15.48,25.3,30.53,0,15.05,0.3
nw_cut_3_0_4f_opt_disp_struct_7.xyz,Nucleus 17H :,0.907907,0.105083,0.155016,24.24,20.65,25.51,26.57,44.65,26.85,30.43,-19.15,-6.06,-3.99,20.65,25.51,26.57,0,5.92,0.64
nw_cut_3_0_4f_opt_disp_struct_7.xyz,Nucleus 18H :,1.683949,0.921938,0.955162,28.75,35.03,27.44,23.77,41.78,32.0,27.01,-0.35,-8.9,-5.3,23.77,27.44,35.03,0,11.26,-0.35
nw_cut_3_0_4f_opt_disp_struct_7.xyz,Nucleus 20H :,1.296802,0.752259,2.257238,29.79,35.22,27.82,26.33,39.39,16.99,7.75,-4.43,10.65,19.01,26.33,27.82,35.22,0,8.89,-0.66
nw_cut_3_0_4f_opt_disp_struct_7.xyz,Nucleus 21H :,1.707274,1.199018,3.058867,30.1,25.53,31.21,33.57,23.4,40.55,33.63,-7.99,-1.89,2.62,25.53,31.21,33.57,0,8.04,0.41
nw_cut_3_0_4f_opt_disp_struct_7.xyz,Nucleus 25H :,0.273993,-0.162561,2.325043,27.79,34.91,22.02,26.43,33.85,49.41,42.69,-4.35,-20.08,-18.15,22.02,26.43,34.91,0,12.89,-0.32
nw_cut_3_0_4f_opt_disp_struct_7.xyz,Nucleus 26H :,0.003195,-0.587277,1.021738,27.75,34.79,23.18,25.29,42.08,34.82,30.64,-2.06,-13.53,-8.68,23.18,25.29,34.79,0,11.61,-0.64
nw_cut_3_0_4f_opt_disp_struct_7.xyz,Nucleus 27H :,-1.023864,-1.536495,0.833496,29.67,34.11,27.94,26.96,38.0,15.98,21.28,-5.12,12.74,6.14,26.96,27.94,34.11,0,7.15,-0.73
nw_cut_3_0_4f_opt_disp_struct_7.xyz,Nucleus 0C :,-1.324552,-1.974523,-0.398096,171.22,186.72,160.85,166.09,258.05,237.51,237.17,-77.42,-74.29,-67.36,160.85,166.09,186.72,0,25.87,-0.59
nw_cut_3_0_4f_opt_disp_struct_7.xyz,Nucleus 3C :,-1.732483,-2.024771,1.932067,61.84,147.67,54.72,-16.87,240.51,272.2,264.22,-92.89,-217.36,-281.16,-16.87,54.72,147.67,0,164.54,-0.13
nw_cut_3_0_4f_opt_disp_struct_7.xyz,Nucleus 4C :,-2.706166,-2.928344,1.744399,54.29,-29.0,127.01,64.85,273.58,257.34,257.43,-293.04,-130.4,-202.05,-29.0,64.85,127.01,0,156.01,0.2
nw_cut_3_0_4f_opt_disp_struct_7.xyz,Nucleus 7C :,-1.43964,-1.585278,3.213607,56.06,138.59,2.06,27.53,275.08,261.92,266.38,-123.47,-272.89,-238.85,2.06,27.53,138.59,0,136.53,-0.63
nw_cut_3_0_4f_opt_disp_struct_7.xyz,Nucleus 8C :,-2.131139,-2.065707,4.257766,63.22,159.26,26.84,3.55,236.23,269.72,263.04,-77.41,-237.42,-264.51,3.55,26.84,159.26,0,155.71,-0.7
nw_cut_3_0_4f_opt_disp_struct_7.xyz,Nucleus 9C :,-0.433125,-0.647751,3.42838,29.86,83.41,20.61,-14.45,238.06,269.25,271.24,-154.76,-248.66,-285.56,-14.45,20.61,83.41,0,97.86,-0.28
nw_cut_3_0_4f_opt_disp_struct_7.xyz,Nucleus 11C :,-0.146691,-0.21831,4.664467,37.43,94.64,20.37,-2.72,239.86,264.38,274.25,-145.39,-244.67,-276.14,-2.72,20.37,94.64,0,97.36,-0.53
nw_cut_3_0_4f_opt_disp_struct_7.xyz,Nucleus 13C :,2.475455,1.60431,0.684336,36.27,94.6,15.63,-1.41,237.09,264.1,274.41,-142.51,-252.38,-271.89,-1.41,15.63,94.6,0,96.01,-0.64
nw_cut_3_0_4f_opt_disp_struct_7.xyz,Nucleus 15C :,0.051589,0.265611,-1.80606,38.09,89.88,21.92,2.47,233.04,272.76,263.76,-143.17,-250.65,-261.48,2.47,21.92,89.88,0,87.41,-0.55
nw_cut_3_0_4f_opt_disp_struct_7.xyz,Nucleus 19C :,4.359799,-5.357687,1.732155,163.34,191.35,156.26,142.41,261.23,232.25,239.66,-69.07,-81.73,-92.32,142.41,156.26,191.35,0,48.94,-0.43
nw_cut_3_0_4f_opt_disp_struct_7.xyz,Nucleus 22C :,5.278528,-5.698968,2.212073,2.42,-92.18,94.36,5.09,194.89,252.04,269.76,-100.7,-346.06,-262.66,-92.18,5.09,94.36,0,186.54,0.04
nw_cut_3_0_4f_opt_disp_struct_7.xyz,Nucleus 5N :,4.529929,-4.385577,1.259625,122.53,50.3,184.68,132.62,292.49,338.95,329.52,-108.48,-204.61,-280.29,50.3,132.62,184.68,0,134.38,0.23
nw_cut_3_0_4f_opt_disp_struct_7.xyz,Nucleus 24N :,3.246133,-5.338871,2.739784,146.5,47.7,244.98,146.83,288.2,326.94,343.79,-279.27,-86.67,-153.48,47.7,146.83,244.98,0,197.28,0.01
nw_cut_3_0_4f_opt_disp_struct_7.xyz,Nucleus 23O :,3.130629,-6.174164,3.628511,-117.18,314.38,-243.2,-422.72,333.25,380.19,427.2,-19.5,-624.73,-847.95,-422.72,-243.2,314.38,0,737.1,-0.51
nw_cut_3_0_4f_opt_disp_struct_7.xyz,Nucleus 10F :,2.344171,-4.329489,2.594921,329.2,443.68,260.76,283.17,479.97,458.4,464.23,-20.42,-205.12,-189.44,260.76,283.17,443.68,0,182.92,-0.75
nw_cut_3_0_4f_opt_disp_struct_7.xyz,Nucleus 12F :,2.30985,-3.868781,1.706627,349.09,450.16,291.66,305.44,479.71,471.54,458.32,-21.41,-187.55,-153.35,291.66,305.44,450.16,0,158.5,-0.83
nw_cut_3_0_4f_opt_disp_struct_7.xyz,Nucleus 14F :,1.480557,-4.501687,3.073005,344.59,453.84,294.13,285.8,460.6,476.72,478.84,-24.51,-167.22,-190.65,285.8,294.13,453.84,0,168.04,-0.9
nw_cut_3_0_4f_opt_disp_struct_7.xyz,Nucleus 16F :,4.107641,-6.084135,0.951898,344.04,447.32,295.63,289.17,458.93,482.4,478.84,-34.94,-167.76,-185.35,289.17,295.63,447.32,0,158.15,-0.92
nw_cut_3_0_4f_opt_disp_struct_8.xyz,Nucleus 1H :,0.992927,-0.019378,-1.324582,29.15,35.36,23.5,28.59,41.16,25.83,28.45,-6.86,0.79,-1.92,23.5,28.59,35.36,0,11.86,-0.14
nw_cut_3_0_4f_opt_disp_struct_8.xyz,Nucleus 2H :,1.782855,0.623316,-1.720717,28.83,34.72,24.03,27.73,45.52,25.42,26.67,-11.66,1.68,-1.15,24.03,27.73,34.72,0,10.69,-0.31
nw_cut_3_0_4f_opt_disp_struct_8.xyz,Nucleus 6H :,1.209351,-1.047789,-1.63274,23.79,15.48,25.33,30.55,10.1,30.43,49.72,-19.63,5.64,-4.89,15.48,25.33,30.55,0,15.07,0.31
nw_cut_3_0_4f_opt_disp_struct_8.xyz,Nucleus 17H :,0.907907,0.105083,0.155016,24.25,20.66,25.51,26.58,44.64,26.86,30.43,-19.13,-6.07,-3.98,20.66,25.51,26.58,0,5.92,0.64
nw_cut_3_0_4f_opt_disp_struct_8.xyz,Nucleus 18H :,1.683949,0.921938,0.955162,28.75,35.01,27.44,23.79,41.76,32.01,26.97,-0.3,-8.9,-5.28,23.79,27.44,35.01,0,11.22,-0.35
nw_cut_3_0_4f_opt_disp_struct_8.xyz,Nucleus 20H :,1.296802,0.752259,2.257238,29.77,35.15,27.83,26.32,39.28,16.8,7.05,-4.4,10.85,19.71,26.32,27.83,35.15,0,8.83,-0.66
nw_cut_3_0_4f_opt_disp_struct_8.xyz,Nucleus 21H :,1.707274,1.199018,3.058867,30.06,25.56,31.06,33.57,23.25,40.83,33.33,-8.31,-1.74,2.82,25.56,31.06,33.57,0,8.01,0.37
nw_cut_3_0_4f_opt_disp_struct_8.xyz,Nucleus 25H :,0.273993,-0.162561,2.325043,27.68,34.47,22.12,26.45,33.92,43.79,49.27,-4.36,-21.2,-18.37,22.12,26.45,34.47,0,12.35,-0.3
nw_cut_3_0_4f_opt_disp_struct_8.xyz,Nucleus 26H :,0.003195,-0.587277,1.021738,27.68,34.68,23.28,25.07,42.68,34.49,31.6,-2.27,-13.95,-9.52,23.28,25.07,34.68,0,11.4,-0.69
nw_cut_3_0_4f_opt_disp_struct_8.xyz,Nucleus 27H :,-1.023864,-1.536495,0.833496,29.65,34.08,27.89,26.98,37.99,15.35,21.14,-5.19,13.36,6.3,26.98,27.89,34.08,0,7.1,-0.74
nw_cut_3_0_4f_opt_disp_struct_8.xyz,Nucleus 0C :,-1.324552,-1.974523,-0.398096,171.22,186.72,160.85,166.08,258.01,237.47,237.08,-77.34,-74.24,-67.32,160.85,166.08,186.72,0,25.87,-0.6
nw_cut_3_0_4f_opt_disp_struct_8.xyz,Nucleus 3C :,-1.732483,-2.024771,1.932067,61.77,147.63,54.62,-16.93,240.44,271.9,264.21,-92.85,-217.2,-281.18,-16.93,54.62,147.63,0,164.56,-0.13
nw_cut_3_0_4f_opt_disp_struct_8.xyz,Nucleus 4C :,-2.706166,-2.928344,1.744399,54.34,-28.92,127.0,64.95,273.43,257.17,257.66,-292.97,-130.42,-201.84,-28.92,64.95,127.0,0,155.92,0.2
nw_cut_3_0_4f_opt_disp_struct_8.xyz,Nucleus 7C :,-1.43964,-1.585278,3.213607,56.07,138.5,2.11,27.61,274.71,261.87,266.3,-123.43,-272.48,-238.74,2.11,27.61,138.5,0,136.39,-0.63
nw_cut_3_0_4f_opt_disp_struct_8.xyz,Nucleus 8C :,-2.131139,-2.065707,4.257766,63.17,159.23,26.77,3.52,236.34,263.02,269.25,-77.49,-237.23,-264.37,3.52,26.77,159.23,0,155.71,-0.7
nw_cut_3_0_4f_opt_disp_struct_8.xyz,Nucleus 9C :,-0.433125,-0.647751,3.42838,29.75,83.29,20.55,-14.59,237.9,268.97,270.74,-154.64,-248.46,-285.26,-14.59,20.55,83.29,0,97.88,-0.28
nw_cut_3_0_4f_opt_disp_struct_8.xyz,Nucleus 11C :,-0.146691,-0.21831,4.664467,37.39,94.59,20.37,-2.78,239.93,264.33,273.68,-145.42,-244.61,-275.72,-2.78,20.37,94.59,0,97.37,-0.52
nw_cut_3_0_4f_opt_disp_struct_8.xyz,Nucleus 13C :,2.475455,1.60431,0.684336,36.26,94.56,15.63,-1.42,237.14,264.12,273.98,-142.59,-252.34,-271.54,-1.42,15.63,94.56,0,95.98,-0.64
nw_cut_3_0_4f_opt_disp_struct_8.xyz,Nucleus 15C :,0.051589,0.265611,-1.80606,38.13,89.81,21.97,2.6,233.01,272.38,263.72,-143.22,-250.26,-261.26,2.6,21.97,89.81,0,87.21,-0.56
nw_cut_3_0_4f_opt_disp_struct_8.xyz,Nucleus 19C :,4.526255,-5.542446,1.757777,163.28,191.32,156.14,142.37,261.58,231.69,239.24,-69.39,-81.39,-91.9,142.37,156.14,191.32,0,48.95,-0.44
nw_cut_3_0_4f_opt_disp_struct_8.xyz,Nucleus 22C :,5.444984,-5.883727,2.237695,2.39,-92.29,94.39,5.06,194.2,252.06,269.78,-100.01,-346.07,-262.82,-92.29,5.06,94.39,0,186.68,0.04
nw_cut_3_0_4f_opt_disp_struct_8.xyz,Nucleus 5N :,4.696385,-4.570336,1.285247,122.69,50.59,184.67,132.82,292.56,338.87,329.5,-108.44,-204.38,-280.04,50.59,132.82,184.67,0,134.08,0.23
nw_cut_3_0_4f_opt_disp_struct_8.xyz,Nucleus 24N :,3.412589,-5.52363,2.765406,146.4,47.72,244.7,146.79,288.24,327.25,343.73,-279.45,-86.23,-154.34,47.72,146.79,244.7,0,196.98,0.01
nw_cut_3_0_4f_opt_disp_struct_8.xyz,Nucleus 23O :,3.297085,-6.358923,3.654133,-117.16,314.2,-243.13,-422.55,332.08,380.07,427.33,-18.43,-624.63,-847.89,-422.55,-243.13,314.2,0,736.75,-0.51
nw_cut_3_0_4f_opt_disp_struct_8.xyz,Nucleus 10F :,2.510627,-4.514248,2.620543,329.25,443.68,260.7,283.36,480.17,458.55,464.15,-20.37,-205.09,-189.68,260.7,283.36,443.68,0,182.98,-0.75
nw_cut_3_0_4f_opt_disp_struct_8.xyz,Nucleus 12F :,2.476307,-4.053539,1.732249,349.21,450.16,291.87,305.61,479.72,471.42,458.41,-21.25,-187.4,-153.26,291.87,305.61,450.16,0,158.29,-0.83
nw_cut_3_0_4f_opt_disp_struct_8.xyz,Nucleus 14F :,1.647013,-4.686445,3.098627,344.68,453.75,294.25,286.03,460.71,477.15,478.07,-24.15,-167.15,-190.59,286.03,294.25,453.75,0,167.72,-0.9
nw_cut_3_0_4f_opt_disp_struct_8.xyz,Nucleus 16F :,4.274097,-6.268894,0.97752,344.27,447.13,296.05,289.62,459.12,481.65,479.05,-34.37,-167.44,-185.22,289.62,296.05,447.13,0,157.51,-0.92
nw_cut_3_0_4f_opt_disp_struct_9.xyz,Nucleus 1H :,0.992927,-0.019378,-1.324582,29.16,35.35,23.51,28.61,41.12,25.83,28.48,-6.81,0.77,-1.93,23.51,28.61,35.35,0,11.84,-0.14
nw_cut_3_0_4f_opt_disp_struct_9.xyz,Nucleus 2H :,1.782855,0.623316,-1.720717,28.83,34.74,24.02,27.72,45.49,25.41,26.63,-11.6,1.73,-1.17,24.02,27.72,34.74,0,10.72,-0.31
nw_cut_3_0_4f_opt_disp_struct_9.xyz,Nucleus 6H :,1.209351,-1.047789,-1.63274,23.8,15.48,25.35,30.56,10.12,30.46,49.66,-19.56,5.6,-4.91,15.48,25.35,30.56,0,15.08,0.31
nw_cut_3_0_4f_opt_disp_struct_9.xyz,Nucleus 17H :,0.907907,0.105083,0.155016,24.25,20.66,25.51,26.59,44.62,26.86,30.43,-19.11,-6.08,-3.96,20.66,25.51,26.59,0,5.93,0.64
nw_cut_3_0_4f_opt_disp_struct_9.xyz,Nucleus 18H :,1.683949,0.921938,0.955162,28.75,35.0,27.45,23.8,41.75,32.01,26.94,-0.26,-8.92,-5.27,23.8,27.45,35.0,0,11.2,-0.35
nw_cut_3_0_4f_opt_disp_struct_9.xyz,Nucleus 20H :,1.296802,0.752259,2.257238,29.74,35.08,27.84,26.31,39.17,16.6,6.35,-4.37,11.07,20.42,26.31,27.84,35.08,0,8.77,-0.65
nw_cut_3_0_4f_opt_disp_struct_9.xyz,Nucleus 21H :,1.707274,1.199018,3.058867,30.03,25.59,30.92,33.58,41.11,33.06,23.08,-8.63,-1.59,3.06,25.59,30.92,33.58,0,7.99,0.33
nw_cut_3_0_4f_opt_disp_struct_9.xyz,Nucleus 25H :,0.273993,-0.162561,2.325043,27.57,34.1,22.18,26.44,33.92,44.73,49.27,-4.34,-18.6,-22.26,22.18,26.44,34.1,0,11.92,-0.28
nw_cut_3_0_4f_opt_disp_struct_9.xyz,Nucleus 26H :,0.003195,-0.587277,1.021738,27.6,34.58,23.34,24.88,43.22,34.48,32.23,-2.42,-14.39,-10.33,23.34,24.88,34.58,0,11.24,-0.73
nw_cut_3_0_4f_opt_disp_struct_9.xyz,Nucleus 27H :,-1.023864,-1.536495,0.833496,29.63,34.06,27.85,26.99,38.0,14.74,20.99,-5.27,13.98,6.46,26.99,27.85,34.06,0,7.07,-0.76
nw_cut_3_0_4f_opt_disp_struct_9.xyz,Nucleus 0C :,-1.324552,-1.974523,-0.398096,171.22,186.73,160.86,166.06,257.98,237.44,237.01,-77.28,-74.2,-67.29,160.86,166.06,186.73,0,25.87,-0.6
nw_cut_3_0_4f_opt_disp_struct_9.xyz,Nucleus 3C :,-1.732483,-2.024771,1.932067,61.73,147.61,54.57,-16.99,240.4,271.72,264.2,-92.83,-217.08,-281.22,-16.99,54.57,147.61,0,164.6,-0.13
nw_cut_3_0_4f_opt_disp_struct_9.xyz,Nucleus 4C :,-2.706166,-2.928344,1.744399,54.4,-28.85,126.98,65.07,273.35,257.06,257.79,-292.91,-130.45,-201.65,-28.85,65.07,126.98,0,155.83,0.21
nw_cut_3_0_4f_opt_disp_struct_9.xyz,Nucleus 7C :,-1.43964,-1.585278,3.213607,56.1,138.45,2.17,27.67,274.43,261.82,266.27,-123.43,-272.13,-238.67,2.17,27.67,138.45,0,136.28,-0.63
nw_cut_3_0_4f_opt_disp_struct_9.xyz,Nucleus 8C :,-2.131139,-2.065707,4.257766,63.12,159.16,26.73,3.47,236.38,262.98,268.89,-77.57,-237.07,-264.24,3.47,26.73,159.16,0,155.69,-0.7
nw_cut_3_0_4f_opt_disp_struct_9.xyz,Nucleus 9C :,-0.433125,-0.647751,3.42838,29.7,83.23,20.54,-14.68,237.74,268.83,270.39,-154.53,-248.33,-285.01,-14.68,20.54,83.23,0,97.91,-0.28
nw_cut_3_0_4f_opt_disp_struct_9.xyz,Nucleus 11C :,-0.146691,-0.21831,4.664467,37.37,94.53,20.38,-2.79,239.91,264.28,273.3,-145.43,-244.57,-275.37,-2.79,20.38,94.53,0,97.32,-0.52
nw_cut_3_0_4f_opt_disp_struct_9.xyz,Nucleus 13C :,2.475455,1.60431,0.684336,36.24,94.5,15.62,-1.41,237.14,264.12,273.62,-142.65,-252.29,-271.24,-1.41,15.62,94.5,0,95.91,-0.64
nw_cut_3_0_4f_opt_disp_struct_9.xyz,Nucleus 15C :,0.051589,0.265611,-1.80606,38.17,89.74,22.06,2.7,233.0,272.11,263.7,-143.27,-249.94,-261.09,2.7,22.06,89.74,0,87.04,-0.56
nw_cut_3_0_4f_opt_disp_struct_9.xyz,Nucleus 19C :,4.692711,-5.727205,1.7834,163.25,191.3,156.07,142.39,261.91,231.18,238.83,-69.66,-81.05,-91.45,142.39,156.07,191.3,0,48.91,-0.44
nw_cut_3_0_4f_opt_disp_struct_9.xyz,Nucleus 22C :,5.611441,-6.068486,2.263318,2.35,-92.39,94.42,5.02,193.49,252.07,269.82,-99.29,-346.05,-262.99,-92.39,5.02,94.42,0,186.81,0.04
nw_cut_3_0_4f_opt_disp_struct_9.xyz,Nucleus 5N :,4.862842,-4.755095,1.31087,122.82,50.8,184.66,132.99,292.58,338.81,329.46,-108.41,-204.16,-279.84,50.8,132.99,184.66,0,133.86,0.23
nw_cut_3_0_4f_opt_disp_struct_9.xyz,Nucleus 24N :,3.579046,-5.708389,2.791029,146.3,47.69,244.45,146.77,288.16,327.49,343.79,-279.57,-85.81,-155.14,47.69,146.77,244.45,0,196.76,0.01
nw_cut_3_0_4f_opt_disp_struct_9.xyz,Nucleus 23O :,3.463542,-6.543682,3.679755,-117.09,314.22,-243.05,-422.43,331.27,379.95,427.4,-17.56,-624.5,-847.82,-422.43,-243.05,314.22,0,736.65,-0.51
nw_cut_3_0_4f_opt_disp_struct_9.xyz,Nucleus 10F :,2.677084,-4.699006,2.646166,329.21,443.66,260.6,283.37,480.25,458.63,464.09,-20.34,-205.07,-189.93,260.6,283.37,443.66,0,183.06,-0.75
nw_cut_3_0_4f_opt_disp_struct_9.xyz,Nucleus 12F :,2.642763,-4.238298,1.757872,349.29,450.17,292.0,305.71,479.71,471.34,458.48,-21.16,-187.27,-153.22,292.0,305.71,450.17,0,158.17,-0.83
nw_cut_3_0_4f_opt_disp_struct_9.xyz,Nucleus 14F :,1.81347,-4.871204,3.12425,344.76,453.78,294.34,286.15,460.75,477.66,477.38,-23.86,-167.08,-190.57,286.15,294.34,453.78,0,167.63,-0.9
nw_cut_3_0_4f_opt_disp_struct_9.xyz,Nucleus 16F :,4.440553,-6.453653,1.003143,344.5,447.18,296.32,290.0,459.22,481.25,479.12,-33.9,-167.13,-185.06,290.0,296.32,447.18,0,157.18,-0.92
nw_cut_3_0_ch3_opt.xyz,Nucleus 1H :,1.034057,0.00555,-1.315262,28.99,35.14,23.26,28.57,40.49,26.32,28.88,-6.95,0.95,-2.73,23.26,28.57,35.14,0,11.88,-0.11
nw_cut_3_0_ch3_opt.xyz,Nucleus 2H :,1.823041,0.642913,-1.722515,28.96,35.05,24.28,27.54,46.9,24.31,28.13,-13.1,1.69,-1.07,24.28,27.54,35.05,0,10.77,-0.4
nw_cut_3_0_ch3_opt.xyz,Nucleus 6H :,1.246697,-1.024825,-1.624886,23.76,16.03,24.45,30.81,49.15,14.48,29.79,-18.84,-5.26,1.97,16.03,24.45,30.81,0,14.78,0.14
nw_cut_3_0_ch3_opt.xyz,Nucleus 10H :,0.955371,0.130462,0.163125,23.67,29.69,19.02,22.3,33.46,39.82,51.6,-3.78,-19.55,-30.53,19.02,22.3,29.69,0,10.67,-0.39
nw_cut_3_0_ch3_opt.xyz,Nucleus 14H :,1.729181,0.95537,0.955681,23.77,28.12,23.39,19.81,10.83,34.09,45.98,9.39,-6.05,-22.92,19.81,23.39,28.12,0,8.31,-0.14
nw_cut_3_0_ch3_opt.xyz,Nucleus 16H :,1.341974,0.788455,2.257691,23.75,19.25,27.8,24.2,11.23,32.17,49.13,-25.17,-4.4,8.29,19.25,24.2,27.8,0,8.55,0.16
nw_cut_3_0_ch3_opt.xyz,Nucleus 17H :,1.761574,1.245108,3.048378,24.07,20.44,25.11,26.67,44.17,28.02,31.37,-19.08,-7.41,-4.87,20.44,25.11,26.67,0,6.23,0.5
nw_cut_3_0_ch3_opt.xyz,Nucleus 18H :,0.32558,-0.13394,2.337541,28.94,35.77,26.98,24.06,43.42,26.5,33.28,0.04,-10.81,-5.62,24.06,26.98,35.77,0,11.71,-0.5
nw_cut_3_0_ch3_opt.xyz,Nucleus 19H :,0.058305,-0.563055,1.038027,29.13,23.57,29.36,34.46,42.69,22.56,27.35,-9.36,2.85,1.3,23.57,29.36,34.46,0,10.89,0.06
nw_cut_3_0_ch3_opt.xyz,Nucleus 20H :,-0.962816,-1.517854,0.842612,28.71,35.02,23.65,27.47,39.57,12.9,27.13,11.39,-5.23,0.39,23.65,27.47,35.02,0,11.37,-0.33
nw_cut_3_0_ch3_opt.xyz,Nucleus 21H :,-1.198801,-1.872619,-0.156872,28.52,33.95,24.72,26.88,42.15,12.08,23.84,-8.23,12.73,2.99,24.72,26.88,33.95,0,9.23,-0.53
nw_cut_3_0_ch3_opt.xyz,Nucleus 23H :,-1.680518,-2.015113,1.943495,30.38,36.32,27.98,26.85,40.77,19.25,14.42,-4.67,8.55,12.82,26.85,27.98,36.32,0,9.47,-0.76
nw_cut_3_0_ch3_opt.xyz,Nucleus 24H :,-2.770304,-3.028847,1.749916,30.91,25.17,32.41,35.15,23.57,36.2,39.84,-5.82,-3.03,1.98,25.17,32.41,35.15,0,9.98,0.45
nw_cut_3_0_ch3_opt.xyz,Nucleus 28H :,-1.378307,-1.558204,3.230441,27.19,46.31,14.24,21.01,58.0,20.42,27.03,8.74,-11.17,-21.46,14.24,21.01,46.31,0,32.07,-0.58
nw_cut_3_0_ch3_opt.xyz,Nucleus 29H :,-1.935275,-1.945323,4.079258,27.14,43.65,22.06,15.72,45.96,29.81,30.77,-1.28,-15.14,-8.69,15.72,22.06,43.65,0,27.93,-0.55
nw_cut_3_0_ch3_opt.xyz,Nucleus 30H :,-0.372854,-0.611201,3.451737,30.2,35.01,28.36,27.24,39.43,20.1,22.4,-5.1,8.37,5.4,27.24,28.36,35.01,0,7.77,-0.71
nw_cut_3_0_ch3_opt.xyz,Nucleus 0C :,-0.138427,-0.273454,4.455844,172.82,160.69,169.49,188.27,235.42,242.22,258.48,-77.61,-73.06,-67.0,160.69,169.49,188.27,0,27.58,-0.36
nw_cut_3_0_ch3_opt.xyz,Nucleus 3C :,2.516229,1.642803,0.682334,63.73,149.07,51.51,-9.39,243.56,263.25,276.57,-94.75,-223.44,-274.0,-9.39,51.51,149.07,0,158.46,-0.23
nw_cut_3_0_ch3_opt.xyz,Nucleus 4C :,0.09086,0.294571,-1.79408,54.13,-31.65,127.91,66.13,275.83,256.47,259.69,-296.32,-131.27,-202.01,-31.65,66.13,127.91,0,159.56,0.23
nw_cut_3_0_ch3_opt.xyz,Nucleus 7C :,-2.979652,-3.190207,0.690033,39.22,144.22,-42.25,15.69,264.87,274.04,273.01,-127.3,-314.97,-252.0,-42.25,15.69,144.22,0,186.47,-0.38
nw_cut_3_0_ch3_opt.xyz,Nucleus 8C :,-3.6977,-2.708246,2.235574,47.56,169.87,-3.95,-23.23,224.86,265.1,254.09,-55.3,-266.49,-279.58,-23.23,-3.95,169.87,0,193.1,-0.8
nw_cut_3_0_ch3_opt.xyz,Nucleus 9C :,-2.493252,-3.996137,2.186965,51.74,159.9,43.66,-48.35,251.86,273.09,270.4,-92.66,-229.28,-318.2,-48.35,43.66,159.9,0,208.25,-0.12
nw_cut_3_0_ch3_opt.xyz,Nucleus 11C :,3.024097,-3.887875,1.525768,39.75,174.82,-68.05,12.48,240.52,262.22,279.92,-67.05,-333.53,-262.83,-68.05,12.48,174.82,0,242.87,-0.34
nw_cut_3_0_ch3_opt.xyz,Nucleus 12C :,3.96086,-4.131673,2.031378,161.24,188.63,138.46,156.63,255.14,223.87,230.22,-62.09,-76.1,-87.31,138.46,156.63,188.63,0,50.17,-0.28
nw_cut_3_0_ch3_opt.xyz,Nucleus 13C :,3.135673,-2.943529,0.985054,50.26,166.98,40.45,-56.65,280.96,234.03,255.91,-67.94,-239.94,-312.24,-56.65,40.45,166.98,0,223.63,-0.13
nw_cut_3_0_ch3_opt.xyz,Nucleus 15C :,1.907448,-3.869544,2.530099,57.56,171.66,38.3,-37.28,247.3,274.25,268.28,-75.95,-235.65,-305.55,-37.28,38.3,171.66,0,208.94,-0.28
nw_cut_3_0_ch3_opt.xyz,Nucleus 22C :,1.788368,-4.706225,3.417047,164.4,191.49,159.06,142.65,256.69,234.89,243.7,-64.07,-84.81,-93.21,142.65,159.06,191.49,0,48.84,-0.33
nw_cut_3_0_ch3_opt.xyz,Nucleus 25C :,1.007038,-2.858916,2.384272,5.45,-83.38,94.47,5.27,201.97,251.54,271.19,-107.55,-336.71,-264.08,-83.38,5.27,94.47,0,177.85,-0.0
nw_cut_3_0_ch3_opt.xyz,Nucleus 5N :,0.989579,-2.34281,1.528973,114.83,49.91,170.12,124.46,300.38,336.35,330.07,-130.96,-211.68,-279.66,49.91,124.46,170.12,0,120.21,0.24
nw_cut_3_0_ch3_opt.xyz,Nucleus 27N :,0.164966,-2.942226,2.91876,132.01,-0.33,232.1,164.26,294.2,327.99,347.53,-330.33,-109.16,-134.2,-0.33,164.26,232.1,0,232.43,0.42
nw_cut_3_0_ch3_opt.xyz,Nucleus 26O :,2.828859,-4.686521,0.802393,-81.29,323.54,-206.18,-361.22,345.73,382.69,427.45,-22.61,-590.73,-786.4,-361.22,-206.18,323.54,0,684.76,-0.55
nw_cut_3_0_ch3_opt_disp_struct_0.xyz,Nucleus 1H :,1.034057,0.00555,-1.315262,29.0,35.15,23.29,28.57,40.58,26.51,29.16,-7.06,0.53,-2.72,23.29,28.57,35.15,0,11.86,-0.11
nw_cut_3_0_ch3_opt_disp_struct_0.xyz,Nucleus 2H :,1.823041,0.642913,-1.722515,28.98,35.06,24.28,27.59,47.13,24.87,28.07,-13.21,1.35,-1.29,24.28,27.59,35.06,0,10.78,-0.39
nw_cut_3_0_ch3_opt_disp_struct_0.xyz,Nucleus 6H :,1.246697,-1.024825,-1.624886,23.86,16.09,24.6,30.88,49.61,14.66,29.78,-19.23,-5.13,1.87,16.09,24.6,30.88,0,14.79,0.15
nw_cut_3_0_ch3_opt_disp_struct_0.xyz,Nucleus 10H :,0.955371,0.130462,0.163125,23.74,29.57,19.09,22.56,34.17,39.82,52.13,-4.63,-19.41,-30.85,19.09,22.56,29.57,0,10.48,-0.34
nw_cut_3_0_ch3_opt_disp_struct_0.xyz,Nucleus 14H :,1.729181,0.95537,0.955681,23.85,28.07,23.6,19.88,10.98,33.71,46.23,9.29,-5.7,-22.96,19.88,23.6,28.07,0,8.19,-0.09
nw_cut_3_0_ch3_opt_disp_struct_0.xyz,Nucleus 16H :,1.341974,0.788455,2.257691,23.84,19.31,27.68,24.52,11.33,31.95,49.41,-25.13,-4.31,8.25,19.31,24.52,27.68,0,8.37,0.24
nw_cut_3_0_ch3_opt_disp_struct_0.xyz,Nucleus 17H :,1.761574,1.245108,3.048378,24.11,20.48,25.16,26.69,44.36,28.17,31.73,-19.21,-7.51,-5.21,20.48,25.16,26.69,0,6.21,0.51
nw_cut_3_0_ch3_opt_disp_struct_0.xyz,Nucleus 18H :,0.32558,-0.13394,2.337541,28.94,35.75,26.99,24.09,43.45,26.74,33.38,-0.17,-10.74,-5.83,24.09,26.99,35.75,0,11.66,-0.5
nw_cut_3_0_ch3_opt_disp_struct_0.xyz,Nucleus 19H :,0.058305,-0.563055,1.038027,29.16,23.61,29.39,34.49,42.76,22.6,27.59,-9.43,2.61,1.34,23.61,29.39,34.49,0,10.88,0.06
nw_cut_3_0_ch3_opt_disp_struct_0.xyz,Nucleus 20H :,-0.962816,-1.517854,0.842612,28.73,35.07,23.65,27.48,39.6,13.15,27.22,11.17,-5.23,0.28,23.65,27.48,35.07,0,11.42,-0.33
nw_cut_3_0_ch3_opt_disp_struct_0.xyz,Nucleus 21H :,-1.198801,-1.872619,-0.156872,28.57,34.07,24.74,26.91,42.43,12.25,23.53,-8.38,12.63,3.27,24.74,26.91,34.07,0,9.33,-0.53
nw_cut_3_0_ch3_opt_disp_struct_0.xyz,Nucleus 23H :,-1.680518,-2.015113,1.943495,30.26,36.12,27.9,26.75,40.47,18.96,13.65,-4.57,8.75,13.51,26.75,27.9,36.12,0,9.37,-0.76
nw_cut_3_0_ch3_opt_disp_struct_0.xyz,Nucleus 24H :,-2.770304,-3.028847,1.749916,30.75,25.14,32.44,34.66,24.19,36.2,39.45,-5.84,-3.06,1.3,25.14,32.44,34.66,0,9.52,0.53
nw_cut_3_0_ch3_opt_disp_struct_0.xyz,Nucleus 28H :,-1.378307,-1.558204,3.230441,28.29,43.99,17.49,23.4,56.19,24.66,32.35,5.1,-13.34,-20.06,17.49,23.4,43.99,0,26.5,-0.55
nw_cut_3_0_ch3_opt_disp_struct_0.xyz,Nucleus 29H :,-1.935275,-1.945323,4.079258,28.21,41.24,24.44,18.95,42.57,33.25,28.09,-0.13,-8.5,-10.65,18.95,24.44,41.24,0,22.29,-0.51
nw_cut_3_0_ch3_opt_disp_struct_0.xyz,Nucleus 30H :,-0.372854,-0.611201,3.451737,30.08,34.87,28.24,27.14,39.34,19.4,22.14,-5.22,9.05,5.55,27.14,28.24,34.87,0,7.73,-0.71
nw_cut_3_0_ch3_opt_disp_struct_0.xyz,Nucleus 0C :,-0.138427,-0.273454,4.455844,172.8,160.71,169.45,188.25,235.84,242.11,258.56,-77.86,-73.43,-66.8,160.71,169.45,188.25,0,27.54,-0.36
nw_cut_3_0_ch3_opt_disp_struct_0.xyz,Nucleus 3C :,2.516229,1.642803,0.682334,63.93,149.18,52.16,-9.56,243.78,263.5,277.38,-94.78,-223.89,-274.21,-9.56,52.16,149.18,0,158.74,-0.22
nw_cut_3_0_ch3_opt_disp_struct_0.xyz,Nucleus 4C :,0.09086,0.294571,-1.79408,54.35,-31.45,127.83,66.66,275.98,256.95,259.6,-296.15,-131.3,-202.03,-31.45,66.66,127.83,0,159.28,0.23
nw_cut_3_0_ch3_opt_disp_struct_0.xyz,Nucleus 7C :,-2.979652,-3.190207,0.690033,40.97,144.21,-38.81,17.5,265.05,274.23,273.31,-127.05,-311.9,-250.73,-38.81,17.5,144.21,0,183.02,-0.38
nw_cut_3_0_ch3_opt_disp_struct_0.xyz,Nucleus 8C :,-3.6977,-2.708246,2.235574,48.79,169.7,-1.7,-21.63,225.17,266.63,255.33,-55.68,-266.23,-278.86,-21.63,-1.7,169.7,0,191.33,-0.79
nw_cut_3_0_ch3_opt_disp_struct_0.xyz,Nucleus 9C :,-2.493252,-3.996137,2.186965,53.87,159.92,46.41,-44.73,251.12,274.09,271.33,-92.4,-227.18,-315.35,-44.73,46.41,159.92,0,204.65,-0.11
nw_cut_3_0_ch3_opt_disp_struct_0.xyz,Nucleus 11C :,3.191383,-4.071784,1.552091,41.95,174.9,-64.33,15.28,237.74,262.68,279.66,-64.32,-329.78,-260.13,-64.33,15.28,174.9,0,239.23,-0.33
nw_cut_3_0_ch3_opt_disp_struct_0.xyz,Nucleus 12C :,4.128146,-4.315582,2.057701,161.29,188.81,138.45,156.6,255.44,223.92,230.29,-62.14,-76.26,-87.39,138.45,156.6,188.81,0,50.36,-0.28
nw_cut_3_0_ch3_opt_disp_struct_0.xyz,Nucleus 13C :,3.302959,-3.127438,1.011377,51.58,166.63,42.98,-54.87,279.77,231.76,256.36,-65.7,-236.25,-311.2,-54.87,42.98,166.63,0,221.5,-0.12
nw_cut_3_0_ch3_opt_disp_struct_0.xyz,Nucleus 15C :,2.074734,-4.053453,2.556422,60.25,171.72,42.11,-33.09,246.04,274.08,268.53,-74.69,-231.5,-301.72,-33.09,42.11,171.72,0,204.81,-0.27
nw_cut_3_0_ch3_opt_disp_struct_0.xyz,Nucleus 22C :,1.955654,-4.890134,3.443369,164.22,191.4,158.43,142.82,257.01,235.11,243.02,-64.51,-84.6,-93.39,142.82,158.43,191.4,0,48.58,-0.36
nw_cut_3_0_ch3_opt_disp_struct_0.xyz,Nucleus 25C :,1.174324,-3.042825,2.410594,4.75,-85.42,94.22,5.45,200.75,251.87,270.86,-106.58,-338.95,-263.7,-85.42,5.45,94.22,0,179.64,0.01
nw_cut_3_0_ch3_opt_disp_struct_0.xyz,Nucleus 5N :,1.156865,-2.526719,1.555296,116.04,52.08,170.06,125.98,300.33,336.52,330.57,-131.14,-210.32,-277.86,52.08,125.98,170.06,0,117.98,0.25
nw_cut_3_0_ch3_opt_disp_struct_0.xyz,Nucleus 27N :,0.332253,-3.126134,2.945083,138.06,17.94,239.53,156.71,295.04,326.22,345.18,-310.64,-99.34,-142.27,17.94,156.71,239.53,0,221.59,0.25
nw_cut_3_0_ch3_opt_disp_struct_0.xyz,Nucleus 26O :,2.996145,-4.87043,0.828715,-88.84,321.76,-214.5,-373.77,344.13,381.96,427.2,-22.78,-598.09,-798.92,-373.77,-214.5,321.76,0,695.53,-0.54
nw_cut_3_0_ch3_opt_disp_struct_1.xyz,Nucleus 1H :,1.034057,0.00555,-1.315262,29.02,35.15,23.32,28.58,40.62,26.68,29.34,-7.13,0.25,-2.71,23.32,28.58,35.15,0,11.83,-0.11
nw_cut_3_0_ch3_opt_disp_struct_1.xyz,Nucleus 2H :,1.823041,0.642913,-1.722515,28.99,35.07,24.3,27.59,47.27,25.27,28.04,-13.27,1.18,-1.54,24.3,27.59,35.07,0,10.77,-0.39
nw_cut_3_0_ch3_opt_disp_struct_1.xyz,Nucleus 6H :,1.246697,-1.024825,-1.624886,23.91,16.13,24.71,30.9,49.89,14.82,29.82,-19.48,-5.07,1.76,16.13,24.71,30.9,0,14.77,0.16
nw_cut_3_0_ch3_opt_disp_struct_1.xyz,Nucleus 10H :,0.955371,0.130462,0.163125,23.77,29.54,19.15,22.61,34.55,39.95,52.44,-5.12,-19.48,-31.05,19.15,22.61,29.54,0,10.39,-0.33
nw_cut_3_0_ch3_opt_disp_struct_1.xyz,Nucleus 14H :,1.729181,0.95537,0.955681,23.88,28.08,23.64,19.93,10.84,33.52,46.41,-23.08,9.44,-5.48,19.93,23.64,28.08,0,8.15,-0.09
nw_cut_3_0_ch3_opt_disp_struct_1.xyz,Nucleus 16H :,1.341974,0.788455,2.257691,23.88,19.37,27.65,24.63,11.46,31.9,49.54,-25.14,-4.29,8.17,19.37,24.63,27.65,0,8.28,0.27
nw_cut_3_0_ch3_opt_disp_struct_1.xyz,Nucleus 17H :,1.761574,1.245108,3.048378,24.14,20.52,25.19,26.72,44.5,28.3,31.93,-19.32,-7.59,-5.38,20.52,25.19,26.72,0,6.2,0.51
nw_cut_3_0_ch3_opt_disp_struct_1.xyz,Nucleus 18H :,0.32558,-0.13394,2.337541,28.95,35.72,27.0,24.12,43.51,26.89,33.44,-0.3,-10.73,-5.97,24.12,27.0,35.72,0,11.6,-0.5
nw_cut_3_0_ch3_opt_disp_struct_1.xyz,Nucleus 19H :,0.058305,-0.563055,1.038027,29.17,23.66,29.4,34.46,42.84,22.61,27.76,-9.51,2.39,1.43,23.66,29.4,34.46,0,10.8,0.06
nw_cut_3_0_ch3_opt_disp_struct_1.xyz,Nucleus 20H :,-0.962816,-1.517854,0.842612,28.74,35.06,23.66,27.49,39.63,13.22,27.35,11.13,-5.28,0.16,23.66,27.49,35.06,0,11.4,-0.33
nw_cut_3_0_ch3_opt_disp_struct_1.xyz,Nucleus 21H :,-1.198801,-1.872619,-0.156872,28.6,34.14,24.75,26.92,42.56,12.3,23.45,-8.44,12.61,3.33,24.75,26.92,34.14,0,9.39,-0.54
nw_cut_3_0_ch3_opt_disp_struct_1.xyz,Nucleus 23H :,-1.680518,-2.015113,1.943495,30.15,35.93,27.85,26.68,40.19,18.68,12.87,-4.5,8.98,14.24,26.68,27.85,35.93,0,9.25,-0.75
nw_cut_3_0_ch3_opt_disp_struct_1.xyz,Nucleus 24H :,-2.770304,-3.028847,1.749916,30.62,25.18,32.39,34.29,24.51,36.06,39.29,-5.94,-3.05,0.99,25.18,32.39,34.29,0,9.11,0.58
nw_cut_3_0_ch3_opt_disp_struct_1.xyz,Nucleus 28H :,-1.378307,-1.558204,3.230441,28.66,42.01,19.31,24.67,54.79,27.06,35.61,2.75,-14.93,-19.29,19.31,24.67,42.01,0,22.7,-0.53
nw_cut_3_0_ch3_opt_disp_struct_1.xyz,Nucleus 29H :,-1.935275,-1.945323,4.079258,28.57,39.43,25.56,20.73,27.69,40.28,34.92,0.32,-7.02,-10.48,20.73,25.56,39.43,0,18.7,-0.48
nw_cut_3_0_ch3_opt_disp_struct_1.xyz,Nucleus 30H :,-0.372854,-0.611201,3.451737,30.0,34.75,28.15,27.1,39.22,18.68,21.93,-5.29,9.75,5.7,27.1,28.15,34.75,0,7.65,-0.73
nw_cut_3_0_ch3_opt_disp_struct_1.xyz,Nucleus 0C :,-0.138427,-0.273454,4.455844,172.79,160.73,169.41,188.22,236.07,242.05,258.55,-77.95,-73.67,-66.68,160.73,169.41,188.22,0,27.49,-0.37
nw_cut_3_0_ch3_opt_disp_struct_1.xyz,Nucleus 3C :,2.516229,1.642803,0.682334,64.0,149.23,52.52,-9.74,244.04,263.62,277.97,-94.94,-224.3,-274.37,-9.74,52.52,149.23,0,158.97,-0.22
nw_cut_3_0_ch3_opt_disp_struct_1.xyz,Nucleus 4C :,0.09086,0.294571,-1.79408,54.64,-31.09,127.79,67.21,275.95,257.4,259.25,-295.71,-131.2,-201.77,-31.09,67.21,127.79,0,158.88,0.24
nw_cut_3_0_ch3_opt_disp_struct_1.xyz,Nucleus 7C :,-2.979652,-3.190207,0.690033,41.96,144.05,-36.91,18.73,265.11,273.4,274.45,-127.03,-310.21,-249.85,-36.91,18.73,144.05,0,180.96,-0.39
nw_cut_3_0_ch3_opt_disp_struct_1.xyz,Nucleus 8C :,-3.6977,-2.708246,2.235574,49.35,169.46,-0.46,-20.95,225.49,267.74,256.28,-56.25,-266.42,-278.78,-20.95,-0.46,169.46,0,190.41,-0.78
nw_cut_3_0_ch3_opt_disp_struct_1.xyz,Nucleus 9C :,-2.493252,-3.996137,2.186965,55.04,159.73,48.29,-42.91,250.66,275.17,271.88,-92.55,-225.81,-314.24,-42.91,48.29,159.73,0,202.64,-0.1
nw_cut_3_0_ch3_opt_disp_struct_1.xyz,Nucleus 11C :,3.358669,-4.255693,1.578414,43.16,174.74,-62.43,17.16,235.96,263.0,279.48,-62.54,-328.02,-258.4,-62.43,17.16,174.74,0,237.17,-0.33
nw_cut_3_0_ch3_opt_disp_struct_1.xyz,Nucleus 12C :,4.295432,-4.499491,2.084024,161.27,188.85,138.39,156.58,255.61,223.83,230.38,-62.31,-76.38,-87.32,138.39,156.58,188.85,0,50.46,-0.28
nw_cut_3_0_ch3_opt_disp_struct_1.xyz,Nucleus 13C :,3.470245,-3.311347,1.0377,52.23,166.23,44.64,-54.18,230.17,256.84,278.86,-64.31,-233.73,-311.15,-54.18,44.64,166.23,0,220.41,-0.1
nw_cut_3_0_ch3_opt_disp_struct_1.xyz,Nucleus 15C :,2.24202,-4.237362,2.582745,62.0,171.56,45.04,-30.6,244.82,273.93,268.48,-73.69,-228.13,-299.41,-30.6,45.04,171.56,0,202.16,-0.25
nw_cut_3_0_ch3_opt_disp_struct_1.xyz,Nucleus 22C :,2.12294,-5.074043,3.469692,164.07,191.32,157.95,142.95,257.32,234.96,242.38,-64.88,-84.32,-93.24,142.95,157.95,191.32,0,48.37,-0.38
nw_cut_3_0_ch3_opt_disp_struct_1.xyz,Nucleus 25C :,1.34161,-3.226734,2.436917,4.49,-86.64,94.1,6.0,199.51,252.14,270.91,-105.47,-340.27,-263.35,-86.64,6.0,94.1,0,180.74,0.03
nw_cut_3_0_ch3_opt_disp_struct_1.xyz,Nucleus 5N :,1.324151,-2.710628,1.581619,116.84,53.53,170.0,127.0,300.22,336.69,330.85,-131.22,-209.45,-276.56,53.53,127.0,170.0,0,116.47,0.26
nw_cut_3_0_ch3_opt_disp_struct_1.xyz,Nucleus 27N :,0.499539,-3.310043,2.971406,141.16,28.45,242.92,152.12,294.74,324.36,344.09,-298.76,-94.01,-146.92,28.45,152.12,242.92,0,214.47,0.15
nw_cut_3_0_ch3_opt_disp_struct_1.xyz,Nucleus 26O :,3.163431,-5.054339,0.855038,-93.55,320.69,-219.64,-381.7,342.85,381.46,427.05,-22.57,-602.64,-806.8,-381.7,-219.64,320.69,0,702.39,-0.54
nw_cut_3_0_ch3_opt_disp_struct_10.xyz,Nucleus 1H :,1.034057,0.00555,-1.315262,29.08,35.07,23.42,28.76,40.34,26.95,29.51,-6.74,-0.21,-2.6,23.42,28.76,35.07,0,11.65,-0.08
nw_cut_3_0_ch3_opt_disp_struct_10.xyz,Nucleus 2H :,1.823041,0.642913,-1.722515,29.03,35.3,24.38,27.41,46.83,25.48,27.99,-12.5,1.5,-2.21,24.38,27.41,35.3,0,10.92,-0.45
nw_cut_3_0_ch3_opt_disp_struct_10.xyz,Nucleus 6H :,1.246697,-1.024825,-1.624886,24.06,16.24,24.99,30.94,49.96,15.2,30.36,-19.37,-5.28,1.3,16.24,24.99,30.94,0,14.7,0.19
nw_cut_3_0_ch3_opt_disp_struct_10.xyz,Nucleus 10H :,0.955371,0.130462,0.163125,23.76,29.82,19.13,22.32,34.07,39.41,51.37,-4.3,-19.71,-29.57,19.13,22.32,29.82,0,10.69,-0.4
nw_cut_3_0_ch3_opt_disp_struct_10.xyz,Nucleus 14H :,1.729181,0.95537,0.955681,23.94,28.54,19.93,23.35,10.08,33.13,46.53,-23.25,9.93,-4.6,19.93,23.35,28.54,0,8.61,-0.21
nw_cut_3_0_ch3_opt_disp_struct_10.xyz,Nucleus 16H :,1.341974,0.788455,2.257691,24.0,19.45,27.94,24.62,12.12,32.35,48.63,-24.09,-4.42,7.41,19.45,24.62,27.94,0,8.49,0.22
nw_cut_3_0_ch3_opt_disp_struct_10.xyz,Nucleus 17H :,1.761574,1.245108,3.048378,24.26,20.67,25.19,26.91,44.65,28.55,31.98,-19.44,-7.73,-5.24,20.67,25.19,26.91,0,6.24,0.45
nw_cut_3_0_ch3_opt_disp_struct_10.xyz,Nucleus 18H :,0.32558,-0.13394,2.337541,28.97,35.58,27.08,24.25,43.51,26.69,33.19,-0.08,-10.47,-5.93,24.25,27.08,35.58,0,11.33,-0.5
nw_cut_3_0_ch3_opt_disp_struct_10.xyz,Nucleus 19H :,0.058305,-0.563055,1.038027,29.18,23.79,29.47,34.27,42.68,22.01,27.85,-9.19,2.58,1.6,23.79,29.47,34.27,0,10.48,0.08
nw_cut_3_0_ch3_opt_disp_struct_10.xyz,Nucleus 20H :,-0.962816,-1.517854,0.842612,28.74,34.79,23.79,27.65,39.54,13.17,27.3,11.2,-5.42,0.43,23.79,27.65,34.79,0,11.0,-0.3
nw_cut_3_0_ch3_opt_disp_struct_10.xyz,Nucleus 21H :,-1.198801,-1.872619,-0.156872,28.67,34.47,24.68,26.87,42.13,12.26,24.58,12.47,-7.74,2.32,24.68,26.87,34.47,0,9.79,-0.55
nw_cut_3_0_ch3_opt_disp_struct_10.xyz,Nucleus 23H :,-1.680518,-2.015113,1.943495,29.77,34.99,27.82,26.49,38.82,16.85,6.33,-4.25,10.8,20.74,26.49,27.82,34.99,0,8.5,-0.69
nw_cut_3_0_ch3_opt_disp_struct_10.xyz,Nucleus 24H :,-2.770304,-3.028847,1.749916,30.11,25.59,30.99,33.76,23.67,41.58,33.43,-8.87,-1.78,2.3,25.59,30.99,33.76,0,8.17,0.32
nw_cut_3_0_ch3_opt_disp_struct_10.xyz,Nucleus 28H :,-1.378307,-1.558204,3.230441,27.45,34.23,22.03,26.09,31.64,47.65,50.59,-2.32,-26.2,-19.0,22.03,26.09,34.23,0,12.2,-0.33
nw_cut_3_0_ch3_opt_disp_struct_10.xyz,Nucleus 29H :,-1.935275,-1.945323,4.079258,27.61,34.94,23.31,24.57,42.21,36.5,32.88,-2.57,-13.36,-12.83,23.31,24.57,34.94,0,11.63,-0.78
nw_cut_3_0_ch3_opt_disp_struct_10.xyz,Nucleus 30H :,-0.372854,-0.611201,3.451737,29.67,34.23,27.63,27.14,38.46,12.77,20.5,-5.51,15.72,7.06,27.14,27.63,34.23,0,7.09,-0.86
nw_cut_3_0_ch3_opt_disp_struct_10.xyz,Nucleus 0C :,-0.138427,-0.273454,4.455844,172.75,160.85,169.18,188.22,235.78,241.47,257.85,-77.06,-73.4,-66.39,160.85,169.18,188.22,0,27.37,-0.39
nw_cut_3_0_ch3_opt_disp_struct_10.xyz,Nucleus 3C :,2.516229,1.642803,0.682334,63.66,149.1,52.62,-10.74,242.37,262.87,276.04,-93.32,-222.49,-274.5,-10.74,52.62,149.1,0,159.84,-0.21
nw_cut_3_0_ch3_opt_disp_struct_10.xyz,Nucleus 4C :,0.09086,0.294571,-1.79408,55.91,-29.48,127.53,69.68,274.64,257.97,258.77,-293.67,-131.26,-198.71,-29.48,69.68,127.53,0,157.01,0.26
nw_cut_3_0_ch3_opt_disp_struct_10.xyz,Nucleus 7C :,-2.979652,-3.190207,0.690033,43.06,143.03,-34.92,21.06,272.42,269.63,266.53,-125.84,-306.88,-246.69,-34.92,21.06,143.03,0,177.95,-0.37
nw_cut_3_0_ch3_opt_disp_struct_10.xyz,Nucleus 8C :,-3.6977,-2.708246,2.235574,49.07,168.3,0.52,-21.61,225.68,267.57,257.94,-57.67,-265.63,-280.67,-21.61,0.52,168.3,0,189.91,-0.77
nw_cut_3_0_ch3_opt_disp_struct_10.xyz,Nucleus 9C :,-2.493252,-3.996137,2.186965,55.47,158.41,50.47,-42.46,250.24,272.52,269.82,-92.36,-221.75,-312.06,-42.46,50.47,158.41,0,200.87,-0.07
nw_cut_3_0_ch3_opt_disp_struct_10.xyz,Nucleus 11C :,4.864243,-5.910873,1.815319,44.63,173.57,-60.83,21.16,235.11,263.47,276.07,-61.73,-326.12,-252.9,-60.83,21.16,173.57,0,234.4,-0.3
nw_cut_3_0_ch3_opt_disp_struct_10.xyz,Nucleus 12C :,5.801007,-6.154672,2.320928,161.12,188.69,137.95,156.73,255.19,222.91,229.63,-62.23,-75.58,-86.56,137.95,156.73,188.69,0,50.74,-0.26
nw_cut_3_0_ch3_opt_disp_struct_10.xyz,Nucleus 13C :,4.975819,-4.966528,1.274604,52.11,164.64,46.66,-54.97,229.69,258.3,275.95,-65.06,-229.08,-313.46,-54.97,46.66,164.64,0,219.61,-0.07
nw_cut_3_0_ch3_opt_disp_struct_10.xyz,Nucleus 15C :,3.747594,-5.892542,2.81965,65.35,170.29,51.99,-26.22,244.2,272.98,265.55,-74.12,-219.75,-292.8,-26.22,51.99,170.29,0,196.51,-0.2
nw_cut_3_0_ch3_opt_disp_struct_10.xyz,Nucleus 22C :,3.628514,-6.729223,3.706597,163.51,191.02,156.14,143.36,260.53,231.26,238.55,-67.89,-81.95,-89.98,143.36,156.14,191.02,0,47.66,-0.46
nw_cut_3_0_ch3_opt_disp_struct_10.xyz,Nucleus 25C :,2.847184,-4.881914,2.673822,4.25,-90.06,94.17,8.65,191.09,252.27,270.42,-97.07,-343.36,-260.59,-90.06,8.65,94.17,0,184.23,0.07
nw_cut_3_0_ch3_opt_disp_struct_10.xyz,Nucleus 5N :,2.829725,-4.365809,1.818523,119.06,57.54,169.41,130.22,300.14,336.62,330.72,-131.2,-206.3,-272.82,57.54,130.22,169.41,0,111.87,0.3
nw_cut_3_0_ch3_opt_disp_struct_10.xyz,Nucleus 27N :,2.005113,-4.965224,3.208311,144.73,44.61,243.87,145.72,297.32,328.06,341.88,-285.29,-87.24,-160.53,44.61,145.72,243.87,0,199.26,0.01
nw_cut_3_0_ch3_opt_disp_struct_10.xyz,Nucleus 26O :,4.669006,-6.709519,1.091943,-104.25,319.74,-231.59,-400.9,331.66,380.42,427.75,-12.21,-613.83,-826.54,-400.9,-231.59,319.74,0,720.64,-0.53
nw_cut_3_0_ch3_opt_disp_struct_11.xyz,Nucleus 1H :,1.034057,0.00555,-1.315262,29.09,35.07,23.42,28.77,40.31,26.95,29.52,-6.7,-0.22,-2.61,23.42,28.77,35.07,0,11.65,-0.08
nw_cut_3_0_ch3_opt_disp_struct_11.xyz,Nucleus 2H :,1.823041,0.642913,-1.722515,29.03,35.31,24.37,27.4,46.78,25.45,27.98,-12.44,1.54,-2.22,24.37,27.4,35.31,0,10.94,-0.45
nw_cut_3_0_ch3_opt_disp_struct_11.xyz,Nucleus 6H :,1.246697,-1.024825,-1.624886,24.06,16.23,25.0,30.96,49.9,15.2,30.38,-19.29,-5.29,1.29,16.23,25.0,30.96,0,14.73,0.19
nw_cut_3_0_ch3_opt_disp_struct_11.xyz,Nucleus 10H :,0.955371,0.130462,0.163125,23.76,29.84,19.12,22.31,33.99,39.36,51.22,-4.2,-19.7,-29.4,19.12,22.31,29.84,0,10.72,-0.41
nw_cut_3_0_ch3_opt_disp_struct_11.xyz,Nucleus 14H :,1.729181,0.95537,0.955681,23.94,28.57,19.91,23.35,10.06,33.04,46.51,-23.22,9.93,-4.48,19.91,23.35,28.57,0,8.66,-0.2
nw_cut_3_0_ch3_opt_disp_struct_11.xyz,Nucleus 16H :,1.341974,0.788455,2.257691,24.01,19.43,27.96,24.63,12.12,32.36,48.53,-23.96,-4.41,7.38,19.43,24.63,27.96,0,8.53,0.22
nw_cut_3_0_ch3_opt_disp_struct_11.xyz,Nucleus 17H :,1.761574,1.245108,3.048378,24.26,20.67,25.2,26.92,44.63,28.54,31.98,-19.41,-7.73,-5.23,20.67,25.2,26.92,0,6.25,0.45
nw_cut_3_0_ch3_opt_disp_struct_11.xyz,Nucleus 18H :,0.32558,-0.13394,2.337541,28.97,35.57,27.09,24.26,43.52,26.67,33.19,-0.05,-10.48,-5.92,24.26,27.09,35.57,0,11.31,-0.5
nw_cut_3_0_ch3_opt_disp_struct_11.xyz,Nucleus 19H :,0.058305,-0.563055,1.038027,29.18,23.78,29.48,34.27,42.61,21.97,27.84,-9.1,2.6,1.61,23.78,29.48,34.27,0,10.49,0.09
nw_cut_3_0_ch3_opt_disp_struct_11.xyz,Nucleus 20H :,-0.962816,-1.517854,0.842612,28.74,34.77,23.79,27.66,39.53,13.17,27.24,11.19,-5.4,0.5,23.79,27.66,34.77,0,10.98,-0.3
nw_cut_3_0_ch3_opt_disp_struct_11.xyz,Nucleus 21H :,-1.198801,-1.872619,-0.156872,28.67,34.49,24.65,26.87,42.05,12.25,24.61,12.44,-7.63,2.3,24.65,26.87,34.49,0,9.84,-0.55
nw_cut_3_0_ch3_opt_disp_struct_11.xyz,Nucleus 23H :,-1.680518,-2.015113,1.943495,29.74,34.94,27.82,26.47,38.74,16.62,5.63,-4.24,21.45,11.04,26.47,27.82,34.94,0,8.47,-0.68
nw_cut_3_0_ch3_opt_disp_struct_11.xyz,Nucleus 24H :,-2.770304,-3.028847,1.749916,30.09,25.63,30.87,33.77,41.89,33.21,23.43,-9.22,-1.64,2.6,25.63,30.87,33.77,0,8.14,0.29
nw_cut_3_0_ch3_opt_disp_struct_11.xyz,Nucleus 28H :,-1.378307,-1.558204,3.230441,27.37,33.92,26.1,22.09,31.69,48.11,51.03,-2.42,-27.11,-19.2,22.09,26.1,33.92,0,11.83,-0.32
nw_cut_3_0_ch3_opt_disp_struct_11.xyz,Nucleus 29H :,-1.935275,-1.945323,4.079258,27.54,34.85,23.36,24.41,42.67,32.65,37.33,-2.71,-14.22,-13.12,23.36,24.41,34.85,0,11.49,-0.82
nw_cut_3_0_ch3_opt_disp_struct_11.xyz,Nucleus 30H :,-0.372854,-0.611201,3.451737,29.64,34.2,27.58,27.15,38.42,12.15,20.33,-5.54,16.35,7.24,27.15,27.58,34.2,0,7.05,-0.88
nw_cut_3_0_ch3_opt_disp_struct_11.xyz,Nucleus 0C :,-0.138427,-0.273454,4.455844,172.75,160.86,169.16,188.22,235.74,241.46,257.82,-77.01,-73.39,-66.37,160.86,169.16,188.22,0,27.36,-0.39
nw_cut_3_0_ch3_opt_disp_struct_11.xyz,Nucleus 3C :,2.516229,1.642803,0.682334,63.63,149.06,52.61,-10.79,242.29,262.81,275.91,-93.28,-222.31,-274.54,-10.79,52.61,149.06,0,159.85,-0.21
nw_cut_3_0_ch3_opt_disp_struct_11.xyz,Nucleus 4C :,0.09086,0.294571,-1.79408,55.96,-29.41,127.52,69.78,274.57,257.9,258.87,-293.61,-131.3,-198.53,-29.41,69.78,127.52,0,156.93,0.26
nw_cut_3_0_ch3_opt_disp_struct_11.xyz,Nucleus 7C :,-2.979652,-3.190207,0.690033,43.06,143.0,-34.91,21.09,266.39,272.3,269.54,-125.78,-306.61,-246.66,-34.91,21.09,143.0,0,177.91,-0.37
nw_cut_3_0_ch3_opt_disp_struct_11.xyz,Nucleus 8C :,-3.6977,-2.708246,2.235574,49.02,168.22,0.5,-21.65,225.64,267.11,257.98,-57.69,-265.25,-280.72,-21.65,0.5,168.22,0,189.87,-0.77
nw_cut_3_0_ch3_opt_disp_struct_11.xyz,Nucleus 9C :,-2.493252,-3.996137,2.186965,55.41,158.34,50.42,-42.52,250.19,272.34,269.52,-92.33,-221.65,-311.83,-42.52,50.42,158.34,0,200.86,-0.07
nw_cut_3_0_ch3_opt_disp_struct_11.xyz,Nucleus 11C :,5.031529,-6.094782,1.841642,44.64,173.51,-60.82,21.24,235.05,263.39,275.84,-61.7,-325.95,-252.7,-60.82,21.24,173.51,0,234.33,-0.3
nw_cut_3_0_ch3_opt_disp_struct_11.xyz,Nucleus 12C :,5.968293,-6.338581,2.347251,161.12,188.7,137.92,156.75,255.09,222.9,229.56,-62.09,-75.55,-86.54,137.92,156.75,188.7,0,50.78,-0.26
nw_cut_3_0_ch3_opt_disp_struct_11.xyz,Nucleus 13C :,5.143105,-5.150437,1.300927,52.11,164.58,46.71,-54.97,229.64,258.29,275.68,-65.08,-228.77,-313.45,-54.97,46.71,164.58,0,219.55,-0.07
nw_cut_3_0_ch3_opt_disp_struct_11.xyz,Nucleus 15C :,3.91488,-6.076451,2.845972,65.4,170.23,52.13,-26.15,244.19,272.95,265.37,-74.18,-219.53,-292.59,-26.15,52.13,170.23,0,196.38,-0.2
nw_cut_3_0_ch3_opt_disp_struct_11.xyz,Nucleus 22C :,3.7958,-6.913132,3.73292,163.48,191.01,156.05,143.39,260.85,230.76,238.19,-68.12,-81.69,-89.55,143.39,156.05,191.01,0,47.62,-0.47
nw_cut_3_0_ch3_opt_disp_struct_11.xyz,Nucleus 25C :,3.01447,-5.065823,2.700145,4.23,-90.23,94.18,8.75,190.22,252.24,270.5,-96.2,-343.44,-260.61,-90.23,8.75,94.18,0,184.41,0.07
nw_cut_3_0_ch3_opt_disp_struct_11.xyz,Nucleus 5N :,2.997011,-4.549718,1.844846,119.15,57.7,169.38,130.38,300.11,336.58,330.65,-131.14,-206.1,-272.64,57.7,130.38,169.38,0,111.68,0.3
nw_cut_3_0_ch3_opt_disp_struct_11.xyz,Nucleus 27N :,2.172399,-5.149133,3.234634,144.84,44.96,243.75,145.8,297.5,328.45,342.05,-285.24,-86.99,-161.26,44.96,145.8,243.75,0,198.79,0.01
nw_cut_3_0_ch3_opt_disp_struct_11.xyz,Nucleus 26O :,4.836292,-6.893428,1.118266,-104.62,319.66,-231.95,-401.57,331.06,380.32,427.8,-11.69,-614.11,-827.24,-401.57,-231.95,319.66,0,721.23,-0.53
nw_cut_3_0_ch3_opt_disp_struct_12.xyz,Nucleus 1H :,1.034057,0.00555,-1.315262,29.09,35.07,23.42,28.78,40.28,26.95,29.54,-6.67,-0.22,-2.61,23.42,28.78,35.07,0,11.65,-0.08
nw_cut_3_0_ch3_opt_disp_struct_12.xyz,Nucleus 2H :,1.823041,0.642913,-1.722515,29.03,35.33,24.37,27.39,46.73,25.43,27.97,-12.39,1.58,-2.22,24.37,27.39,35.33,0,10.96,-0.45
nw_cut_3_0_ch3_opt_disp_struct_12.xyz,Nucleus 6H :,1.246697,-1.024825,-1.624886,24.07,16.23,25.01,30.97,49.83,15.19,30.4,-19.21,-5.29,1.28,16.23,25.01,30.97,0,14.74,0.19
nw_cut_3_0_ch3_opt_disp_struct_12.xyz,Nucleus 10H :,0.955371,0.130462,0.163125,23.76,29.86,19.1,22.31,33.93,39.32,51.08,-4.12,-19.7,-29.25,19.1,22.31,29.86,0,10.76,-0.4
nw_cut_3_0_ch3_opt_disp_struct_12.xyz,Nucleus 14H :,1.729181,0.95537,0.955681,23.95,28.59,19.9,23.35,10.03,32.95,46.5,-23.2,9.94,-4.37,19.9,23.35,28.59,0,8.69,-0.21
nw_cut_3_0_ch3_opt_disp_struct_12.xyz,Nucleus 16H :,1.341974,0.788455,2.257691,24.01,19.41,27.97,24.64,12.13,32.38,48.42,-23.85,-4.41,7.36,19.41,24.64,27.97,0,8.56,0.22
nw_cut_3_0_ch3_opt_disp_struct_12.xyz,Nucleus 17H :,1.761574,1.245108,3.048378,24.27,20.67,25.2,26.93,44.61,28.53,31.98,-19.38,-7.74,-5.21,20.67,25.2,26.93,0,6.26,0.45
nw_cut_3_0_ch3_opt_disp_struct_12.xyz,Nucleus 18H :,0.32558,-0.13394,2.337541,28.98,35.57,27.1,24.27,43.52,26.65,33.18,-0.03,-10.48,-5.9,24.27,27.1,35.57,0,11.3,-0.5
nw_cut_3_0_ch3_opt_disp_struct_12.xyz,Nucleus 19H :,0.058305,-0.563055,1.038027,29.17,23.77,29.48,34.27,42.54,21.94,27.83,-9.02,2.62,1.62,23.77,29.48,34.27,0,10.5,0.09
nw_cut_3_0_ch3_opt_disp_struct_12.xyz,Nucleus 20H :,-0.962816,-1.517854,0.842612,28.74,34.76,23.8,27.67,39.52,13.18,27.19,11.18,-5.39,0.56,23.8,27.67,34.76,0,10.96,-0.29
nw_cut_3_0_ch3_opt_disp_struct_12.xyz,Nucleus 21H :,-1.198801,-1.872619,-0.156872,28.67,34.51,24.63,26.88,41.97,12.24,24.62,12.42,-7.53,2.29,24.63,26.88,34.51,0,9.88,-0.54
nw_cut_3_0_ch3_opt_disp_struct_12.xyz,Nucleus 23H :,-1.680518,-2.015113,1.943495,29.73,34.89,27.83,26.46,38.66,16.38,4.91,-4.23,22.17,11.28,26.46,27.83,34.89,0,8.43,-0.68
nw_cut_3_0_ch3_opt_disp_struct_12.xyz,Nucleus 24H :,-2.770304,-3.028847,1.749916,30.07,25.65,30.77,33.78,42.19,33.0,23.18,-9.56,-1.51,2.9,25.65,30.77,33.78,0,8.13,0.26
nw_cut_3_0_ch3_opt_disp_struct_12.xyz,Nucleus 28H :,-1.378307,-1.558204,3.230441,27.3,33.65,26.1,22.15,31.73,48.43,51.61,-2.49,-27.99,-19.39,22.15,26.1,33.65,0,11.5,-0.31
nw_cut_3_0_ch3_opt_disp_struct_12.xyz,Nucleus 29H :,-1.935275,-1.945323,4.079258,27.48,34.77,23.4,24.27,32.44,43.1,38.15,-2.82,-15.09,-13.35,23.4,24.27,34.77,0,11.37,-0.85
nw_cut_3_0_ch3_opt_disp_struct_12.xyz,Nucleus 30H :,-0.372854,-0.611201,3.451737,29.63,34.18,27.55,27.16,38.4,11.53,20.15,-5.59,16.99,7.42,27.16,27.55,34.18,0,7.02,-0.89
nw_cut_3_0_ch3_opt_disp_struct_12.xyz,Nucleus 0C :,-0.138427,-0.273454,4.455844,172.75,160.87,169.15,188.23,235.71,241.46,257.78,-76.97,-73.38,-66.35,160.87,169.15,188.23,0,27.36,-0.39
nw_cut_3_0_ch3_opt_disp_struct_12.xyz,Nucleus 3C :,2.516229,1.642803,0.682334,63.61,149.04,52.6,-10.82,242.22,262.75,275.79,-93.23,-222.15,-274.56,-10.82,52.6,149.04,0,159.86,-0.21
nw_cut_3_0_ch3_opt_disp_struct_12.xyz,Nucleus 4C :,0.09086,0.294571,-1.79408,56.0,-29.37,127.5,69.87,274.51,257.81,258.98,-293.57,-131.35,-198.37,-29.37,69.87,127.5,0,156.87,0.27
nw_cut_3_0_ch3_opt_disp_struct_12.xyz,Nucleus 7C :,-2.979652,-3.190207,0.690033,43.06,142.95,-34.9,21.12,266.25,272.23,269.47,-125.75,-306.39,-246.62,-34.9,21.12,142.95,0,177.85,-0.37
nw_cut_3_0_ch3_opt_disp_struct_12.xyz,Nucleus 8C :,-3.6977,-2.708246,2.235574,49.0,168.17,0.51,-21.67,225.59,266.76,258.0,-57.67,-264.94,-280.73,-21.67,0.51,168.17,0,189.84,-0.77
nw_cut_3_0_ch3_opt_disp_struct_12.xyz,Nucleus 9C :,-2.493252,-3.996137,2.186965,55.36,158.29,50.37,-42.58,250.14,272.2,269.29,-92.3,-221.59,-311.66,-42.58,50.37,158.29,0,200.87,-0.07
nw_cut_3_0_ch3_opt_disp_struct_12.xyz,Nucleus 11C :,5.198815,-6.278691,1.867964,44.66,173.46,-60.8,21.32,234.98,263.32,275.68,-61.67,-325.79,-252.53,-60.8,21.32,173.46,0,234.26,-0.3
nw_cut_3_0_ch3_opt_disp_struct_12.xyz,Nucleus 12C :,6.135579,-6.52249,2.373574,161.12,188.7,137.9,156.77,255.0,222.89,229.5,-61.96,-75.54,-86.52,137.9,156.77,188.7,0,50.8,-0.26
nw_cut_3_0_ch3_opt_disp_struct_12.xyz,Nucleus 13C :,5.310391,-5.334346,1.32725,52.1,164.52,46.75,-54.98,229.59,258.29,275.47,-65.09,-228.52,-313.45,-54.98,46.75,164.52,0,219.5,-0.07
nw_cut_3_0_ch3_opt_disp_struct_12.xyz,Nucleus 15C :,4.082166,-6.26036,2.872295,65.45,170.17,52.25,-26.07,244.19,272.94,265.22,-74.23,-219.35,-292.4,-26.07,52.25,170.17,0,196.24,-0.2
nw_cut_3_0_ch3_opt_disp_struct_12.xyz,Nucleus 22C :,3.963086,-7.097041,3.759243,163.46,191.0,155.98,143.4,261.17,230.27,237.84,-68.33,-81.43,-89.14,143.4,155.98,191.0,0,47.6,-0.47
nw_cut_3_0_ch3_opt_disp_struct_12.xyz,Nucleus 25C :,3.181756,-5.249732,2.726467,4.22,-90.36,94.19,8.82,189.36,252.21,270.6,-95.34,-343.5,-260.69,-90.36,8.82,94.19,0,184.55,0.07
nw_cut_3_0_ch3_opt_disp_struct_12.xyz,Nucleus 5N :,3.164297,-4.733627,1.871169,119.21,57.8,169.34,130.49,300.08,336.54,330.57,-131.12,-205.95,-272.49,57.8,130.49,169.34,0,111.54,0.3
nw_cut_3_0_ch3_opt_disp_struct_12.xyz,Nucleus 27N :,2.339685,-5.333042,3.260956,144.91,45.25,243.64,145.85,297.49,328.75,342.29,-285.18,-86.73,-161.89,45.25,145.85,243.64,0,198.39,0.01
nw_cut_3_0_ch3_opt_disp_struct_12.xyz,Nucleus 26O :,5.003578,-7.077337,1.144588,-104.9,319.7,-232.27,-402.13,330.49,380.21,427.84,-11.08,-614.34,-827.83,-402.13,-232.27,319.7,0,721.83,-0.53
nw_cut_3_0_ch3_opt_disp_struct_13.xyz,Nucleus 1H :,1.034057,0.00555,-1.315262,29.09,35.07,23.42,28.79,40.26,26.95,29.54,-6.64,-0.22,-2.61,23.42,28.79,35.07,0,11.65,-0.08
nw_cut_3_0_ch3_opt_disp_struct_13.xyz,Nucleus 2H :,1.823041,0.642913,-1.722515,29.03,35.34,24.36,27.38,46.68,25.4,27.95,-12.34,1.62,-2.22,24.36,27.38,35.34,0,10.98,-0.45
nw_cut_3_0_ch3_opt_disp_struct_13.xyz,Nucleus 6H :,1.246697,-1.024825,-1.624886,24.08,16.23,25.02,30.98,49.77,15.19,30.41,-19.12,-5.29,1.26,16.23,25.02,30.98,0,14.75,0.19
nw_cut_3_0_ch3_opt_disp_struct_13.xyz,Nucleus 10H :,0.955371,0.130462,0.163125,23.76,29.88,19.08,22.31,33.87,39.29,50.95,-4.04,-19.7,-29.1,19.08,22.31,29.88,0,10.8,-0.4
nw_cut_3_0_ch3_opt_disp_struct_13.xyz,Nucleus 14H :,1.729181,0.95537,0.955681,23.95,28.61,19.89,23.35,10.01,32.86,46.48,-23.18,9.94,-4.26,19.89,23.35,28.61,0,8.72,-0.21
nw_cut_3_0_ch3_opt_disp_struct_13.xyz,Nucleus 16H :,1.341974,0.788455,2.257691,24.01,19.4,27.99,24.65,12.13,32.38,48.33,-23.74,-4.4,7.33,19.4,24.65,27.99,0,8.59,0.22
nw_cut_3_0_ch3_opt_disp_struct_13.xyz,Nucleus 17H :,1.761574,1.245108,3.048378,24.27,20.67,25.2,26.94,44.59,28.53,31.97,-19.35,-7.74,-5.19,20.67,25.2,26.94,0,6.27,0.44
nw_cut_3_0_ch3_opt_disp_struct_13.xyz,Nucleus 18H :,0.32558,-0.13394,2.337541,28.98,35.56,27.11,24.27,43.51,26.63,33.17,-0.0,-10.49,-5.88,24.27,27.11,35.56,0,11.29,-0.5
nw_cut_3_0_ch3_opt_disp_struct_13.xyz,Nucleus 19H :,0.058305,-0.563055,1.038027,29.18,23.77,29.49,34.27,42.47,21.91,27.81,-8.93,2.64,1.63,23.77,29.49,34.27,0,10.5,0.09
nw_cut_3_0_ch3_opt_disp_struct_13.xyz,Nucleus 20H :,-0.962816,-1.517854,0.842612,28.75,34.75,23.81,27.68,39.51,13.19,27.13,11.17,-5.38,0.63,23.81,27.68,34.75,0,10.94,-0.29
nw_cut_3_0_ch3_opt_disp_struct_13.xyz,Nucleus 21H :,-1.198801,-1.872619,-0.156872,28.67,34.53,24.6,26.88,41.9,12.23,24.62,12.41,-7.44,2.29,24.6,26.88,34.53,0,9.93,-0.54
nw_cut_3_0_ch3_opt_disp_struct_13.xyz,Nucleus 23H :,-1.680518,-2.015113,1.943495,29.71,34.85,27.83,26.45,38.6,16.14,4.2,-4.23,22.89,11.53,26.45,27.83,34.85,0,8.4,-0.67
nw_cut_3_0_ch3_opt_disp_struct_13.xyz,Nucleus 24H :,-2.770304,-3.028847,1.749916,30.05,25.67,30.68,33.79,42.5,32.81,22.94,-9.9,-1.39,3.19,25.67,30.68,33.79,0,8.12,0.23
nw_cut_3_0_ch3_opt_disp_struct_13.xyz,Nucleus 28H :,-1.378307,-1.558204,3.230441,27.24,33.42,26.11,22.19,31.76,48.67,52.29,-2.55,-28.86,-19.6,22.19,26.11,33.42,0,11.23,-0.3
nw_cut_3_0_ch3_opt_disp_struct_13.xyz,Nucleus 29H :,-1.935275,-1.945323,4.079258,27.43,34.71,23.44,24.14,32.25,43.53,38.94,-2.9,-15.95,-13.57,23.44,24.14,34.71,0,11.27,-0.88
nw_cut_3_0_ch3_opt_disp_struct_13.xyz,Nucleus 30H :,-0.372854,-0.611201,3.451737,29.62,34.17,27.51,27.17,38.39,10.91,19.98,-5.64,17.62,7.6,27.17,27.51,34.17,0,7.0,-0.9
nw_cut_3_0_ch3_opt_disp_struct_13.xyz,Nucleus 0C :,-0.138427,-0.273454,4.455844,172.75,160.88,169.13,188.24,235.68,241.46,257.75,-76.93,-73.37,-66.32,160.88,169.13,188.24,0,27.36,-0.4
nw_cut_3_0_ch3_opt_disp_struct_13.xyz,Nucleus 3C :,2.516229,1.642803,0.682334,63.58,149.02,52.58,-10.85,242.16,262.7,275.67,-93.18,-222.02,-274.57,-10.85,52.58,149.02,0,159.87,-0.21
nw_cut_3_0_ch3_opt_disp_struct_13.xyz,Nucleus 4C :,0.09086,0.294571,-1.79408,56.03,-29.33,127.48,69.95,274.45,257.72,259.08,-293.54,-131.39,-198.22,-29.33,69.95,127.48,0,156.81,0.27
nw_cut_3_0_ch3_opt_disp_struct_13.xyz,Nucleus 7C :,-2.979652,-3.190207,0.690033,43.06,142.92,-34.89,21.15,266.11,272.18,269.39,-125.73,-306.19,-246.59,-34.89,21.15,142.92,0,177.81,-0.37
nw_cut_3_0_ch3_opt_disp_struct_13.xyz,Nucleus 8C :,-3.6977,-2.708246,2.235574,48.98,168.13,0.51,-21.69,225.54,266.44,258.01,-57.65,-264.65,-280.73,-21.69,0.51,168.13,0,189.82,-0.77
nw_cut_3_0_ch3_opt_disp_struct_13.xyz,Nucleus 9C :,-2.493252,-3.996137,2.186965,55.32,158.25,50.33,-42.63,250.1,272.06,269.07,-92.27,-221.52,-311.48,-42.63,50.33,158.25,0,200.88,-0.07
nw_cut_3_0_ch3_opt_disp_struct_13.xyz,Nucleus 11C :,5.366101,-6.4626,1.894287,44.68,173.42,-60.78,21.4,234.93,263.24,275.51,-61.65,-325.62,-252.38,-60.78,21.4,173.42,0,234.2,-0.3
nw_cut_3_0_ch3_opt_disp_struct_13.xyz,Nucleus 12C :,6.302865,-6.706398,2.399897,161.12,188.71,137.88,156.78,254.91,222.88,229.44,-61.83,-75.52,-86.52,137.88,156.78,188.71,0,50.83,-0.26
nw_cut_3_0_ch3_opt_disp_struct_13.xyz,Nucleus 13C :,5.477677,-5.518255,1.353573,52.09,164.47,46.79,-54.99,229.55,258.28,275.26,-65.11,-228.28,-313.44,-54.99,46.79,164.47,0,219.46,-0.07
nw_cut_3_0_ch3_opt_disp_struct_13.xyz,Nucleus 15C :,4.249452,-6.444269,2.898618,65.49,170.12,52.36,-26.01,244.19,272.92,265.06,-74.29,-219.19,-292.23,-26.01,52.36,170.12,0,196.13,-0.2
nw_cut_3_0_ch3_opt_disp_struct_13.xyz,Nucleus 22C :,4.130372,-7.28095,3.785565,163.43,190.99,155.9,143.41,261.49,229.8,237.51,-68.54,-81.18,-88.77,143.41,155.9,190.99,0,47.58,-0.47
nw_cut_3_0_ch3_opt_disp_struct_13.xyz,Nucleus 25C :,3.349042,-5.433641,2.75279,4.2,-90.48,94.21,8.87,188.51,252.17,270.71,-94.48,-343.53,-260.78,-90.48,8.87,94.21,0,184.69,0.08
nw_cut_3_0_ch3_opt_disp_struct_13.xyz,Nucleus 5N :,3.331583,-4.917536,1.897492,119.26,57.89,169.31,130.59,300.04,336.51,330.49,-131.09,-205.82,-272.34,57.89,130.59,169.31,0,111.42,0.31
nw_cut_3_0_ch3_opt_disp_struct_13.xyz,Nucleus 27N :,2.506971,-5.516951,3.287279,144.97,45.48,243.54,145.88,297.33,329.01,342.62,-285.18,-86.45,-162.43,45.48,145.88,243.54,0,198.06,0.01
nw_cut_3_0_ch3_opt_disp_struct_13.xyz,Nucleus 26O :,5.170864,-7.261246,1.170911,-105.14,319.74,-232.56,-402.61,329.81,380.11,427.91,-10.36,-614.54,-828.36,-402.61,-232.56,319.74,0,722.35,-0.53
nw_cut_3_0_ch3_opt_disp_struct_14.xyz,Nucleus 1H :,1.034057,0.00555,-1.315262,29.1,35.07,23.42,28.8,40.24,26.95,29.54,-6.61,-0.22,-2.61,23.42,28.8,35.07,0,11.65,-0.08
nw_cut_3_0_ch3_opt_disp_struct_14.xyz,Nucleus 2H :,1.823041,0.642913,-1.722515,29.03,35.35,24.35,27.38,46.62,25.37,27.94,-12.29,1.65,-2.22,24.35,27.38,35.35,0,11.0,-0.45
nw_cut_3_0_ch3_opt_disp_struct_14.xyz,Nucleus 6H :,1.246697,-1.024825,-1.624886,24.08,16.22,25.03,30.98,49.7,15.19,30.41,-19.04,-5.28,1.25,16.22,25.03,30.98,0,14.76,0.19
nw_cut_3_0_ch3_opt_disp_struct_14.xyz,Nucleus 10H :,0.955371,0.130462,0.163125,23.75,29.88,19.06,22.32,33.81,39.26,50.82,-3.97,-19.71,-28.96,19.06,22.32,29.88,0,10.82,-0.4
nw_cut_3_0_ch3_opt_disp_struct_14.xyz,Nucleus 14H :,1.729181,0.95537,0.955681,23.95,28.62,19.88,23.36,9.99,32.77,46.47,-23.16,9.94,-4.16,19.88,23.36,28.62,0,8.74,-0.2
nw_cut_3_0_ch3_opt_disp_struct_14.xyz,Nucleus 16H :,1.341974,0.788455,2.257691,24.01,19.39,28.0,24.65,12.13,32.38,48.23,-23.63,7.32,-4.39,19.39,24.65,28.0,0,8.61,0.22
nw_cut_3_0_ch3_opt_disp_struct_14.xyz,Nucleus 17H :,1.761574,1.245108,3.048378,24.27,20.67,25.2,26.95,44.57,28.52,31.96,-19.33,-7.74,-5.16,20.67,25.2,26.95,0,6.28,0.44
nw_cut_3_0_ch3_opt_disp_struct_14.xyz,Nucleus 18H :,0.32558,-0.13394,2.337541,28.98,35.55,27.11,24.28,43.51,26.61,33.15,0.02,-10.5,-5.86,24.28,27.11,35.55,0,11.27,-0.5
nw_cut_3_0_ch3_opt_disp_struct_14.xyz,Nucleus 19H :,0.058305,-0.563055,1.038027,29.18,23.77,29.49,34.27,42.4,21.88,27.8,-8.84,2.65,1.63,23.77,29.49,34.27,0,10.5,0.09
nw_cut_3_0_ch3_opt_disp_struct_14.xyz,Nucleus 20H :,-0.962816,-1.517854,0.842612,28.75,34.74,23.81,27.69,39.49,13.19,27.08,11.16,-5.37,0.69,23.81,27.69,34.74,0,10.93,-0.29
nw_cut_3_0_ch3_opt_disp_struct_14.xyz,Nucleus 21H :,-1.198801,-1.872619,-0.156872,28.67,34.55,24.58,26.88,41.82,12.22,24.61,12.4,-7.34,2.3,24.58,26.88,34.55,0,9.97,-0.54
nw_cut_3_0_ch3_opt_disp_struct_14.xyz,Nucleus 23H :,-1.680518,-2.015113,1.943495,29.7,34.81,27.83,26.45,38.54,15.9,3.5,-4.23,23.6,11.78,26.45,27.83,34.81,0,8.36,-0.67
nw_cut_3_0_ch3_opt_disp_struct_14.xyz,Nucleus 24H :,-2.770304,-3.028847,1.749916,30.03,25.69,30.6,33.79,42.8,32.63,22.68,-10.24,-1.28,3.49,25.69,30.6,33.79,0,8.1,0.21
nw_cut_3_0_ch3_opt_disp_struct_14.xyz,Nucleus 28H :,-1.378307,-1.558204,3.230441,27.19,33.22,26.11,22.23,31.79,53.04,48.87,-2.59,-29.72,-19.81,22.23,26.11,33.22,0,10.99,-0.29
nw_cut_3_0_ch3_opt_disp_struct_14.xyz,Nucleus 29H :,-1.935275,-1.945323,4.079258,27.39,34.65,23.47,24.04,32.09,43.95,39.7,-2.98,-16.81,-13.79,23.47,24.04,34.65,0,11.18,-0.9
nw_cut_3_0_ch3_opt_disp_struct_14.xyz,Nucleus 30H :,-0.372854,-0.611201,3.451737,29.6,34.15,27.48,27.18,38.38,10.29,19.79,-5.69,18.25,7.78,27.18,27.48,34.15,0,6.97,-0.91
nw_cut_3_0_ch3_opt_disp_struct_14.xyz,Nucleus 0C :,-0.138427,-0.273454,4.455844,172.75,160.89,169.12,188.25,235.65,241.46,257.71,-76.89,-73.37,-66.3,160.89,169.12,188.25,0,27.36,-0.4
nw_cut_3_0_ch3_opt_disp_struct_14.xyz,Nucleus 3C :,2.516229,1.642803,0.682334,63.57,149.01,52.57,-10.88,242.1,262.65,275.56,-93.14,-221.9,-274.56,-10.88,52.57,149.01,0,159.89,-0.21
nw_cut_3_0_ch3_opt_disp_struct_14.xyz,Nucleus 4C :,0.09086,0.294571,-1.79408,56.05,-29.3,127.45,70.01,274.39,257.63,259.18,-293.51,-131.43,-198.08,-29.3,70.01,127.45,0,156.75,0.27
nw_cut_3_0_ch3_opt_disp_struct_14.xyz,Nucleus 7C :,-2.979652,-3.190207,0.690033,43.06,142.88,-34.88,21.17,265.99,272.14,269.32,-125.73,-306.01,-246.55,-34.88,21.17,142.88,0,177.76,-0.37
nw_cut_3_0_ch3_opt_disp_struct_14.xyz,Nucleus 8C :,-3.6977,-2.708246,2.235574,48.98,168.11,0.52,-21.7,225.49,266.16,258.01,-57.61,-264.4,-280.71,-21.7,0.52,168.11,0,189.81,-0.77
nw_cut_3_0_ch3_opt_disp_struct_14.xyz,Nucleus 9C :,-2.493252,-3.996137,2.186965,55.28,158.22,50.3,-42.67,250.06,271.95,268.86,-92.25,-221.46,-311.32,-42.67,50.3,158.22,0,200.89,-0.07
nw_cut_3_0_ch3_opt_disp_struct_14.xyz,Nucleus 11C :,5.533387,-6.646509,1.92061,44.7,173.38,-60.75,21.46,234.88,263.16,275.36,-61.63,-325.46,-252.23,-60.75,21.46,173.38,0,234.13,-0.3
nw_cut_3_0_ch3_opt_disp_struct_14.xyz,Nucleus 12C :,6.470151,-6.890307,2.426219,161.12,188.72,137.85,156.79,254.82,222.88,229.38,-61.71,-75.51,-86.51,137.85,156.79,188.72,0,50.87,-0.26
nw_cut_3_0_ch3_opt_disp_struct_14.xyz,Nucleus 13C :,5.644963,-5.702164,1.379896,52.09,164.42,46.83,-54.99,229.52,258.27,275.08,-65.13,-228.06,-313.43,-54.99,46.83,164.42,0,219.41,-0.07
nw_cut_3_0_ch3_opt_disp_struct_14.xyz,Nucleus 15C :,4.416738,-6.628178,2.924941,65.52,170.07,52.45,-25.96,244.19,272.9,264.92,-74.34,-219.03,-292.08,-25.96,52.45,170.07,0,196.03,-0.2
nw_cut_3_0_ch3_opt_disp_struct_14.xyz,Nucleus 22C :,4.297658,-7.464859,3.811888,163.42,190.98,155.84,143.43,261.81,229.33,237.18,-68.74,-80.93,-88.41,143.43,155.84,190.98,0,47.55,-0.48
nw_cut_3_0_ch3_opt_disp_struct_14.xyz,Nucleus 25C :,3.516328,-5.61755,2.779113,4.19,-90.59,94.23,8.92,187.64,252.12,270.84,-93.61,-343.56,-260.87,-90.59,8.92,94.23,0,184.82,0.08
nw_cut_3_0_ch3_opt_disp_struct_14.xyz,Nucleus 5N :,3.498869,-5.101444,1.923815,119.3,57.97,169.27,130.67,300.01,336.49,330.41,-131.08,-205.72,-272.19,57.97,130.67,169.27,0,111.3,0.31
nw_cut_3_0_ch3_opt_disp_struct_14.xyz,Nucleus 27N :,2.674257,-5.70086,3.313602,145.02,45.71,243.44,145.91,297.23,329.27,343.01,-285.18,-86.19,-163.07,45.71,145.91,243.44,0,197.73,0.01
nw_cut_3_0_ch3_opt_disp_struct_14.xyz,Nucleus 26O :,5.33815,-7.445155,1.197234,-105.4,319.73,-232.84,-403.1,329.17,380.0,427.97,-9.73,-614.71,-828.9,-403.1,-232.84,319.73,0,722.83,-0.53
nw_cut_3_0_ch3_opt_disp_struct_15.xyz,Nucleus 1H :,1.034057,0.00555,-1.315262,29.1,35.07,23.42,28.81,40.22,26.95,29.53,-6.58,-0.21,-2.61,23.42,28.81,35.07,0,11.65,-0.07
nw_cut_3_0_ch3_opt_disp_struct_15.xyz,Nucleus 2H :,1.823041,0.642913,-1.722515,29.03,35.36,24.34,27.38,46.57,25.34,27.92,-12.25,1.69,-2.2,24.34,27.38,35.36,0,11.02,-0.45
nw_cut_3_0_ch3_opt_disp_struct_15.xyz,Nucleus 6H :,1.246697,-1.024825,-1.624886,24.08,16.22,25.04,30.99,49.63,15.19,30.42,-18.96,-5.27,1.24,16.22,25.04,30.99,0,14.77,0.19
nw_cut_3_0_ch3_opt_disp_struct_15.xyz,Nucleus 10H :,0.955371,0.130462,0.163125,23.75,29.89,19.04,22.32,33.76,39.24,50.7,-3.91,-19.71,-28.84,19.04,22.32,29.89,0,10.85,-0.4
nw_cut_3_0_ch3_opt_disp_struct_15.xyz,Nucleus 14H :,1.729181,0.95537,0.955681,23.95,28.64,19.86,23.36,9.97,32.68,46.45,-23.14,9.95,-4.05,19.86,23.36,28.64,0,8.78,-0.2
nw_cut_3_0_ch3_opt_disp_struct_15.xyz,Nucleus 16H :,1.341974,0.788455,2.257691,24.02,19.38,28.01,24.66,12.13,32.37,48.14,-23.53,7.31,-4.37,19.38,24.66,28.01,0,8.63,0.22
nw_cut_3_0_ch3_opt_disp_struct_15.xyz,Nucleus 17H :,1.761574,1.245108,3.048378,24.28,20.67,25.2,26.96,44.55,28.52,31.94,-19.3,-7.74,-5.14,20.67,25.2,26.96,0,6.29,0.44
nw_cut_3_0_ch3_opt_disp_struct_15.xyz,Nucleus 18H :,0.32558,-0.13394,2.337541,28.98,35.55,27.12,24.28,43.51,26.59,33.13,0.04,-10.5,-5.83,24.28,27.12,35.55,0,11.27,-0.5
nw_cut_3_0_ch3_opt_disp_struct_15.xyz,Nucleus 19H :,0.058305,-0.563055,1.038027,29.18,23.76,29.5,34.27,42.33,21.86,27.79,-8.76,2.67,1.64,23.76,29.5,34.27,0,10.51,0.09
nw_cut_3_0_ch3_opt_disp_struct_15.xyz,Nucleus 20H :,-0.962816,-1.517854,0.842612,28.75,34.74,23.82,27.7,39.48,13.19,27.03,11.16,-5.35,0.74,23.82,27.7,34.74,0,10.92,-0.29
nw_cut_3_0_ch3_opt_disp_struct_15.xyz,Nucleus 21H :,-1.198801,-1.872619,-0.156872,28.67,34.56,24.56,26.89,41.75,12.21,24.6,12.39,-7.26,2.32,24.56,26.89,34.56,0,10.0,-0.53
nw_cut_3_0_ch3_opt_disp_struct_15.xyz,Nucleus 23H :,-1.680518,-2.015113,1.943495,29.68,34.77,27.84,26.44,38.48,15.65,2.79,-4.23,24.32,12.04,26.44,27.84,34.77,0,8.33,-0.66
nw_cut_3_0_ch3_opt_disp_struct_15.xyz,Nucleus 24H :,-2.770304,-3.028847,1.749916,30.01,25.71,30.52,33.8,43.1,32.46,22.42,-10.58,-1.16,3.79,25.71,30.52,33.8,0,8.09,0.19
nw_cut_3_0_ch3_opt_disp_struct_15.xyz,Nucleus 28H :,-1.378307,-1.558204,3.230441,27.14,33.05,26.11,22.27,31.8,53.82,49.04,-2.63,-30.57,-20.02,22.27,26.11,33.05,0,10.78,-0.29
nw_cut_3_0_ch3_opt_disp_struct_15.xyz,Nucleus 29H :,-1.935275,-1.945323,4.079258,27.35,34.61,23.49,23.95,31.94,44.37,40.42,-3.04,-17.65,-14.0,23.49,23.95,34.61,0,11.12,-0.92
nw_cut_3_0_ch3_opt_disp_struct_15.xyz,Nucleus 30H :,-0.372854,-0.611201,3.451737,29.59,34.14,27.45,27.18,38.38,9.67,19.61,-5.75,18.89,7.97,27.18,27.45,34.14,0,6.96,-0.92
nw_cut_3_0_ch3_opt_disp_struct_15.xyz,Nucleus 0C :,-0.138427,-0.273454,4.455844,172.75,160.89,169.11,188.26,235.63,241.46,257.67,-76.85,-73.37,-66.28,160.89,169.11,188.26,0,27.37,-0.4
nw_cut_3_0_ch3_opt_disp_struct_15.xyz,Nucleus 3C :,2.516229,1.642803,0.682334,63.55,148.99,52.56,-10.9,242.06,262.6,275.45,-93.11,-221.8,-274.55,-10.9,52.56,148.99,0,159.89,-0.21
nw_cut_3_0_ch3_opt_disp_struct_15.xyz,Nucleus 4C :,0.09086,0.294571,-1.79408,56.08,-29.27,127.44,70.07,274.33,257.55,259.25,-293.48,-131.45,-197.95,-29.27,70.07,127.44,0,156.71,0.27
nw_cut_3_0_ch3_opt_disp_struct_15.xyz,Nucleus 7C :,-2.979652,-3.190207,0.690033,43.05,142.85,-34.88,21.19,265.88,272.11,269.25,-125.72,-305.85,-246.51,-34.88,21.19,142.85,0,177.73,-0.37
nw_cut_3_0_ch3_opt_disp_struct_15.xyz,Nucleus 8C :,-3.6977,-2.708246,2.235574,48.96,168.08,0.52,-21.71,225.45,265.93,258.0,-57.59,-264.21,-280.68,-21.71,0.52,168.08,0,189.79,-0.77
nw_cut_3_0_ch3_opt_disp_struct_15.xyz,Nucleus 9C :,-2.493252,-3.996137,2.186965,55.24,158.18,50.26,-42.71,250.03,271.85,268.7,-92.24,-221.42,-311.18,-42.71,50.26,158.18,0,200.89,-0.07
nw_cut_3_0_ch3_opt_disp_struct_15.xyz,Nucleus 11C :,5.700673,-6.830418,1.946933,44.71,173.35,-60.73,21.51,234.83,263.08,275.24,-61.6,-325.31,-252.11,-60.73,21.51,173.35,0,234.08,-0.3
nw_cut_3_0_ch3_opt_disp_struct_15.xyz,Nucleus 12C :,6.637437,-7.074216,2.452542,161.12,188.72,137.84,156.8,254.74,222.89,229.33,-61.59,-75.49,-86.51,137.84,156.8,188.72,0,50.88,-0.25
nw_cut_3_0_ch3_opt_disp_struct_15.xyz,Nucleus 13C :,5.812249,-5.886072,1.406218,52.08,164.38,46.86,-54.99,229.5,258.27,274.91,-65.14,-227.87,-313.42,-54.99,46.86,164.38,0,219.37,-0.07
nw_cut_3_0_ch3_opt_disp_struct_15.xyz,Nucleus 15C :,4.584024,-6.812087,2.951263,65.54,170.03,52.52,-25.92,244.19,272.88,264.78,-74.37,-218.9,-291.94,-25.92,52.52,170.03,0,195.95,-0.2
nw_cut_3_0_ch3_opt_disp_struct_15.xyz,Nucleus 22C :,4.464944,-7.648768,3.838211,163.4,190.97,155.78,143.44,262.12,228.85,236.86,-68.92,-80.66,-88.06,143.44,155.78,190.97,0,47.53,-0.48
nw_cut_3_0_ch3_opt_disp_struct_15.xyz,Nucleus 25C :,3.683614,-5.801459,2.805436,4.17,-90.68,94.24,8.96,186.77,252.07,270.99,-92.74,-343.56,-261.01,-90.68,8.96,94.24,0,184.92,0.08
nw_cut_3_0_ch3_opt_disp_struct_15.xyz,Nucleus 5N :,3.666155,-5.285353,1.950137,119.34,58.03,169.24,130.75,299.98,336.47,330.32,-131.07,-205.64,-272.04,58.03,130.75,169.24,0,111.21,0.31
nw_cut_3_0_ch3_opt_disp_struct_15.xyz,Nucleus 27N :,2.841543,-5.884769,3.339925,145.08,45.92,243.37,145.96,297.1,329.5,343.45,-285.18,-85.92,-163.7,45.92,145.96,243.37,0,197.45,0.01
nw_cut_3_0_ch3_opt_disp_struct_15.xyz,Nucleus 26O :,5.505436,-7.629064,1.223557,-105.59,319.77,-233.06,-403.47,328.55,379.89,428.04,-9.08,-614.83,-829.33,-403.47,-233.06,319.77,0,723.24,-0.53
nw_cut_3_0_ch3_opt_disp_struct_16.xyz,Nucleus 1H :,1.034057,0.00555,-1.315262,29.1,35.07,23.42,28.82,40.2,26.95,29.52,-6.56,-0.2,-2.6,23.42,28.82,35.07,0,11.65,-0.07
nw_cut_3_0_ch3_opt_disp_struct_16.xyz,Nucleus 2H :,1.823041,0.642913,-1.722515,29.02,35.37,24.33,27.37,46.53,25.31,27.91,-12.21,1.73,-2.19,24.33,27.37,35.37,0,11.04,-0.45
nw_cut_3_0_ch3_opt_disp_struct_16.xyz,Nucleus 6H :,1.246697,-1.024825,-1.624886,24.09,16.21,25.05,31.0,49.57,15.19,30.42,-18.89,-5.27,1.23,16.21,25.05,31.0,0,14.79,0.19
nw_cut_3_0_ch3_opt_disp_struct_16.xyz,Nucleus 10H :,0.955371,0.130462,0.163125,23.75,29.9,19.03,22.32,33.72,39.22,50.6,-3.85,-19.71,-28.72,19.03,22.32,29.9,0,10.87,-0.39
nw_cut_3_0_ch3_opt_disp_struct_16.xyz,Nucleus 14H :,1.729181,0.95537,0.955681,23.95,28.65,19.85,23.36,9.95,32.6,46.44,-23.12,9.95,-3.96,19.85,23.36,28.65,0,8.8,-0.2
nw_cut_3_0_ch3_opt_disp_struct_16.xyz,Nucleus 16H :,1.341974,0.788455,2.257691,24.02,19.37,28.02,24.67,12.13,32.37,48.05,-23.43,7.29,-4.35,19.37,24.67,28.02,0,8.65,0.23
nw_cut_3_0_ch3_opt_disp_struct_16.xyz,Nucleus 17H :,1.761574,1.245108,3.048378,24.28,20.67,25.2,26.96,44.53,28.51,31.92,-19.28,-7.74,-5.11,20.67,25.2,26.96,0,6.29,0.44
nw_cut_3_0_ch3_opt_disp_struct_16.xyz,Nucleus 18H :,0.32558,-0.13394,2.337541,28.99,35.55,27.13,24.28,43.51,26.57,33.12,0.06,-10.5,-5.81,24.28,27.13,35.55,0,11.27,-0.5
nw_cut_3_0_ch3_opt_disp_struct_16.xyz,Nucleus 19H :,0.058305,-0.563055,1.038027,29.18,23.76,29.5,34.27,42.27,21.85,27.78,-8.68,2.68,1.64,23.76,29.5,34.27,0,10.51,0.09
nw_cut_3_0_ch3_opt_disp_struct_16.xyz,Nucleus 20H :,-0.962816,-1.517854,0.842612,28.75,34.73,23.82,27.71,39.47,13.19,26.98,11.16,-5.34,0.8,23.82,27.71,34.73,0,10.91,-0.29
nw_cut_3_0_ch3_opt_disp_struct_16.xyz,Nucleus 21H :,-1.198801,-1.872619,-0.156872,28.67,34.57,24.55,26.89,41.69,12.19,24.58,12.39,-7.17,2.34,24.55,26.89,34.57,0,10.02,-0.53
nw_cut_3_0_ch3_opt_disp_struct_16.xyz,Nucleus 23H :,-1.680518,-2.015113,1.943495,29.67,34.74,27.84,26.43,38.43,15.4,2.08,-4.23,25.05,12.29,26.43,27.84,34.74,0,8.31,-0.66
nw_cut_3_0_ch3_opt_disp_struct_16.xyz,Nucleus 24H :,-2.770304,-3.028847,1.749916,29.99,25.72,30.45,33.81,43.39,32.3,22.15,-10.91,-1.06,4.1,25.72,30.45,33.81,0,8.09,0.17
nw_cut_3_0_ch3_opt_disp_struct_16.xyz,Nucleus 28H :,-1.378307,-1.558204,3.230441,27.11,32.9,26.12,22.3,31.81,54.62,49.21,-2.66,-31.43,-20.24,22.3,26.12,32.9,0,10.6,-0.28
nw_cut_3_0_ch3_opt_disp_struct_16.xyz,Nucleus 29H :,-1.935275,-1.945323,4.079258,27.32,34.57,23.5,23.88,31.82,44.81,41.09,-3.09,-18.48,-14.2,23.5,23.88,34.57,0,11.07,-0.93
nw_cut_3_0_ch3_opt_disp_struct_16.xyz,Nucleus 30H :,-0.372854,-0.611201,3.451737,29.58,34.12,27.43,27.19,38.4,9.06,19.42,-5.82,19.52,8.16,27.19,27.43,34.12,0,6.93,-0.93
nw_cut_3_0_ch3_opt_disp_struct_16.xyz,Nucleus 0C :,-0.138427,-0.273454,4.455844,172.76,160.9,169.1,188.27,235.6,241.46,257.64,-76.8,-73.37,-66.26,160.9,169.1,188.27,0,27.37,-0.4
nw_cut_3_0_ch3_opt_disp_struct_16.xyz,Nucleus 3C :,2.516229,1.642803,0.682334,63.54,148.98,52.55,-10.92,242.02,262.56,275.36,-93.09,-221.71,-274.54,-10.92,52.55,148.98,0,159.9,-0.21
nw_cut_3_0_ch3_opt_disp_struct_16.xyz,Nucleus 4C :,0.09086,0.294571,-1.79408,56.1,-29.24,127.42,70.12,274.27,257.48,259.3,-293.46,-131.47,-197.83,-29.24,70.12,127.42,0,156.66,0.27
nw_cut_3_0_ch3_opt_disp_struct_16.xyz,Nucleus 7C :,-2.979652,-3.190207,0.690033,43.05,142.83,-34.87,21.2,265.79,272.08,269.2,-125.73,-305.71,-246.47,-34.87,21.2,142.83,0,177.7,-0.37
nw_cut_3_0_ch3_opt_disp_struct_16.xyz,Nucleus 8C :,-3.6977,-2.708246,2.235574,48.95,168.06,0.52,-21.72,225.4,265.75,257.99,-57.57,-264.07,-280.64,-21.72,0.52,168.06,0,189.78,-0.77
nw_cut_3_0_ch3_opt_disp_struct_16.xyz,Nucleus 9C :,-2.493252,-3.996137,2.186965,55.22,158.16,50.24,-42.74,250.0,271.77,268.56,-92.23,-221.39,-311.06,-42.74,50.24,158.16,0,200.9,-0.07
nw_cut_3_0_ch3_opt_disp_struct_16.xyz,Nucleus 11C :,5.867959,-7.014327,1.973255,44.72,173.32,-60.72,21.56,234.78,263.01,275.13,-61.58,-325.18,-252.01,-60.72,21.56,173.32,0,234.04,-0.3
nw_cut_3_0_ch3_opt_disp_struct_16.xyz,Nucleus 12C :,6.804723,-7.258125,2.478865,161.12,188.73,137.82,156.81,254.66,222.89,229.28,-61.48,-75.49,-86.5,137.82,156.81,188.73,0,50.91,-0.25
nw_cut_3_0_ch3_opt_disp_struct_16.xyz,Nucleus 13C :,5.979535,-6.069981,1.432541,52.09,164.35,46.89,-54.98,229.48,258.26,274.76,-65.15,-227.69,-313.41,-54.98,46.89,164.35,0,219.33,-0.07
nw_cut_3_0_ch3_opt_disp_struct_16.xyz,Nucleus 15C :,4.75131,-6.995996,2.977586,65.57,170.0,52.59,-25.88,244.18,272.86,264.65,-74.4,-218.78,-291.82,-25.88,52.59,170.0,0,195.88,-0.2
nw_cut_3_0_ch3_opt_disp_struct_16.xyz,Nucleus 22C :,4.63223,-7.832677,3.864534,163.38,190.96,155.73,143.45,262.43,228.37,236.56,-69.08,-80.41,-87.73,143.45,155.73,190.96,0,47.51,-0.48
nw_cut_3_0_ch3_opt_disp_struct_16.xyz,Nucleus 25C :,3.8509,-5.985368,2.831759,4.16,-90.76,94.25,9.0,185.9,252.01,271.15,-91.86,-343.56,-261.15,-90.76,9.0,94.25,0,185.01,0.08
nw_cut_3_0_ch3_opt_disp_struct_16.xyz,Nucleus 5N :,3.833441,-5.469262,1.97646,119.37,58.09,169.22,130.81,299.95,336.46,330.24,-131.06,-205.57,-271.9,58.09,130.81,169.22,0,111.13,0.31
nw_cut_3_0_ch3_opt_disp_struct_16.xyz,Nucleus 27N :,3.008829,-6.068677,3.366247,145.13,46.1,243.29,146.01,296.92,329.71,343.93,-285.21,-85.65,-164.29,46.1,146.01,243.29,0,197.19,0.01
nw_cut_3_0_ch3_opt_disp_struct_16.xyz,Nucleus 26O :,5.672722,-7.812973,1.24988,-105.76,319.79,-233.26,-403.8,327.89,379.78,428.12,-8.41,-614.92,-829.73,-403.8,-233.26,319.79,0,723.59,-0.53
nw_cut_3_0_ch3_opt_disp_struct_17.xyz,Nucleus 1H :,1.034057,0.00555,-1.315262,29.1,35.07,23.42,28.82,40.18,26.95,29.5,-6.54,-0.18,-2.59,23.42,28.82,35.07,0,11.65,-0.07
nw_cut_3_0_ch3_opt_disp_struct_17.xyz,Nucleus 2H :,1.823041,0.642913,-1.722515,29.02,35.38,24.32,27.37,46.48,25.27,27.89,-12.17,1.76,-2.17,24.32,27.37,35.38,0,11.06,-0.45
nw_cut_3_0_ch3_opt_disp_struct_17.xyz,Nucleus 6H :,1.246697,-1.024825,-1.624886,24.08,16.2,25.05,31.0,49.5,15.19,30.41,-18.81,-5.26,1.22,16.2,25.05,31.0,0,14.8,0.2
nw_cut_3_0_ch3_opt_disp_struct_17.xyz,Nucleus 10H :,0.955371,0.130462,0.163125,23.75,29.91,19.02,22.32,33.68,39.2,50.5,-3.8,-19.71,-28.62,19.02,22.32,29.91,0,10.89,-0.39
nw_cut_3_0_ch3_opt_disp_struct_17.xyz,Nucleus 14H :,1.729181,0.95537,0.955681,23.95,28.66,19.84,23.36,9.93,32.51,46.42,-23.1,9.96,-3.86,19.84,23.36,28.66,0,8.82,-0.2
nw_cut_3_0_ch3_opt_disp_struct_17.xyz,Nucleus 16H :,1.341974,0.788455,2.257691,24.02,19.36,28.03,24.67,12.13,32.35,47.97,-23.34,7.28,-4.33,19.36,24.67,28.03,0,8.67,0.22
nw_cut_3_0_ch3_opt_disp_struct_17.xyz,Nucleus 17H :,1.761574,1.245108,3.048378,24.28,20.66,25.2,26.97,44.51,28.51,31.9,-19.25,-7.75,-5.08,20.66,25.2,26.97,0,6.31,0.44
nw_cut_3_0_ch3_opt_disp_struct_17.xyz,Nucleus 18H :,0.32558,-0.13394,2.337541,28.98,35.54,27.13,24.28,43.5,26.55,33.09,0.08,-10.5,-5.78,24.28,27.13,35.54,0,11.26,-0.49
nw_cut_3_0_ch3_opt_disp_struct_17.xyz,Nucleus 19H :,0.058305,-0.563055,1.038027,29.18,23.75,29.51,34.28,42.2,21.83,27.77,-8.6,2.69,1.64,23.75,29.51,34.28,0,10.53,0.09
nw_cut_3_0_ch3_opt_disp_struct_17.xyz,Nucleus 20H :,-0.962816,-1.517854,0.842612,28.75,34.72,23.82,27.71,39.47,13.19,26.93,11.15,-5.33,0.85,23.82,27.71,34.72,0,10.9,-0.29
nw_cut_3_0_ch3_opt_disp_struct_17.xyz,Nucleus 21H :,-1.198801,-1.872619,-0.156872,28.67,34.58,24.53,26.89,41.62,12.18,24.55,12.38,-7.1,2.37,24.53,26.89,34.58,0,10.05,-0.53
nw_cut_3_0_ch3_opt_disp_struct_17.xyz,Nucleus 23H :,-1.680518,-2.015113,1.943495,29.66,34.71,27.84,26.43,38.39,15.15,1.36,-4.23,25.77,12.55,26.43,27.84,34.71,0,8.28,-0.66
nw_cut_3_0_ch3_opt_disp_struct_17.xyz,Nucleus 24H :,-2.770304,-3.028847,1.749916,29.98,25.74,30.39,33.82,43.69,32.15,21.89,-11.24,-0.96,4.4,25.74,30.39,33.82,0,8.08,0.15
nw_cut_3_0_ch3_opt_disp_struct_17.xyz,Nucleus 28H :,-1.378307,-1.558204,3.230441,27.07,32.77,26.12,22.33,31.81,55.44,49.38,-2.68,-32.28,-20.46,22.33,26.12,32.77,0,10.44,-0.27
nw_cut_3_0_ch3_opt_disp_struct_17.xyz,Nucleus 29H :,-1.935275,-1.945323,4.079258,27.29,34.54,23.5,23.82,31.71,45.28,41.7,-3.13,-19.29,-14.41,23.5,23.82,34.54,0,11.04,-0.94
nw_cut_3_0_ch3_opt_disp_struct_17.xyz,Nucleus 30H :,-0.372854,-0.611201,3.451737,29.57,34.11,27.4,27.2,38.42,8.44,19.24,-5.89,20.16,8.35,27.2,27.4,34.11,0,6.91,-0.94
nw_cut_3_0_ch3_opt_disp_struct_17.xyz,Nucleus 0C :,-0.138427,-0.273454,4.455844,172.76,160.91,169.09,188.27,235.57,241.47,257.6,-76.76,-73.37,-66.24,160.91,169.09,188.27,0,27.36,-0.4
nw_cut_3_0_ch3_opt_disp_struct_17.xyz,Nucleus 3C :,2.516229,1.642803,0.682334,63.52,148.96,52.54,-10.94,241.99,262.53,275.26,-93.07,-221.63,-274.52,-10.94,52.54,148.96,0,159.9,-0.21
nw_cut_3_0_ch3_opt_disp_struct_17.xyz,Nucleus 4C :,0.09086,0.294571,-1.79408,56.12,-29.22,127.41,70.16,274.22,257.42,259.33,-293.44,-131.48,-197.72,-29.22,70.16,127.41,0,156.63,0.27
nw_cut_3_0_ch3_opt_disp_struct_17.xyz,Nucleus 7C :,-2.979652,-3.190207,0.690033,43.05,142.81,-34.87,21.21,265.7,272.05,269.15,-125.74,-305.59,-246.42,-34.87,21.21,142.81,0,177.68,-0.37
nw_cut_3_0_ch3_opt_disp_struct_17.xyz,Nucleus 8C :,-3.6977,-2.708246,2.235574,48.95,168.03,0.53,-21.72,225.36,265.59,257.97,-57.55,-263.94,-280.6,-21.72,0.53,168.03,0,189.75,-0.77
nw_cut_3_0_ch3_opt_disp_struct_17.xyz,Nucleus 9C :,-2.493252,-3.996137,2.186965,55.19,158.13,50.21,-42.76,249.98,271.7,268.43,-92.22,-221.36,-310.95,-42.76,50.21,158.13,0,200.89,-0.07
nw_cut_3_0_ch3_opt_disp_struct_17.xyz,Nucleus 11C :,6.035245,-7.198236,1.999578,44.73,173.29,-60.7,21.59,234.74,262.94,275.03,-61.56,-325.05,-251.91,-60.7,21.59,173.29,0,233.99,-0.3
nw_cut_3_0_ch3_opt_disp_struct_17.xyz,Nucleus 12C :,6.972009,-7.442034,2.505188,161.12,188.73,137.8,156.82,254.58,222.89,229.23,-61.38,-75.47,-86.5,137.8,156.82,188.73,0,50.93,-0.25
nw_cut_3_0_ch3_opt_disp_struct_17.xyz,Nucleus 13C :,6.146821,-6.25389,1.458864,52.09,164.32,46.92,-54.98,229.46,258.26,274.62,-65.16,-227.53,-313.39,-54.98,46.92,164.32,0,219.3,-0.07
nw_cut_3_0_ch3_opt_disp_struct_17.xyz,Nucleus 15C :,4.918596,-7.179905,3.003909,65.59,169.97,52.64,-25.85,244.18,272.84,264.52,-74.42,-218.66,-291.7,-25.85,52.64,169.97,0,195.82,-0.2
nw_cut_3_0_ch3_opt_disp_struct_17.xyz,Nucleus 22C :,4.799516,-8.016586,3.890856,163.37,190.96,155.69,143.46,262.74,227.91,236.27,-69.23,-80.16,-87.43,143.46,155.69,190.96,0,47.5,-0.49
nw_cut_3_0_ch3_opt_disp_struct_17.xyz,Nucleus 25C :,4.018186,-6.169277,2.858081,4.15,-90.83,94.26,9.02,185.02,251.95,271.31,-90.99,-343.54,-261.3,-90.83,9.02,94.26,0,185.09,0.08
nw_cut_3_0_ch3_opt_disp_struct_17.xyz,Nucleus 5N :,4.000727,-5.653171,2.002783,119.4,58.14,169.19,130.86,299.93,336.45,330.15,-131.06,-205.5,-271.77,58.14,130.86,169.19,0,111.05,0.31
nw_cut_3_0_ch3_opt_disp_struct_17.xyz,Nucleus 27N :,3.176115,-6.252586,3.39257,145.17,46.25,243.23,146.04,296.68,329.92,344.44,-285.28,-85.38,-164.86,46.25,146.04,243.23,0,196.98,0.01
nw_cut_3_0_ch3_opt_disp_struct_17.xyz,Nucleus 26O :,5.840008,-7.996882,1.276202,-105.9,319.81,-233.43,-404.09,327.13,379.66,428.21,-7.63,-614.98,-830.11,-404.09,-233.43,319.81,0,723.9,-0.53
nw_cut_3_0_ch3_opt_disp_struct_18.xyz,Nucleus 1H :,1.034057,0.00555,-1.315262,29.1,35.07,23.41,28.83,40.16,26.94,29.48,-6.52,-0.17,-2.58,23.41,28.83,35.07,0,11.66,-0.07
nw_cut_3_0_ch3_opt_disp_struct_18.xyz,Nucleus 2H :,1.823041,0.642913,-1.722515,29.02,35.38,24.32,27.37,46.43,25.24,27.87,-12.14,1.8,-2.14,24.32,27.37,35.38,0,11.06,-0.45
nw_cut_3_0_ch3_opt_disp_struct_18.xyz,Nucleus 6H :,1.246697,-1.024825,-1.624886,24.09,16.2,25.06,31.01,49.44,15.19,30.41,-18.73,-5.25,1.21,16.2,25.06,31.01,0,14.81,0.2
nw_cut_3_0_ch3_opt_disp_struct_18.xyz,Nucleus 10H :,0.955371,0.130462,0.163125,23.75,29.92,19.0,22.33,33.64,39.19,50.4,-3.75,-19.71,-28.51,19.0,22.33,29.92,0,10.92,-0.39
nw_cut_3_0_ch3_opt_disp_struct_18.xyz,Nucleus 14H :,1.729181,0.95537,0.955681,23.96,28.67,19.83,23.37,9.92,32.43,46.41,-23.08,9.97,-3.77,19.83,23.37,28.67,0,8.84,-0.2
nw_cut_3_0_ch3_opt_disp_struct_18.xyz,Nucleus 16H :,1.341974,0.788455,2.257691,24.02,19.35,28.04,24.68,12.12,32.34,47.88,-23.25,7.28,-4.3,19.35,24.68,28.04,0,8.69,0.23
nw_cut_3_0_ch3_opt_disp_struct_18.xyz,Nucleus 17H :,1.761574,1.245108,3.048378,24.28,20.66,25.2,26.98,44.49,28.5,31.87,-19.23,-7.75,-5.05,20.66,25.2,26.98,0,6.32,0.44
nw_cut_3_0_ch3_opt_disp_struct_18.xyz,Nucleus 18H :,0.32558,-0.13394,2.337541,28.99,35.54,27.14,24.29,43.5,26.53,33.07,0.11,-10.49,-5.75,24.29,27.14,35.54,0,11.25,-0.49
nw_cut_3_0_ch3_opt_disp_struct_18.xyz,Nucleus 19H :,0.058305,-0.563055,1.038027,29.18,23.74,29.51,34.28,42.14,21.82,27.76,-8.53,2.7,1.64,23.74,29.51,34.28,0,10.54,0.09
nw_cut_3_0_ch3_opt_disp_struct_18.xyz,Nucleus 20H :,-0.962816,-1.517854,0.842612,28.75,34.72,23.82,27.72,39.46,13.18,26.89,11.15,-5.32,0.9,23.82,27.72,34.72,0,10.9,-0.28
nw_cut_3_0_ch3_opt_disp_struct_18.xyz,Nucleus 21H :,-1.198801,-1.872619,-0.156872,28.67,34.59,24.51,26.9,41.56,12.16,24.51,12.38,-7.02,2.4,24.51,26.9,34.59,0,10.08,-0.53
nw_cut_3_0_ch3_opt_disp_struct_18.xyz,Nucleus 23H :,-1.680518,-2.015113,1.943495,29.65,34.69,27.85,26.42,38.35,14.89,0.64,-4.24,26.5,12.81,26.42,27.85,34.69,0,8.27,-0.65
nw_cut_3_0_ch3_opt_disp_struct_18.xyz,Nucleus 24H :,-2.770304,-3.028847,1.749916,29.97,25.75,30.34,33.82,43.99,32.01,21.63,-11.56,-0.86,4.71,25.75,30.34,33.82,0,8.07,0.14
nw_cut_3_0_ch3_opt_disp_struct_18.xyz,Nucleus 28H :,-1.378307,-1.558204,3.230441,27.05,32.66,26.12,22.36,31.82,56.27,49.55,-2.69,-33.14,-20.68,22.36,26.12,32.66,0,10.3,-0.27
nw_cut_3_0_ch3_opt_disp_struct_18.xyz,Nucleus 29H :,-1.935275,-1.945323,4.079258,27.26,34.51,23.49,23.79,31.62,45.78,42.26,-3.16,-20.1,-14.6,23.49,23.79,34.51,0,11.02,-0.94
nw_cut_3_0_ch3_opt_disp_struct_18.xyz,Nucleus 30H :,-0.372854,-0.611201,3.451737,29.56,34.11,27.38,27.2,38.44,7.82,19.05,-5.96,20.8,8.54,27.2,27.38,34.11,0,6.91,-0.95
nw_cut_3_0_ch3_opt_disp_struct_18.xyz,Nucleus 0C :,-0.138427,-0.273454,4.455844,172.76,160.91,169.08,188.28,235.54,241.47,257.56,-76.71,-73.37,-66.22,160.91,169.08,188.28,0,27.37,-0.4
nw_cut_3_0_ch3_opt_disp_struct_18.xyz,Nucleus 3C :,2.516229,1.642803,0.682334,63.51,148.95,52.54,-10.95,241.97,262.49,275.18,-93.06,-221.55,-274.5,-10.95,52.54,148.95,0,159.9,-0.21
nw_cut_3_0_ch3_opt_disp_struct_18.xyz,Nucleus 4C :,0.09086,0.294571,-1.79408,56.13,-29.2,127.4,70.19,274.17,257.37,259.36,-293.41,-131.49,-197.62,-29.2,70.19,127.4,0,156.6,0.27
nw_cut_3_0_ch3_opt_disp_struct_18.xyz,Nucleus 7C :,-2.979652,-3.190207,0.690033,43.05,142.79,-34.86,21.22,265.62,272.02,269.1,-125.75,-305.47,-246.38,-34.86,21.22,142.79,0,177.65,-0.37
nw_cut_3_0_ch3_opt_disp_struct_18.xyz,Nucleus 8C :,-3.6977,-2.708246,2.235574,48.94,168.01,0.53,-21.73,225.33,265.43,257.95,-57.53,-263.81,-280.55,-21.73,0.53,168.01,0,189.74,-0.77
nw_cut_3_0_ch3_opt_disp_struct_18.xyz,Nucleus 9C :,-2.493252,-3.996137,2.186965,55.17,158.11,50.19,-42.78,249.96,271.64,268.31,-92.22,-221.33,-310.84,-42.78,50.19,158.11,0,200.89,-0.07
nw_cut_3_0_ch3_opt_disp_struct_18.xyz,Nucleus 11C :,6.202531,-7.382145,2.025901,44.74,173.27,-60.69,21.63,234.7,262.87,274.93,-61.53,-324.93,-251.82,-60.69,21.63,173.27,0,233.96,-0.3
nw_cut_3_0_ch3_opt_disp_struct_18.xyz,Nucleus 12C :,7.139295,-7.625943,2.531511,161.12,188.74,137.79,156.83,254.51,222.9,229.19,-61.28,-75.46,-86.5,137.79,156.83,188.74,0,50.95,-0.25
nw_cut_3_0_ch3_opt_disp_struct_18.xyz,Nucleus 13C :,6.314107,-6.437799,1.485187,52.09,164.29,46.95,-54.97,229.44,258.25,274.49,-65.17,-227.37,-313.38,-54.97,46.95,164.29,0,219.26,-0.07
nw_cut_3_0_ch3_opt_disp_struct_18.xyz,Nucleus 15C :,5.085882,-7.363814,3.030232,65.6,169.94,52.69,-25.82,244.18,272.82,264.4,-74.44,-218.55,-291.59,-25.82,52.69,169.94,0,195.76,-0.2
nw_cut_3_0_ch3_opt_disp_struct_18.xyz,Nucleus 22C :,4.966802,-8.200495,3.917179,163.35,190.95,155.65,143.46,263.05,227.45,235.98,-69.37,-79.9,-87.14,143.46,155.65,190.95,0,47.49,-0.49
nw_cut_3_0_ch3_opt_disp_struct_18.xyz,Nucleus 25C :,4.185472,-6.353186,2.884404,4.14,-90.9,94.27,9.05,184.14,251.89,271.48,-90.12,-343.52,-261.46,-90.9,9.05,94.27,0,185.17,0.08
nw_cut_3_0_ch3_opt_disp_struct_18.xyz,Nucleus 5N :,4.168013,-5.83708,2.029106,119.42,58.19,169.17,130.91,299.91,336.43,330.07,-131.05,-205.44,-271.64,58.19,130.91,169.17,0,110.98,0.31
nw_cut_3_0_ch3_opt_disp_struct_18.xyz,Nucleus 27N :,3.343401,-6.436495,3.418893,145.21,46.39,243.17,146.07,296.45,330.11,344.98,-285.36,-85.11,-165.44,46.39,146.07,243.17,0,196.78,0.01
nw_cut_3_0_ch3_opt_disp_struct_18.xyz,Nucleus 26O :,6.007294,-8.180791,1.302525,-106.04,319.83,-233.59,-404.35,326.38,379.55,428.31,-6.87,-615.02,-830.45,-404.35,-233.59,319.83,0,724.18,-0.53
nw_cut_3_0_ch3_opt_disp_struct_19.xyz,Nucleus 1H :,1.034057,0.00555,-1.315262,29.11,35.07,23.41,28.84,40.15,26.94,29.45,-6.5,-0.15,-2.58,23.41,28.84,35.07,0,11.66,-0.07
nw_cut_3_0_ch3_opt_disp_struct_19.xyz,Nucleus 2H :,1.823041,0.642913,-1.722515,29.02,35.39,24.31,27.36,46.39,25.21,27.85,-12.1,1.83,-2.12,24.31,27.36,35.39,0,11.08,-0.45
nw_cut_3_0_ch3_opt_disp_struct_19.xyz,Nucleus 6H :,1.246697,-1.024825,-1.624886,24.09,16.19,25.07,31.01,49.37,15.19,30.41,-18.66,-5.23,1.2,16.19,25.07,31.01,0,14.82,0.2
nw_cut_3_0_ch3_opt_disp_struct_19.xyz,Nucleus 10H :,0.955371,0.130462,0.163125,23.75,29.93,18.99,22.33,33.6,39.17,50.31,-3.7,-19.71,-28.42,18.99,22.33,29.93,0,10.94,-0.39
nw_cut_3_0_ch3_opt_disp_struct_19.xyz,Nucleus 14H :,1.729181,0.95537,0.955681,23.96,28.68,19.82,23.37,9.9,32.35,46.4,-23.06,9.97,-3.68,19.82,23.37,28.68,0,8.86,-0.2
nw_cut_3_0_ch3_opt_disp_struct_19.xyz,Nucleus 16H :,1.341974,0.788455,2.257691,24.02,19.34,28.05,24.68,12.12,32.32,47.81,7.27,-4.28,-23.17,19.34,24.68,28.05,0,8.71,0.23
nw_cut_3_0_ch3_opt_disp_struct_19.xyz,Nucleus 17H :,1.761574,1.245108,3.048378,24.28,20.66,25.2,26.98,44.47,28.5,31.85,-19.21,-7.75,-5.02,20.66,25.2,26.98,0,6.32,0.44
nw_cut_3_0_ch3_opt_disp_struct_19.xyz,Nucleus 18H :,0.32558,-0.13394,2.337541,28.99,35.54,27.14,24.29,43.49,26.51,33.05,0.13,-10.49,-5.72,24.29,27.14,35.54,0,11.25,-0.49
nw_cut_3_0_ch3_opt_disp_struct_19.xyz,Nucleus 19H :,0.058305,-0.563055,1.038027,29.18,23.74,29.51,34.28,42.07,21.81,27.75,-8.45,2.7,1.65,23.74,29.51,34.28,0,10.54,0.09
nw_cut_3_0_ch3_opt_disp_struct_19.xyz,Nucleus 20H :,-0.962816,-1.517854,0.842612,28.75,34.71,23.82,27.73,39.45,13.18,26.84,11.15,-5.31,0.95,23.82,27.73,34.71,0,10.89,-0.28
nw_cut_3_0_ch3_opt_disp_struct_19.xyz,Nucleus 21H :,-1.198801,-1.872619,-0.156872,28.67,34.6,24.5,26.9,41.51,12.15,24.48,12.38,-6.96,2.44,24.5,26.9,34.6,0,10.1,-0.53
nw_cut_3_0_ch3_opt_disp_struct_19.xyz,Nucleus 23H :,-1.680518,-2.015113,1.943495,29.65,34.67,27.85,26.42,38.32,14.64,-0.07,-4.25,27.23,13.07,26.42,27.85,34.67,0,8.25,-0.65
nw_cut_3_0_ch3_opt_disp_struct_19.xyz,Nucleus 24H :,-2.770304,-3.028847,1.749916,29.96,25.76,30.29,33.83,44.28,31.88,21.35,-11.89,-0.76,5.02,25.76,30.29,33.83,0,8.07,0.12
nw_cut_3_0_ch3_opt_disp_struct_19.xyz,Nucleus 28H :,-1.378307,-1.558204,3.230441,27.02,32.56,26.11,22.38,31.81,57.1,49.73,-2.7,-33.99,-20.9,22.38,26.11,32.56,0,10.18,-0.27
nw_cut_3_0_ch3_opt_disp_struct_19.xyz,Nucleus 29H :,-1.935275,-1.945323,4.079258,27.24,34.49,23.78,23.46,31.54,46.33,42.76,-3.19,-20.91,-14.8,23.46,23.78,34.49,0,11.03,-0.94
nw_cut_3_0_ch3_opt_disp_struct_19.xyz,Nucleus 30H :,-0.372854,-0.611201,3.451737,29.56,34.1,27.36,27.21,38.47,7.19,18.86,-6.03,21.44,8.74,27.21,27.36,34.1,0,6.89,-0.96
nw_cut_3_0_ch3_opt_disp_struct_19.xyz,Nucleus 0C :,-0.138427,-0.273454,4.455844,172.76,160.92,169.07,188.28,235.52,241.47,257.52,-76.66,-73.37,-66.21,160.92,169.07,188.28,0,27.36,-0.4
nw_cut_3_0_ch3_opt_disp_struct_19.xyz,Nucleus 3C :,2.516229,1.642803,0.682334,63.5,148.94,52.53,-10.97,241.95,262.46,275.09,-93.05,-221.47,-274.48,-10.97,52.53,148.94,0,159.91,-0.21
nw_cut_3_0_ch3_opt_disp_struct_19.xyz,Nucleus 4C :,0.09086,0.294571,-1.79408,56.14,-29.19,127.39,70.23,274.13,257.32,259.38,-293.39,-131.49,-197.52,-29.19,70.23,127.39,0,156.58,0.27
nw_cut_3_0_ch3_opt_disp_struct_19.xyz,Nucleus 7C :,-2.979652,-3.190207,0.690033,43.05,142.77,-34.86,21.23,265.54,271.99,269.06,-125.75,-305.37,-246.33,-34.86,21.23,142.77,0,177.63,-0.37
nw_cut_3_0_ch3_opt_disp_struct_19.xyz,Nucleus 8C :,-3.6977,-2.708246,2.235574,48.93,168.0,0.53,-21.73,225.3,265.29,257.93,-57.52,-263.7,-280.5,-21.73,0.53,168.0,0,189.73,-0.77
nw_cut_3_0_ch3_opt_disp_struct_19.xyz,Nucleus 9C :,-2.493252,-3.996137,2.186965,55.16,158.09,50.18,-42.8,249.94,271.58,268.19,-92.21,-221.3,-310.73,-42.8,50.18,158.09,0,200.89,-0.07
nw_cut_3_0_ch3_opt_disp_struct_19.xyz,Nucleus 11C :,6.369817,-7.566054,2.052224,44.75,173.25,-60.67,21.66,234.66,262.81,274.84,-61.52,-324.81,-251.74,-60.67,21.66,173.25,0,233.92,-0.3
nw_cut_3_0_ch3_opt_disp_struct_19.xyz,Nucleus 12C :,7.306581,-7.809852,2.557833,161.12,188.74,137.78,156.83,254.44,222.9,229.14,-61.19,-75.45,-86.5,137.78,156.83,188.74,0,50.96,-0.25
nw_cut_3_0_ch3_opt_disp_struct_19.xyz,Nucleus 13C :,6.481393,-6.621708,1.511509,52.09,164.27,46.97,-54.97,229.42,258.24,274.36,-65.18,-227.22,-313.36,-54.97,46.97,164.27,0,219.24,-0.07
nw_cut_3_0_ch3_opt_disp_struct_19.xyz,Nucleus 15C :,5.253168,-7.547723,3.056554,65.62,169.91,52.74,-25.8,244.17,272.8,264.28,-74.46,-218.45,-291.49,-25.8,52.74,169.91,0,195.71,-0.2
nw_cut_3_0_ch3_opt_disp_struct_19.xyz,Nucleus 22C :,5.134088,-8.384404,3.943502,163.34,190.95,155.61,143.47,263.35,226.98,235.7,-69.49,-79.64,-86.86,143.47,155.61,190.95,0,47.48,-0.49
nw_cut_3_0_ch3_opt_disp_struct_19.xyz,Nucleus 25C :,4.352758,-6.537095,2.910727,4.13,-90.96,94.28,9.07,183.26,251.82,271.66,-89.24,-343.49,-261.62,-90.96,9.07,94.28,0,185.24,0.08
nw_cut_3_0_ch3_opt_disp_struct_19.xyz,Nucleus 5N :,4.335299,-6.020989,2.055428,119.44,58.23,169.15,130.95,299.9,336.42,329.99,-131.06,-205.39,-271.53,58.23,130.95,169.15,0,110.92,0.31
nw_cut_3_0_ch3_opt_disp_struct_19.xyz,Nucleus 27N :,3.510687,-6.620404,3.445216,145.25,46.52,243.12,146.1,296.21,330.3,345.54,-285.44,-84.84,-166.03,46.52,146.1,243.12,0,196.6,0.01
nw_cut_3_0_ch3_opt_disp_struct_19.xyz,Nucleus 26O :,6.17458,-8.3647,1.328848,-106.15,319.85,-233.72,-404.57,325.64,379.43,428.41,-6.12,-615.03,-830.77,-404.57,-233.72,319.85,0,724.42,-0.53
nw_cut_3_0_ch3_opt_disp_struct_2.xyz,Nucleus 1H :,1.034057,0.00555,-1.315262,29.02,35.13,23.33,28.6,40.62,26.79,29.42,-7.14,0.08,-2.71,23.33,28.6,35.13,0,11.8,-0.11
nw_cut_3_0_ch3_opt_disp_struct_2.xyz,Nucleus 2H :,1.823041,0.642913,-1.722515,28.99,35.09,24.32,27.57,47.31,25.47,28.02,-13.25,1.15,-1.71,24.32,27.57,35.09,0,10.77,-0.4
nw_cut_3_0_ch3_opt_disp_struct_2.xyz,Nucleus 6H :,1.246697,-1.024825,-1.624886,23.95,16.17,24.77,30.91,50.03,14.96,29.9,-19.62,-5.08,1.65,16.17,24.77,30.91,0,14.74,0.17
nw_cut_3_0_ch3_opt_disp_struct_2.xyz,Nucleus 10H :,0.955371,0.130462,0.163125,23.77,29.54,19.18,22.58,34.65,40.06,52.52,-5.29,-19.6,-31.04,19.18,22.58,29.54,0,10.36,-0.34
nw_cut_3_0_ch3_opt_disp_struct_2.xyz,Nucleus 14H :,1.729181,0.95537,0.955681,23.9,28.13,23.6,19.98,10.58,33.47,46.52,-23.18,9.71,-5.38,19.98,23.6,28.13,0,8.15,-0.11
nw_cut_3_0_ch3_opt_disp_struct_2.xyz,Nucleus 16H :,1.341974,0.788455,2.257691,23.91,19.42,27.65,24.65,11.61,31.97,49.56,-25.11,-4.36,8.06,19.42,24.65,27.65,0,8.23,0.27
nw_cut_3_0_ch3_opt_disp_struct_2.xyz,Nucleus 17H :,1.761574,1.245108,3.048378,24.16,20.55,25.2,26.74,44.59,28.4,32.02,-19.41,-7.64,-5.44,20.55,25.2,26.74,0,6.19,0.5
nw_cut_3_0_ch3_opt_disp_struct_2.xyz,Nucleus 18H :,0.32558,-0.13394,2.337541,28.95,35.69,27.01,24.14,43.55,26.95,33.44,-0.35,-10.71,-6.03,24.14,27.01,35.69,0,11.55,-0.5
nw_cut_3_0_ch3_opt_disp_struct_2.xyz,Nucleus 19H :,0.058305,-0.563055,1.038027,29.17,23.7,29.41,34.41,42.91,22.56,27.86,-9.58,2.25,1.52,23.7,29.41,34.41,0,10.71,0.07
nw_cut_3_0_ch3_opt_disp_struct_2.xyz,Nucleus 20H :,-0.962816,-1.517854,0.842612,28.74,35.03,23.69,27.51,39.65,13.21,27.48,11.18,-5.34,0.05,23.69,27.51,35.03,0,11.34,-0.33
nw_cut_3_0_ch3_opt_disp_struct_2.xyz,Nucleus 21H :,-1.198801,-1.872619,-0.156872,28.62,34.19,24.77,26.9,42.59,12.29,23.53,-8.43,12.65,3.24,24.77,26.9,34.19,0,9.42,-0.55
nw_cut_3_0_ch3_opt_disp_struct_2.xyz,Nucleus 23H :,-1.680518,-2.015113,1.943495,30.08,35.77,27.83,26.65,39.95,18.44,12.12,-4.44,9.2,14.98,26.65,27.83,35.77,0,9.12,-0.74
nw_cut_3_0_ch3_opt_disp_struct_2.xyz,Nucleus 24H :,-2.770304,-3.028847,1.749916,30.51,25.22,32.28,34.04,24.62,35.82,39.31,-6.12,-2.98,0.89,25.22,32.28,34.04,0,8.82,0.6
nw_cut_3_0_ch3_opt_disp_struct_2.xyz,Nucleus 28H :,-1.378307,-1.558204,3.230441,28.66,40.35,20.3,25.33,53.62,28.42,37.78,1.24,-16.16,-18.92,20.3,25.33,40.35,0,20.05,-0.5
nw_cut_3_0_ch3_opt_disp_struct_2.xyz,Nucleus 29H :,-1.935275,-1.945323,4.079258,28.6,38.12,25.97,21.72,28.3,38.71,36.08,0.25,-6.74,-10.79,21.72,25.97,38.12,0,16.4,-0.48
nw_cut_3_0_ch3_opt_disp_struct_2.xyz,Nucleus 30H :,-0.372854,-0.611201,3.451737,29.93,34.64,28.09,27.07,39.09,17.98,21.75,-5.33,10.47,5.85,27.07,28.09,34.64,0,7.57,-0.73
nw_cut_3_0_ch3_opt_disp_struct_2.xyz,Nucleus 0C :,-0.138427,-0.273454,4.455844,172.77,160.75,169.37,188.2,236.15,241.98,258.46,-77.88,-73.74,-66.64,160.75,169.37,188.2,0,27.45,-0.37
nw_cut_3_0_ch3_opt_disp_struct_2.xyz,Nucleus 3C :,2.516229,1.642803,0.682334,64.01,149.23,52.7,-9.89,244.14,263.63,278.22,-95.01,-224.47,-274.46,-9.89,52.7,149.23,0,159.12,-0.21
nw_cut_3_0_ch3_opt_disp_struct_2.xyz,Nucleus 4C :,0.09086,0.294571,-1.79408,54.91,-30.74,127.76,67.7,275.87,257.78,258.85,-295.26,-131.13,-201.39,-30.74,67.7,127.76,0,158.5,0.24
nw_cut_3_0_ch3_opt_disp_struct_2.xyz,Nucleus 7C :,-2.979652,-3.190207,0.690033,42.5,143.85,-35.9,19.55,265.26,273.48,274.18,-127.0,-309.3,-249.13,-35.9,19.55,143.85,0,179.75,-0.38
nw_cut_3_0_ch3_opt_disp_struct_2.xyz,Nucleus 8C :,-3.6977,-2.708246,2.235574,49.55,169.26,0.16,-20.78,225.64,268.37,256.86,-56.67,-266.61,-278.95,-20.78,0.16,169.26,0,190.04,-0.78
nw_cut_3_0_ch3_opt_disp_struct_2.xyz,Nucleus 9C :,-2.493252,-3.996137,2.186965,55.64,159.5,49.49,-42.07,250.39,275.72,272.06,-92.69,-224.83,-313.75,-42.07,49.49,159.5,0,201.57,-0.09
nw_cut_3_0_ch3_opt_disp_struct_2.xyz,Nucleus 11C :,3.525955,-4.439602,1.604737,43.8,174.53,-61.53,18.41,235.22,263.28,279.31,-61.78,-327.38,-257.25,-61.53,18.41,174.53,0,236.06,-0.32
nw_cut_3_0_ch3_opt_disp_struct_2.xyz,Nucleus 12C :,4.462718,-4.6834,2.110346,161.24,188.83,138.31,156.58,255.7,223.67,230.38,-62.49,-76.37,-87.17,138.31,156.58,188.83,0,50.52,-0.28
nw_cut_3_0_ch3_opt_disp_struct_2.xyz,Nucleus 13C :,3.637531,-3.495256,1.064022,52.48,165.85,45.61,-54.02,229.54,257.23,278.38,-63.92,-232.33,-311.45,-54.02,45.61,165.85,0,219.87,-0.09
nw_cut_3_0_ch3_opt_disp_struct_2.xyz,Nucleus 15C :,2.409306,-4.421271,2.609067,63.12,171.35,47.14,-29.12,244.1,273.94,268.22,-73.22,-225.82,-297.86,-29.12,47.14,171.35,0,200.47,-0.24
nw_cut_3_0_ch3_opt_disp_struct_2.xyz,Nucleus 22C :,2.290226,-5.257952,3.496015,163.96,191.25,157.59,143.03,257.67,234.67,241.83,-65.27,-84.02,-93.0,143.03,157.59,191.25,0,48.22,-0.4
nw_cut_3_0_ch3_opt_disp_struct_2.xyz,Nucleus 25C :,1.508896,-3.410643,2.46324,4.4,-87.38,94.07,6.51,198.31,252.25,270.94,-104.31,-341.04,-262.95,-87.38,6.51,94.07,0,181.45,0.03
nw_cut_3_0_ch3_opt_disp_struct_2.xyz,Nucleus 5N :,1.491437,-2.894537,1.607941,117.42,54.59,169.92,127.75,300.11,336.79,330.97,-131.23,-208.81,-275.58,54.59,127.75,169.92,0,115.33,0.27
nw_cut_3_0_ch3_opt_disp_struct_2.xyz,Nucleus 27N :,0.666825,-3.493952,2.997729,142.81,34.55,244.42,149.47,294.39,323.47,343.44,-292.0,-91.18,-149.68,34.55,149.47,244.42,0,209.87,0.1
nw_cut_3_0_ch3_opt_disp_struct_2.xyz,Nucleus 26O :,3.330717,-5.238248,0.881361,-96.24,320.35,-222.68,-386.38,341.36,381.17,427.05,-21.41,-605.38,-811.51,-386.38,-222.68,320.35,0,706.73,-0.54
nw_cut_3_0_ch3_opt_disp_struct_3.xyz,Nucleus 1H :,1.034057,0.00555,-1.315262,29.03,35.12,23.35,28.62,40.6,26.86,29.44,-7.11,-0.02,-2.68,23.35,28.62,35.12,0,11.77,-0.1
nw_cut_3_0_ch3_opt_disp_struct_3.xyz,Nucleus 2H :,1.823041,0.642913,-1.722515,29.01,35.12,24.35,27.55,47.28,25.54,28.0,-13.16,1.18,-1.82,24.35,27.55,35.12,0,10.77,-0.41
nw_cut_3_0_ch3_opt_disp_struct_3.xyz,Nucleus 6H :,1.246697,-1.024825,-1.624886,23.97,16.19,24.82,30.91,50.1,15.07,29.99,-19.68,-5.11,1.55,16.19,24.82,30.91,0,14.72,0.17
nw_cut_3_0_ch3_opt_disp_struct_3.xyz,Nucleus 10H :,0.955371,0.130462,0.163125,23.76,29.58,19.21,22.5,34.63,40.05,52.46,-5.25,-19.68,-30.92,19.21,22.5,29.58,0,10.37,-0.36
nw_cut_3_0_ch3_opt_disp_struct_3.xyz,Nucleus 14H :,1.729181,0.95537,0.955681,23.91,28.2,23.54,20.0,10.37,33.51,46.58,-23.25,9.88,-5.34,20.0,23.54,28.2,0,8.2,-0.14
nw_cut_3_0_ch3_opt_disp_struct_3.xyz,Nucleus 16H :,1.341974,0.788455,2.257691,23.93,19.45,27.69,24.64,11.75,32.09,49.49,-25.03,-4.43,7.91,19.45,24.64,27.69,0,8.24,0.26
nw_cut_3_0_ch3_opt_disp_struct_3.xyz,Nucleus 17H :,1.761574,1.245108,3.048378,24.19,20.58,25.21,26.77,44.65,28.47,32.04,-19.48,-7.68,-5.44,20.58,25.21,26.77,0,6.19,0.49
nw_cut_3_0_ch3_opt_disp_struct_3.xyz,Nucleus 18H :,0.32558,-0.13394,2.337541,28.95,35.67,27.02,24.16,43.55,26.95,33.39,-0.35,-10.65,-6.03,24.16,27.02,35.67,0,11.51,-0.5
nw_cut_3_0_ch3_opt_disp_struct_3.xyz,Nucleus 19H :,0.058305,-0.563055,1.038027,29.18,23.73,29.42,34.38,42.95,22.47,27.9,-9.6,2.22,1.59,23.73,29.42,34.38,0,10.65,0.07
nw_cut_3_0_ch3_opt_disp_struct_3.xyz,Nucleus 20H :,-0.962816,-1.517854,0.842612,28.74,34.99,23.7,27.53,39.65,13.19,27.56,11.2,-5.38,-0.0,23.7,27.53,34.99,0,11.29,-0.32
nw_cut_3_0_ch3_opt_disp_struct_3.xyz,Nucleus 21H :,-1.198801,-1.872619,-0.156872,28.64,34.23,24.78,26.9,42.59,12.26,23.71,-8.4,12.68,3.08,24.78,26.9,34.23,0,9.45,-0.55
nw_cut_3_0_ch3_opt_disp_struct_3.xyz,Nucleus 23H :,-1.680518,-2.015113,1.943495,30.01,35.62,27.81,26.6,39.74,18.24,11.38,-4.39,9.39,15.68,26.6,27.81,35.62,0,9.02,-0.73
nw_cut_3_0_ch3_opt_disp_struct_3.xyz,Nucleus 24H :,-2.770304,-3.028847,1.749916,30.44,25.3,32.13,33.89,24.61,35.51,39.46,-6.37,-2.85,0.94,25.3,32.13,33.89,0,8.59,0.59
nw_cut_3_0_ch3_opt_disp_struct_3.xyz,Nucleus 28H :,-1.378307,-1.558204,3.230441,28.53,39.0,20.92,25.67,29.34,52.62,39.54,0.22,-17.2,-18.93,20.92,25.67,39.0,0,18.08,-0.47
nw_cut_3_0_ch3_opt_disp_struct_3.xyz,Nucleus 29H :,-1.935275,-1.945323,4.079258,28.49,37.18,26.01,22.29,29.22,37.71,37.0,-0.16,-7.18,-11.11,22.29,26.01,37.18,0,14.89,-0.5
nw_cut_3_0_ch3_opt_disp_struct_3.xyz,Nucleus 30H :,-0.372854,-0.611201,3.451737,29.88,34.56,28.0,27.08,38.96,17.29,21.58,-5.33,11.14,6.0,27.08,28.0,34.56,0,7.48,-0.75
nw_cut_3_0_ch3_opt_disp_struct_3.xyz,Nucleus 0C :,-0.138427,-0.273454,4.455844,172.76,160.77,169.34,188.18,236.15,241.88,258.33,-77.72,-73.71,-66.63,160.77,169.34,188.18,0,27.41,-0.37
nw_cut_3_0_ch3_opt_disp_struct_3.xyz,Nucleus 3C :,2.516229,1.642803,0.682334,63.98,149.24,52.77,-10.06,243.99,278.08,263.56,-94.83,-224.37,-274.49,-10.06,52.77,149.24,0,159.3,-0.21
nw_cut_3_0_ch3_opt_disp_struct_3.xyz,Nucleus 4C :,0.09086,0.294571,-1.79408,55.14,-30.44,127.74,68.13,275.71,258.69,257.88,-294.85,-131.06,-200.94,-30.44,68.13,127.74,0,158.18,0.25
nw_cut_3_0_ch3_opt_disp_struct_3.xyz,Nucleus 7C :,-2.979652,-3.190207,0.690033,42.78,143.71,-35.42,20.06,265.64,273.53,273.34,-126.82,-308.86,-248.48,-35.42,20.06,143.71,0,179.13,-0.38
nw_cut_3_0_ch3_opt_disp_struct_3.xyz,Nucleus 8C :,-3.6977,-2.708246,2.235574,49.5,169.02,0.38,-20.89,225.65,268.84,257.22,-56.98,-266.91,-279.32,-20.89,0.38,169.02,0,189.91,-0.78
nw_cut_3_0_ch3_opt_disp_struct_3.xyz,Nucleus 9C :,-2.493252,-3.996137,2.186965,55.84,159.27,50.1,-41.85,250.25,275.64,272.08,-92.73,-224.12,-313.61,-41.85,50.1,159.27,0,201.12,-0.09
nw_cut_3_0_ch3_opt_disp_struct_3.xyz,Nucleus 11C :,3.693241,-4.623511,1.631059,44.13,174.33,-61.16,19.22,235.07,263.5,279.04,-61.62,-327.22,-256.38,-61.16,19.22,174.33,0,235.49,-0.32
nw_cut_3_0_ch3_opt_disp_struct_3.xyz,Nucleus 12C :,4.630004,-4.867309,2.136669,161.22,188.79,138.26,156.61,255.72,223.48,230.29,-62.62,-76.23,-86.98,138.26,156.61,188.79,0,50.53,-0.27
nw_cut_3_0_ch3_opt_disp_struct_3.xyz,Nucleus 13C :,3.804817,-3.679165,1.090345,52.49,165.6,46.08,-54.2,229.56,257.56,278.16,-64.07,-231.7,-312.03,-54.2,46.08,165.6,0,219.8,-0.09
nw_cut_3_0_ch3_opt_disp_struct_3.xyz,Nucleus 15C :,2.576592,-4.60518,2.63539,63.88,171.17,48.64,-28.16,243.85,273.94,267.84,-73.13,-224.26,-296.58,-28.16,48.64,171.17,0,199.33,-0.23
nw_cut_3_0_ch3_opt_disp_struct_3.xyz,Nucleus 22C :,2.457512,-5.441861,3.522338,163.86,191.19,157.27,143.12,258.02,234.31,241.35,-65.65,-83.76,-92.68,143.12,157.27,191.19,0,48.07,-0.41
nw_cut_3_0_ch3_opt_disp_struct_3.xyz,Nucleus 25C :,1.676182,-3.594552,2.489563,4.36,-88.02,94.03,7.07,197.27,252.24,270.8,-103.32,-341.66,-262.25,-88.02,7.07,94.03,0,182.05,0.04
nw_cut_3_0_ch3_opt_disp_struct_3.xyz,Nucleus 5N :,1.658723,-3.078446,1.634264,117.83,55.34,169.86,128.3,300.07,336.83,331.02,-131.25,-208.29,-274.88,55.34,128.3,169.86,0,114.52,0.27
nw_cut_3_0_ch3_opt_disp_struct_3.xyz,Nucleus 27N :,0.834111,-3.677861,3.024051,143.57,38.13,244.88,147.7,294.61,323.66,342.98,-288.56,-89.77,-152.19,38.13,147.7,244.88,0,206.75,0.06
nw_cut_3_0_ch3_opt_disp_struct_3.xyz,Nucleus 26O :,3.498003,-5.422157,0.907684,-98.64,319.84,-225.24,-390.52,339.74,381.0,427.13,-20.31,-607.77,-815.72,-390.52,-225.24,319.84,0,710.36,-0.53
nw_cut_3_0_ch3_opt_disp_struct_4.xyz,Nucleus 1H :,1.034057,0.00555,-1.315262,29.04,35.11,23.37,28.65,40.56,26.9,29.44,-7.05,-0.08,-2.65,23.37,28.65,35.11,0,11.74,-0.1
nw_cut_3_0_ch3_opt_disp_struct_4.xyz,Nucleus 2H :,1.823041,0.642913,-1.722515,29.01,35.15,24.37,27.52,47.21,25.56,28.0,-13.05,1.23,-1.91,24.37,27.52,35.15,0,10.78,-0.41
nw_cut_3_0_ch3_opt_disp_struct_4.xyz,Nucleus 6H :,1.246697,-1.024825,-1.624886,23.99,16.21,24.86,30.91,50.14,15.14,30.07,-19.7,-5.14,1.48,16.21,24.86,30.91,0,14.7,0.18
nw_cut_3_0_ch3_opt_disp_struct_4.xyz,Nucleus 10H :,0.955371,0.130462,0.163125,23.76,29.62,19.22,22.45,34.57,39.95,52.35,-5.13,-19.71,-30.75,19.22,22.45,29.62,0,10.4,-0.38
nw_cut_3_0_ch3_opt_disp_struct_4.xyz,Nucleus 14H :,1.729181,0.95537,0.955681,23.92,28.27,23.48,20.0,10.27,33.54,46.61,-23.3,9.93,-5.3,20.0,23.48,28.27,0,8.27,-0.16
nw_cut_3_0_ch3_opt_disp_struct_4.xyz,Nucleus 16H :,1.341974,0.788455,2.257691,23.95,19.48,27.73,24.63,11.86,32.18,49.38,-24.91,-4.47,7.8,19.48,24.63,27.73,0,8.25,0.25
nw_cut_3_0_ch3_opt_disp_struct_4.xyz,Nucleus 17H :,1.761574,1.245108,3.048378,24.2,20.6,25.21,26.8,44.68,28.51,32.03,-19.52,-7.68,-5.41,20.6,25.21,26.8,0,6.2,0.49
nw_cut_3_0_ch3_opt_disp_struct_4.xyz,Nucleus 18H :,0.32558,-0.13394,2.337541,28.95,35.65,27.02,24.18,43.53,26.92,33.33,-0.33,-10.58,-6.01,24.18,27.02,35.65,0,11.47,-0.5
nw_cut_3_0_ch3_opt_disp_struct_4.xyz,Nucleus 19H :,0.058305,-0.563055,1.038027,29.17,23.75,29.43,34.34,42.96,22.37,27.9,-9.6,2.27,1.61,23.75,29.43,34.34,0,10.59,0.07
nw_cut_3_0_ch3_opt_disp_struct_4.xyz,Nucleus 20H :,-0.962816,-1.517854,0.842612,28.74,34.95,23.72,27.55,39.63,13.19,27.59,11.2,-5.4,0.01,23.72,27.55,34.95,0,11.23,-0.32
nw_cut_3_0_ch3_opt_disp_struct_4.xyz,Nucleus 21H :,-1.198801,-1.872619,-0.156872,28.65,34.27,24.79,26.89,42.56,12.25,23.9,-8.35,12.68,2.91,24.79,26.89,34.27,0,9.48,-0.56
nw_cut_3_0_ch3_opt_disp_struct_4.xyz,Nucleus 23H :,-1.680518,-2.015113,1.943495,29.96,35.49,27.81,26.58,39.55,18.06,10.65,-4.35,9.56,16.4,26.58,27.81,35.49,0,8.91,-0.72
nw_cut_3_0_ch3_opt_disp_struct_4.xyz,Nucleus 24H :,-2.770304,-3.028847,1.749916,30.37,25.36,31.94,33.81,24.56,35.18,39.7,-6.69,-2.7,1.05,25.36,31.94,33.81,0,8.45,0.56
nw_cut_3_0_ch3_opt_disp_struct_4.xyz,Nucleus 28H :,-1.378307,-1.558204,3.230441,28.34,37.88,21.28,25.85,30.05,51.78,41.15,-0.54,-19.57,-17.86,21.28,25.85,37.88,0,16.6,-0.45
nw_cut_3_0_ch3_opt_disp_struct_4.xyz,Nucleus 29H :,-1.935275,-1.945323,4.079258,28.33,36.51,22.62,25.87,30.16,38.23,36.58,-0.68,-7.86,-11.43,22.62,25.87,36.51,0,13.89,-0.53
nw_cut_3_0_ch3_opt_disp_struct_4.xyz,Nucleus 30H :,-0.372854,-0.611201,3.451737,29.83,34.48,27.94,27.08,38.85,16.62,21.42,-5.34,11.81,6.15,27.08,27.94,34.48,0,7.4,-0.77
nw_cut_3_0_ch3_opt_disp_struct_4.xyz,Nucleus 0C :,-0.138427,-0.273454,4.455844,172.76,160.79,169.31,188.17,236.12,241.78,258.2,-77.57,-73.64,-66.62,160.79,169.31,188.17,0,27.38,-0.38
nw_cut_3_0_ch3_opt_disp_struct_4.xyz,Nucleus 3C :,2.516229,1.642803,0.682334,63.93,149.22,52.78,-10.2,243.64,277.72,263.44,-94.47,-224.09,-274.43,-10.2,52.78,149.22,0,159.42,-0.21
nw_cut_3_0_ch3_opt_disp_struct_4.xyz,Nucleus 4C :,0.09086,0.294571,-1.79408,55.33,-30.2,127.7,68.49,275.53,258.77,257.75,-294.51,-131.02,-200.52,-30.2,68.49,127.7,0,157.9,0.25
nw_cut_3_0_ch3_opt_disp_struct_4.xyz,Nucleus 7C :,-2.979652,-3.190207,0.690033,42.93,143.56,-35.17,20.4,266.09,272.24,273.56,-126.62,-308.6,-247.89,-35.17,20.4,143.56,0,178.73,-0.38
nw_cut_3_0_ch3_opt_disp_struct_4.xyz,Nucleus 8C :,-3.6977,-2.708246,2.235574,49.43,168.86,0.49,-21.05,225.6,269.19,257.44,-57.14,-267.09,-279.7,-21.05,0.49,168.86,0,189.91,-0.77
nw_cut_3_0_ch3_opt_disp_struct_4.xyz,Nucleus 9C :,-2.493252,-3.996137,2.186965,55.89,159.07,50.43,-41.82,250.21,275.12,271.97,-92.68,-223.47,-313.47,-41.82,50.43,159.07,0,200.89,-0.08
nw_cut_3_0_ch3_opt_disp_struct_4.xyz,Nucleus 11C :,3.860527,-4.80742,1.657382,44.32,174.17,-61.0,19.78,235.18,263.63,278.62,-61.74,-327.11,-255.63,-61.0,19.78,174.17,0,235.17,-0.31
nw_cut_3_0_ch3_opt_disp_struct_4.xyz,Nucleus 12C :,4.79729,-5.051218,2.162992,161.19,188.75,138.2,156.63,255.7,223.31,230.15,-62.68,-76.06,-86.83,138.2,156.63,188.75,0,50.55,-0.27
nw_cut_3_0_ch3_opt_disp_struct_4.xyz,Nucleus 13C :,3.972103,-3.863074,1.116668,52.44,165.37,46.34,-54.38,229.68,257.87,277.95,-64.33,-231.29,-312.55,-54.38,46.34,165.37,0,219.75,-0.08
nw_cut_3_0_ch3_opt_disp_struct_4.xyz,Nucleus 15C :,2.743878,-4.789089,2.661713,64.36,170.98,49.67,-27.56,243.89,273.82,267.4,-73.28,-223.16,-295.58,-27.56,49.67,170.98,0,198.54,-0.22
nw_cut_3_0_ch3_opt_disp_struct_4.xyz,Nucleus 22C :,2.624798,-5.625769,3.548661,163.8,191.16,157.03,143.2,258.41,233.94,240.9,-66.03,-83.48,-92.33,143.2,157.03,191.16,0,47.96,-0.42
nw_cut_3_0_ch3_opt_disp_struct_4.xyz,Nucleus 25C :,1.843468,-3.778461,2.515885,4.35,-88.49,94.05,7.5,196.29,252.21,270.6,-102.34,-342.09,-261.62,-88.49,7.5,94.05,0,182.54,0.05
nw_cut_3_0_ch3_opt_disp_struct_4.xyz,Nucleus 5N :,1.826009,-3.262355,1.660587,118.13,55.89,169.77,128.74,300.1,336.81,331.03,-131.29,-207.86,-274.38,55.89,128.74,169.77,0,113.88,0.28
nw_cut_3_0_ch3_opt_disp_struct_4.xyz,Nucleus 27N :,1.001397,-3.86177,3.050374,143.9,40.19,244.87,146.64,295.19,324.35,342.66,-287.02,-89.08,-154.41,40.19,146.64,244.87,0,204.68,0.04
nw_cut_3_0_ch3_opt_disp_struct_4.xyz,Nucleus 26O :,3.665289,-5.606066,0.934006,-100.21,319.64,-226.94,-393.33,338.16,380.91,427.24,-18.92,-609.4,-818.61,-393.33,-226.94,319.64,0,712.97,-0.53
nw_cut_3_0_ch3_opt_disp_struct_5.xyz,Nucleus 1H :,1.034057,0.00555,-1.315262,29.05,35.09,23.38,28.67,40.52,26.92,29.44,-6.99,-0.12,-2.63,23.38,28.67,35.09,0,11.71,-0.1
nw_cut_3_0_ch3_opt_disp_struct_5.xyz,Nucleus 2H :,1.823041,0.642913,-1.722515,29.02,35.18,24.38,27.49,47.13,25.55,28.0,-12.93,1.28,-1.99,24.38,27.49,35.18,0,10.8,-0.43
nw_cut_3_0_ch3_opt_disp_struct_5.xyz,Nucleus 6H :,1.246697,-1.024825,-1.624886,24.01,16.23,24.89,30.91,50.15,15.17,30.14,-19.69,-5.17,1.43,16.23,24.89,30.91,0,14.68,0.18
nw_cut_3_0_ch3_opt_disp_struct_5.xyz,Nucleus 10H :,0.955371,0.130462,0.163125,23.76,29.67,19.22,22.4,34.49,39.83,52.21,-4.97,-19.73,-30.56,19.22,22.4,29.67,0,10.45,-0.39
nw_cut_3_0_ch3_opt_disp_struct_5.xyz,Nucleus 14H :,1.729181,0.95537,0.955681,23.92,28.33,20.0,23.43,10.24,33.53,46.62,-23.32,9.92,-5.23,20.0,23.43,28.33,0,8.33,-0.18
nw_cut_3_0_ch3_opt_disp_struct_5.xyz,Nucleus 16H :,1.341974,0.788455,2.257691,23.95,19.48,27.77,24.61,11.94,32.23,49.25,-24.77,-4.47,7.69,19.48,24.61,27.77,0,8.29,0.24
nw_cut_3_0_ch3_opt_disp_struct_5.xyz,Nucleus 17H :,1.761574,1.245108,3.048378,24.22,20.62,25.21,26.83,44.7,28.52,32.02,-19.53,-7.69,-5.37,20.62,25.21,26.83,0,6.21,0.48
nw_cut_3_0_ch3_opt_disp_struct_5.xyz,Nucleus 18H :,0.32558,-0.13394,2.337541,28.95,35.63,27.03,24.2,43.51,26.87,33.27,-0.29,-10.52,-5.99,24.2,27.03,35.63,0,11.43,-0.5
nw_cut_3_0_ch3_opt_disp_struct_5.xyz,Nucleus 19H :,0.058305,-0.563055,1.038027,29.18,23.77,29.44,34.32,42.95,22.28,27.9,-9.57,2.35,1.62,23.77,29.44,34.32,0,10.55,0.07
nw_cut_3_0_ch3_opt_disp_struct_5.xyz,Nucleus 20H :,-0.962816,-1.517854,0.842612,28.74,34.91,23.73,27.57,39.61,13.18,27.57,11.2,-5.42,0.06,23.73,27.57,34.91,0,11.18,-0.31
nw_cut_3_0_ch3_opt_disp_struct_5.xyz,Nucleus 21H :,-1.198801,-1.872619,-0.156872,28.66,34.31,24.78,26.88,42.52,12.25,24.07,12.65,-8.27,2.76,24.78,26.88,34.31,0,9.53,-0.56
nw_cut_3_0_ch3_opt_disp_struct_5.xyz,Nucleus 23H :,-1.680518,-2.015113,1.943495,29.92,35.38,27.81,26.56,39.39,17.88,9.93,-4.32,9.74,17.12,26.56,27.81,35.38,0,8.82,-0.72
nw_cut_3_0_ch3_opt_disp_struct_5.xyz,Nucleus 24H :,-2.770304,-3.028847,1.749916,30.31,25.41,31.76,33.77,24.48,34.84,39.99,-7.04,-2.53,1.19,25.41,31.76,33.77,0,8.36,0.52
nw_cut_3_0_ch3_opt_disp_struct_5.xyz,Nucleus 28H :,-1.378307,-1.558204,3.230441,28.14,36.96,21.51,25.95,30.6,51.14,42.65,-1.12,-20.73,-18.12,21.51,25.95,36.96,0,15.45,-0.43
nw_cut_3_0_ch3_opt_disp_struct_5.xyz,Nucleus 29H :,-1.935275,-1.945323,4.079258,28.17,36.03,22.83,25.65,31.06,39.1,35.88,-1.17,-8.64,-11.73,22.83,25.65,36.03,0,13.2,-0.57
nw_cut_3_0_ch3_opt_disp_struct_5.xyz,Nucleus 30H :,-0.372854,-0.611201,3.451737,29.8,34.42,27.88,27.09,38.75,15.96,21.28,-5.36,12.47,6.29,27.09,27.88,34.42,0,7.33,-0.79
nw_cut_3_0_ch3_opt_disp_struct_5.xyz,Nucleus 0C :,-0.138427,-0.273454,4.455844,172.75,160.8,169.28,188.17,236.08,241.69,258.1,-77.44,-73.57,-66.6,160.8,169.28,188.17,0,27.37,-0.38
nw_cut_3_0_ch3_opt_disp_struct_5.xyz,Nucleus 3C :,2.516229,1.642803,0.682334,63.88,149.21,52.76,-10.34,243.26,277.3,263.32,-94.1,-223.76,-274.39,-10.34,52.76,149.21,0,159.55,-0.21
nw_cut_3_0_ch3_opt_disp_struct_5.xyz,Nucleus 4C :,0.09086,0.294571,-1.79408,55.48,-30.01,127.67,68.79,275.33,258.83,257.68,-294.24,-131.02,-200.13,-30.01,68.79,127.67,0,157.68,0.25
nw_cut_3_0_ch3_opt_disp_struct_5.xyz,Nucleus 7C :,-2.979652,-3.190207,0.690033,43.0,143.44,-35.05,20.61,266.41,273.51,271.33,-126.41,-308.4,-247.46,-35.05,20.61,143.44,0,178.49,-0.38
nw_cut_3_0_ch3_opt_disp_struct_5.xyz,Nucleus 8C :,-3.6977,-2.708246,2.235574,49.34,168.71,0.51,-21.21,225.59,269.31,257.56,-57.29,-267.13,-280.03,-21.21,0.51,168.71,0,189.92,-0.77
nw_cut_3_0_ch3_opt_disp_struct_5.xyz,Nucleus 9C :,-2.493252,-3.996137,2.186965,55.86,158.91,50.58,-41.91,250.29,274.42,271.73,-92.63,-222.93,-313.31,-41.91,50.58,158.91,0,200.82,-0.08
nw_cut_3_0_ch3_opt_disp_struct_5.xyz,Nucleus 11C :,4.027813,-4.991329,1.683705,44.42,174.02,-60.94,20.18,235.31,263.68,278.1,-61.86,-327.0,-254.97,-60.94,20.18,174.02,0,234.96,-0.31
nw_cut_3_0_ch3_opt_disp_struct_5.xyz,Nucleus 12C :,4.964576,-5.235127,2.189315,161.17,188.72,138.15,156.65,255.65,223.16,230.01,-62.69,-75.9,-86.71,138.15,156.65,188.72,0,50.57,-0.27
nw_cut_3_0_ch3_opt_disp_struct_5.xyz,Nucleus 13C :,4.139389,-4.046983,1.142991,52.36,165.19,46.46,-54.56,229.75,258.1,277.66,-64.57,-230.91,-312.94,-54.56,46.46,165.19,0,219.75,-0.08
nw_cut_3_0_ch3_opt_disp_struct_5.xyz,Nucleus 15C :,2.911164,-4.972998,2.688036,64.69,170.83,50.38,-27.15,244.0,273.63,266.99,-73.47,-222.29,-294.8,-27.15,50.38,170.83,0,197.98,-0.22
nw_cut_3_0_ch3_opt_disp_struct_5.xyz,Nucleus 22C :,2.792084,-5.809678,3.574983,163.73,191.13,156.82,143.25,258.8,233.56,240.48,-66.42,-83.23,-91.99,143.25,156.82,191.13,0,47.88,-0.43
nw_cut_3_0_ch3_opt_disp_struct_5.xyz,Nucleus 25C :,2.010754,-3.96237,2.542208,4.34,-88.87,94.06,7.84,195.37,252.2,270.44,-101.41,-342.44,-261.15,-88.87,7.84,94.06,0,182.93,0.06
nw_cut_3_0_ch3_opt_disp_struct_5.xyz,Nucleus 5N :,1.993295,-3.446264,1.68691,118.38,56.34,169.7,129.1,300.15,336.79,331.01,-131.31,-207.5,-273.99,56.34,129.1,169.7,0,113.36,0.28
nw_cut_3_0_ch3_opt_disp_struct_5.xyz,Nucleus 27N :,1.168683,-4.045679,3.076697,144.13,41.56,244.74,146.09,295.83,325.16,342.4,-286.27,-88.6,-156.15,41.56,146.09,244.74,0,203.18,0.03
nw_cut_3_0_ch3_opt_disp_struct_5.xyz,Nucleus 26O :,3.832576,-5.789974,0.960329,-101.37,319.54,-228.22,-395.43,336.68,380.83,427.35,-17.54,-610.65,-820.79,-395.43,-228.22,319.54,0,714.97,-0.53
nw_cut_3_0_ch3_opt_disp_struct_6.xyz,Nucleus 1H :,1.034057,0.00555,-1.315262,29.06,35.09,23.39,28.69,40.48,26.93,29.45,-6.93,-0.15,-2.61,23.39,28.69,35.09,0,11.7,-0.09
nw_cut_3_0_ch3_opt_disp_struct_6.xyz,Nucleus 2H :,1.823041,0.642913,-1.722515,29.02,35.21,24.39,27.47,47.06,25.54,28.01,-12.82,1.33,-2.05,24.39,27.47,35.21,0,10.82,-0.43
nw_cut_3_0_ch3_opt_disp_struct_6.xyz,Nucleus 6H :,1.246697,-1.024825,-1.624886,24.02,16.23,24.91,30.92,50.13,15.19,30.21,-19.65,-5.21,1.39,16.23,24.91,30.92,0,14.69,0.18
nw_cut_3_0_ch3_opt_disp_struct_6.xyz,Nucleus 10H :,0.955371,0.130462,0.163125,23.76,29.71,19.21,22.36,34.41,39.72,52.05,-4.8,-19.73,-30.36,19.21,22.36,29.71,0,10.5,-0.4
nw_cut_3_0_ch3_opt_disp_struct_6.xyz,Nucleus 14H :,1.729181,0.95537,0.955681,23.93,28.39,19.99,23.4,10.22,33.49,46.61,-23.32,9.91,-5.12,19.99,23.4,28.39,0,8.4,-0.19
nw_cut_3_0_ch3_opt_disp_struct_6.xyz,Nucleus 16H :,1.341974,0.788455,2.257691,23.97,19.48,27.82,24.61,12.0,32.27,49.12,-24.63,-4.47,7.6,19.48,24.61,27.82,0,8.34,0.23
nw_cut_3_0_ch3_opt_disp_struct_6.xyz,Nucleus 17H :,1.761574,1.245108,3.048378,24.23,20.64,25.2,26.85,44.7,28.53,32.0,-19.53,-7.69,-5.33,20.64,25.2,26.85,0,6.21,0.47
nw_cut_3_0_ch3_opt_disp_struct_6.xyz,Nucleus 18H :,0.32558,-0.13394,2.337541,28.96,35.62,27.04,24.21,43.5,26.83,33.24,-0.24,-10.47,-5.98,24.21,27.04,35.62,0,11.41,-0.5
nw_cut_3_0_ch3_opt_disp_struct_6.xyz,Nucleus 19H :,0.058305,-0.563055,1.038027,29.18,23.78,29.45,34.3,42.91,22.21,27.89,-9.51,2.42,1.61,23.78,29.45,34.3,0,10.52,0.08
nw_cut_3_0_ch3_opt_disp_struct_6.xyz,Nucleus 20H :,-0.962816,-1.517854,0.842612,28.74,34.88,23.75,27.59,39.59,13.18,27.53,11.2,-5.43,0.14,23.75,27.59,34.88,0,11.13,-0.31
nw_cut_3_0_ch3_opt_disp_struct_6.xyz,Nucleus 21H :,-1.198801,-1.872619,-0.156872,28.66,34.34,24.77,26.87,42.45,12.27,24.22,12.6,-8.18,2.63,24.77,26.87,34.34,0,9.57,-0.56
nw_cut_3_0_ch3_opt_disp_struct_6.xyz,Nucleus 23H :,-1.680518,-2.015113,1.943495,29.88,35.28,27.81,26.54,39.25,17.7,9.21,-4.3,9.92,17.85,26.54,27.81,35.28,0,8.74,-0.71
nw_cut_3_0_ch3_opt_disp_struct_6.xyz,Nucleus 24H :,-2.770304,-3.028847,1.749916,30.26,25.46,31.57,33.75,24.38,34.52,40.31,-7.41,-2.37,1.36,25.46,31.57,33.75,0,8.29,0.47
nw_cut_3_0_ch3_opt_disp_struct_6.xyz,Nucleus 28H :,-1.378307,-1.558204,3.230441,27.96,36.2,21.67,26.0,31.0,43.99,50.69,-1.54,-21.98,-18.29,21.67,26.0,36.2,0,14.53,-0.4
nw_cut_3_0_ch3_opt_disp_struct_6.xyz,Nucleus 29H :,-1.935275,-1.945323,4.079258,28.02,35.67,22.97,25.41,39.89,35.31,31.95,-1.58,-9.51,-12.01,22.97,25.41,35.67,0,12.7,-0.62
nw_cut_3_0_ch3_opt_disp_struct_6.xyz,Nucleus 30H :,-0.372854,-0.611201,3.451737,29.76,34.37,27.82,27.1,38.67,15.31,21.13,-5.38,13.13,6.43,27.1,27.82,34.37,0,7.27,-0.8
nw_cut_3_0_ch3_opt_disp_struct_6.xyz,Nucleus 0C :,-0.138427,-0.273454,4.455844,172.75,160.81,169.26,188.17,236.02,241.62,258.02,-77.34,-73.52,-66.56,160.81,169.26,188.17,0,27.36,-0.38
nw_cut_3_0_ch3_opt_disp_struct_6.xyz,Nucleus 3C :,2.516229,1.642803,0.682334,63.82,149.18,52.73,-10.46,242.93,276.91,263.21,-93.8,-223.42,-274.38,-10.46,52.73,149.18,0,159.64,-0.21
nw_cut_3_0_ch3_opt_disp_struct_6.xyz,Nucleus 4C :,0.09086,0.294571,-1.79408,55.61,-29.85,127.65,69.03,275.14,258.81,257.73,-294.04,-131.04,-199.77,-29.85,69.03,127.65,0,157.5,0.26
nw_cut_3_0_ch3_opt_disp_struct_6.xyz,Nucleus 7C :,-2.979652,-3.190207,0.690033,43.03,143.33,-34.99,20.76,273.32,270.7,266.58,-126.22,-308.12,-247.16,-34.99,20.76,143.33,0,178.32,-0.37
nw_cut_3_0_ch3_opt_disp_struct_6.xyz,Nucleus 8C :,-3.6977,-2.708246,2.235574,49.25,168.58,0.51,-21.35,225.63,269.17,257.66,-57.43,-266.98,-280.29,-21.35,0.51,168.58,0,189.93,-0.77
nw_cut_3_0_ch3_opt_disp_struct_6.xyz,Nucleus 9C :,-2.493252,-3.996137,2.186965,55.79,158.77,50.62,-42.03,250.36,273.77,271.36,-92.56,-222.49,-313.08,-42.03,50.62,158.77,0,200.8,-0.08
nw_cut_3_0_ch3_opt_disp_struct_6.xyz,Nucleus 11C :,4.195099,-5.175238,1.710028,44.48,173.9,-60.92,20.47,235.37,263.67,277.55,-61.91,-326.84,-254.39,-60.92,20.47,173.9,0,234.82,-0.31
nw_cut_3_0_ch3_opt_disp_struct_6.xyz,Nucleus 12C :,5.131862,-5.419036,2.215637,161.16,188.7,138.1,156.67,255.57,223.06,229.9,-62.65,-75.77,-86.64,138.1,156.67,188.7,0,50.6,-0.27
nw_cut_3_0_ch3_opt_disp_struct_6.xyz,Nucleus 13C :,4.306675,-4.230892,1.169313,52.29,165.04,46.53,-54.7,229.78,258.22,277.31,-64.75,-230.52,-313.17,-54.7,46.53,165.04,0,219.74,-0.08
nw_cut_3_0_ch3_opt_disp_struct_6.xyz,Nucleus 15C :,3.07845,-5.156907,2.714359,64.91,170.69,50.9,-26.85,244.1,273.42,266.63,-73.66,-221.55,-294.19,-26.85,50.9,170.69,0,197.54,-0.21
nw_cut_3_0_ch3_opt_disp_struct_6.xyz,Nucleus 22C :,2.95937,-5.993587,3.601306,163.67,191.1,156.64,143.28,259.18,233.15,240.07,-66.77,-82.98,-91.62,143.28,156.64,191.1,0,47.82,-0.44
nw_cut_3_0_ch3_opt_disp_struct_6.xyz,Nucleus 25C :,2.17804,-4.146279,2.568531,4.33,-89.19,94.08,8.09,194.49,252.23,270.36,-100.52,-342.72,-260.87,-89.19,8.09,94.08,0,183.27,0.06
nw_cut_3_0_ch3_opt_disp_struct_6.xyz,Nucleus 5N :,2.160581,-3.630173,1.713232,118.59,56.71,169.64,129.41,300.18,336.77,330.96,-131.31,-207.2,-273.65,56.71,129.41,169.64,0,112.93,0.29
nw_cut_3_0_ch3_opt_disp_struct_6.xyz,Nucleus 27N :,1.335969,-4.229588,3.10302,144.28,42.49,244.55,145.81,296.36,325.9,342.19,-285.87,-88.27,-157.48,42.49,145.81,244.55,0,202.06,0.02
nw_cut_3_0_ch3_opt_disp_struct_6.xyz,Nucleus 26O :,3.999862,-5.973883,0.986652,-102.25,319.5,-229.21,-397.04,335.35,380.76,427.45,-16.22,-611.62,-822.48,-397.04,-229.21,319.5,0,716.54,-0.53
nw_cut_3_0_ch3_opt_disp_struct_7.xyz,Nucleus 1H :,1.034057,0.00555,-1.315262,29.06,35.08,23.4,28.71,40.44,26.94,29.46,-6.87,-0.17,-2.6,23.4,28.71,35.08,0,11.68,-0.09
nw_cut_3_0_ch3_opt_disp_struct_7.xyz,Nucleus 2H :,1.823041,0.642913,-1.722515,29.02,35.23,24.39,27.45,47.0,25.53,28.01,-12.72,1.38,-2.11,24.39,27.45,35.23,0,10.84,-0.43
nw_cut_3_0_ch3_opt_disp_struct_7.xyz,Nucleus 6H :,1.246697,-1.024825,-1.624886,24.03,16.24,24.93,30.92,50.1,15.2,30.26,-19.59,-5.24,1.36,16.24,24.93,30.92,0,14.68,0.18
nw_cut_3_0_ch3_opt_disp_struct_7.xyz,Nucleus 10H :,0.955371,0.130462,0.163125,23.76,29.75,19.19,22.34,34.32,39.62,51.87,-4.65,-19.73,-30.15,19.19,22.34,29.75,0,10.56,-0.4
nw_cut_3_0_ch3_opt_disp_struct_7.xyz,Nucleus 14H :,1.729181,0.95537,0.955681,23.93,28.44,19.98,23.38,10.18,33.41,46.59,-23.31,9.91,-4.99,19.98,23.38,28.44,0,8.46,-0.2
nw_cut_3_0_ch3_opt_disp_struct_7.xyz,Nucleus 16H :,1.341974,0.788455,2.257691,23.98,19.47,27.85,24.61,12.05,32.3,48.99,-24.49,-4.45,7.54,19.47,24.61,27.85,0,8.38,0.23
nw_cut_3_0_ch3_opt_disp_struct_7.xyz,Nucleus 17H :,1.761574,1.245108,3.048378,24.24,20.65,25.2,26.87,44.7,28.54,31.99,-19.52,-7.7,-5.3,20.65,25.2,26.87,0,6.22,0.46
nw_cut_3_0_ch3_opt_disp_struct_7.xyz,Nucleus 18H :,0.32558,-0.13394,2.337541,28.96,35.61,27.05,24.23,43.5,26.79,33.22,-0.19,-10.46,-5.97,24.23,27.05,35.61,0,11.38,-0.5
nw_cut_3_0_ch3_opt_disp_struct_7.xyz,Nucleus 19H :,0.058305,-0.563055,1.038027,29.17,23.78,29.45,34.29,42.86,22.15,27.88,-9.44,2.47,1.6,23.78,29.45,34.29,0,10.51,0.08
nw_cut_3_0_ch3_opt_disp_struct_7.xyz,Nucleus 20H :,-0.962816,-1.517854,0.842612,28.74,34.85,23.76,27.6,39.58,13.17,27.47,11.21,-5.43,0.21,23.76,27.6,34.85,0,11.09,-0.31
nw_cut_3_0_ch3_opt_disp_struct_7.xyz,Nucleus 21H :,-1.198801,-1.872619,-0.156872,28.67,34.38,24.75,26.87,42.38,12.27,24.35,12.56,-8.07,2.52,24.75,26.87,34.38,0,9.63,-0.56
nw_cut_3_0_ch3_opt_disp_struct_7.xyz,Nucleus 23H :,-1.680518,-2.015113,1.943495,29.84,35.19,27.81,26.52,39.12,17.5,8.49,-4.28,10.12,18.57,26.52,27.81,35.19,0,8.67,-0.7
nw_cut_3_0_ch3_opt_disp_struct_7.xyz,Nucleus 24H :,-2.770304,-3.028847,1.749916,30.22,25.5,31.41,33.75,24.25,34.21,40.63,-7.78,-2.21,1.56,25.5,31.41,33.75,0,8.25,0.43
nw_cut_3_0_ch3_opt_disp_struct_7.xyz,Nucleus 28H :,-1.378307,-1.558204,3.230441,27.8,35.57,21.79,26.04,31.28,45.17,50.41,-1.84,-23.16,-18.46,21.79,26.04,35.57,0,13.78,-0.38
nw_cut_3_0_ch3_opt_disp_struct_7.xyz,Nucleus 29H :,-1.935275,-1.945323,4.079258,27.89,35.41,23.08,25.17,40.57,34.99,32.7,-1.92,-10.41,-12.27,23.08,25.17,35.41,0,12.33,-0.66
nw_cut_3_0_ch3_opt_disp_struct_7.xyz,Nucleus 30H :,-0.372854,-0.611201,3.451737,29.73,34.32,27.77,27.11,38.61,14.67,20.98,-5.41,13.78,6.58,27.11,27.77,34.32,0,7.21,-0.82
nw_cut_3_0_ch3_opt_disp_struct_7.xyz,Nucleus 0C :,-0.138427,-0.273454,4.455844,172.74,160.82,169.23,188.18,235.96,241.56,257.96,-77.25,-73.48,-66.52,160.82,169.23,188.18,0,27.36,-0.38
nw_cut_3_0_ch3_opt_disp_struct_7.xyz,Nucleus 3C :,2.516229,1.642803,0.682334,63.77,149.16,52.7,-10.55,242.71,276.61,263.11,-93.59,-223.13,-274.39,-10.55,52.7,149.16,0,159.71,-0.21
nw_cut_3_0_ch3_opt_disp_struct_7.xyz,Nucleus 4C :,0.09086,0.294571,-1.79408,55.71,-29.72,127.62,69.24,274.96,258.76,257.83,-293.89,-131.08,-199.44,-29.72,69.24,127.62,0,157.34,0.26
nw_cut_3_0_ch3_opt_disp_struct_7.xyz,Nucleus 7C :,-2.979652,-3.190207,0.690033,43.05,143.24,-34.96,20.87,273.08,270.27,266.66,-126.08,-307.81,-246.96,-34.96,20.87,143.24,0,178.2,-0.37
nw_cut_3_0_ch3_opt_disp_struct_7.xyz,Nucleus 8C :,-3.6977,-2.708246,2.235574,49.18,168.48,0.5,-21.45,225.68,268.87,257.74,-57.56,-266.74,-280.46,-21.45,0.5,168.48,0,189.93,-0.77
nw_cut_3_0_ch3_opt_disp_struct_7.xyz,Nucleus 9C :,-2.493252,-3.996137,2.186965,55.7,158.65,50.61,-42.15,250.39,273.29,270.94,-92.51,-222.19,-312.83,-42.15,50.61,158.65,0,200.8,-0.08
nw_cut_3_0_ch3_opt_disp_struct_7.xyz,Nucleus 11C :,4.362385,-5.359147,1.73635,44.53,173.79,-60.9,20.7,235.35,263.64,277.05,-61.88,-326.67,-253.89,-60.9,20.7,173.79,0,234.69,-0.3
nw_cut_3_0_ch3_opt_disp_struct_7.xyz,Nucleus 12C :,5.299148,-5.602945,2.24196,161.15,188.69,138.06,156.69,255.48,223.0,229.82,-62.57,-75.69,-86.61,138.06,156.69,188.69,0,50.63,-0.26
nw_cut_3_0_ch3_opt_disp_struct_7.xyz,Nucleus 13C :,4.473961,-4.414801,1.195636,52.23,164.91,46.57,-54.8,229.79,258.28,276.94,-64.88,-230.13,-313.32,-54.8,46.57,164.91,0,219.71,-0.08
nw_cut_3_0_ch3_opt_disp_struct_7.xyz,Nucleus 15C :,3.245736,-5.340816,2.740681,65.07,170.57,51.29,-26.64,244.17,273.24,266.3,-73.82,-220.94,-293.73,-26.64,51.29,170.57,0,197.21,-0.21
nw_cut_3_0_ch3_opt_disp_struct_7.xyz,Nucleus 22C :,3.126656,-6.177496,3.627629,163.63,191.08,156.49,143.31,259.53,232.71,239.68,-67.09,-82.72,-91.23,143.31,156.49,191.08,0,47.77,-0.45
nw_cut_3_0_ch3_opt_disp_struct_7.xyz,Nucleus 25C :,2.345326,-4.330187,2.594854,4.31,-89.47,94.1,8.3,193.62,252.25,270.33,-99.64,-342.95,-260.69,-89.47,8.3,94.1,0,183.57,0.07
nw_cut_3_0_ch3_opt_disp_struct_7.xyz,Nucleus 5N :,2.327867,-3.814082,1.739555,118.75,56.99,169.58,129.67,300.19,336.75,330.9,-131.29,-206.94,-273.37,56.99,129.67,169.58,0,112.59,0.29
nw_cut_3_0_ch3_opt_disp_struct_7.xyz,Nucleus 27N :,1.503255,-4.413497,3.129342,144.42,43.21,244.35,145.7,296.73,326.56,342.0,-285.63,-87.98,-158.42,43.21,145.7,244.35,0,201.14,0.02
nw_cut_3_0_ch3_opt_disp_struct_7.xyz,Nucleus 26O :,4.167148,-6.157792,1.012975,-102.94,319.5,-230.0,-398.32,334.2,380.69,427.55,-15.04,-612.39,-823.83,-398.32,-230.0,319.5,0,717.82,-0.53
nw_cut_3_0_ch3_opt_disp_struct_8.xyz,Nucleus 1H :,1.034057,0.00555,-1.315262,29.07,35.08,23.41,28.73,40.41,26.94,29.47,-6.82,-0.19,-2.6,23.41,28.73,35.08,0,11.67,-0.09
nw_cut_3_0_ch3_opt_disp_struct_8.xyz,Nucleus 2H :,1.823041,0.642913,-1.722515,29.03,35.26,24.39,27.44,46.94,25.52,28.01,-12.64,1.42,-2.16,24.39,27.44,35.26,0,10.87,-0.44
nw_cut_3_0_ch3_opt_disp_struct_8.xyz,Nucleus 6H :,1.246697,-1.024825,-1.624886,24.04,16.24,24.95,30.93,50.06,15.2,30.31,-19.52,-5.26,1.34,16.24,24.95,30.93,0,14.69,0.19
nw_cut_3_0_ch3_opt_disp_struct_8.xyz,Nucleus 10H :,0.955371,0.130462,0.163125,23.76,29.78,19.18,22.32,34.23,39.54,51.7,-4.52,-19.73,-29.95,19.18,22.32,29.78,0,10.6,-0.41
nw_cut_3_0_ch3_opt_disp_struct_8.xyz,Nucleus 14H :,1.729181,0.95537,0.955681,23.93,28.48,19.96,23.36,10.15,33.32,46.57,-23.29,9.91,-4.86,19.96,23.36,28.48,0,8.52,-0.2
nw_cut_3_0_ch3_opt_disp_struct_8.xyz,Nucleus 16H :,1.341974,0.788455,2.257691,23.98,19.46,27.88,24.61,12.08,32.32,48.87,-24.35,-4.44,7.48,19.46,24.61,27.88,0,8.42,0.22
nw_cut_3_0_ch3_opt_disp_struct_8.xyz,Nucleus 17H :,1.761574,1.245108,3.048378,24.25,20.66,25.2,26.88,44.69,28.54,31.98,-19.5,-7.71,-5.27,20.66,25.2,26.88,0,6.22,0.46
nw_cut_3_0_ch3_opt_disp_struct_8.xyz,Nucleus 18H :,0.32558,-0.13394,2.337541,28.97,35.6,27.06,24.24,43.5,26.75,33.2,-0.15,-10.45,-5.95,24.24,27.06,35.6,0,11.36,-0.5
nw_cut_3_0_ch3_opt_disp_struct_8.xyz,Nucleus 19H :,0.058305,-0.563055,1.038027,29.17,23.78,29.46,34.28,42.8,22.1,27.87,-9.36,2.52,1.59,23.78,29.46,34.28,0,10.5,0.08
nw_cut_3_0_ch3_opt_disp_struct_8.xyz,Nucleus 20H :,-0.962816,-1.517854,0.842612,28.74,34.83,23.77,27.62,39.57,13.16,27.41,11.21,-5.43,0.29,23.77,27.62,34.83,0,11.06,-0.3
nw_cut_3_0_ch3_opt_disp_struct_8.xyz,Nucleus 21H :,-1.198801,-1.872619,-0.156872,28.67,34.41,24.73,26.87,42.29,12.27,24.45,12.52,-7.96,2.43,24.73,26.87,34.41,0,9.68,-0.56
nw_cut_3_0_ch3_opt_disp_struct_8.xyz,Nucleus 23H :,-1.680518,-2.015113,1.943495,29.81,35.12,27.81,26.51,39.01,17.3,7.77,-4.27,10.34,19.29,26.51,27.81,35.12,0,8.61,-0.7
nw_cut_3_0_ch3_opt_disp_struct_8.xyz,Nucleus 24H :,-2.770304,-3.028847,1.749916,30.18,25.54,31.25,33.75,24.08,40.95,33.93,-8.15,-2.06,1.78,25.54,31.25,33.75,0,8.21,0.39
nw_cut_3_0_ch3_opt_disp_struct_8.xyz,Nucleus 28H :,-1.378307,-1.558204,3.230441,27.67,35.05,21.89,26.06,31.45,46.18,50.3,-2.06,-24.24,-18.63,21.89,26.06,35.05,0,13.16,-0.37
nw_cut_3_0_ch3_opt_disp_struct_8.xyz,Nucleus 29H :,-1.935275,-1.945323,4.079258,27.78,35.21,23.17,24.95,41.18,35.1,33.1,-2.19,-11.34,-12.53,23.17,24.95,35.21,0,12.04,-0.71
nw_cut_3_0_ch3_opt_disp_struct_8.xyz,Nucleus 30H :,-0.372854,-0.611201,3.451737,29.71,34.29,27.72,27.12,38.55,14.03,20.83,-5.44,14.43,6.73,27.12,27.72,34.29,0,7.17,-0.83
nw_cut_3_0_ch3_opt_disp_struct_8.xyz,Nucleus 0C :,-0.138427,-0.273454,4.455844,172.74,160.83,169.21,188.19,235.89,241.52,257.92,-77.17,-73.45,-66.47,160.83,169.21,188.19,0,27.36,-0.39
nw_cut_3_0_ch3_opt_disp_struct_8.xyz,Nucleus 3C :,2.516229,1.642803,0.682334,63.72,149.13,52.67,-10.63,242.56,276.37,263.02,-93.47,-222.88,-274.43,-10.63,52.67,149.13,0,159.76,-0.21
nw_cut_3_0_ch3_opt_disp_struct_8.xyz,Nucleus 4C :,0.09086,0.294571,-1.79408,55.79,-29.62,127.59,69.41,274.82,258.71,257.94,-293.79,-131.14,-199.16,-29.62,69.41,127.59,0,157.21,0.26
nw_cut_3_0_ch3_opt_disp_struct_8.xyz,Nucleus 7C :,-2.979652,-3.190207,0.690033,43.06,143.17,-34.94,20.95,272.82,269.98,266.66,-125.97,-307.48,-246.83,-34.94,20.95,143.17,0,178.11,-0.37
nw_cut_3_0_ch3_opt_disp_struct_8.xyz,Nucleus 8C :,-3.6977,-2.708246,2.235574,49.12,168.4,0.5,-21.53,225.7,268.46,257.81,-57.64,-266.4,-280.56,-21.53,0.5,168.4,0,189.93,-0.77
nw_cut_3_0_ch3_opt_disp_struct_8.xyz,Nucleus 9C :,-2.493252,-3.996137,2.186965,55.62,158.55,50.57,-42.26,250.36,272.96,270.51,-92.45,-221.98,-312.54,-42.26,50.57,158.55,0,200.81,-0.08
nw_cut_3_0_ch3_opt_disp_struct_8.xyz,Nucleus 11C :,4.529671,-5.543056,1.762673,44.56,173.7,-60.89,20.88,235.28,263.59,276.64,-61.83,-326.49,-253.49,-60.89,20.88,173.7,0,234.59,-0.3
nw_cut_3_0_ch3_opt_disp_struct_8.xyz,Nucleus 12C :,5.466434,-5.786854,2.268283,161.14,188.69,138.02,156.71,255.39,222.96,229.75,-62.47,-75.63,-86.58,138.02,156.71,188.69,0,50.67,-0.26
nw_cut_3_0_ch3_opt_disp_struct_8.xyz,Nucleus 13C :,4.641247,-4.59871,1.221959,52.18,164.81,46.61,-54.87,229.77,258.29,276.57,-64.97,-229.74,-313.39,-54.87,46.61,164.81,0,219.68,-0.08
nw_cut_3_0_ch3_opt_disp_struct_8.xyz,Nucleus 15C :,3.413022,-5.524724,2.767004,65.19,170.47,51.58,-26.47,244.2,273.11,266.02,-73.95,-220.45,-293.36,-26.47,51.58,170.47,0,196.94,-0.21
nw_cut_3_0_ch3_opt_disp_struct_8.xyz,Nucleus 22C :,3.293942,-6.361405,3.653952,163.58,191.06,156.36,143.33,259.88,232.25,239.3,-67.38,-82.47,-90.83,143.33,156.36,191.06,0,47.73,-0.45
nw_cut_3_0_ch3_opt_disp_struct_8.xyz,Nucleus 25C :,2.512612,-4.514096,2.621176,4.29,-89.7,94.12,8.45,192.77,252.28,270.34,-98.78,-343.13,-260.61,-89.7,8.45,94.12,0,183.82,0.07
nw_cut_3_0_ch3_opt_disp_struct_8.xyz,Nucleus 5N :,2.495153,-3.997991,1.765878,118.88,57.23,169.52,129.89,300.19,336.72,330.84,-131.26,-206.71,-273.14,57.23,129.89,169.52,0,112.29,0.29
nw_cut_3_0_ch3_opt_disp_struct_8.xyz,Nucleus 27N :,1.670541,-4.597406,3.155665,144.53,43.75,244.17,145.66,297.01,327.14,341.88,-285.5,-87.73,-159.21,43.75,145.66,244.17,0,200.42,0.02
nw_cut_3_0_ch3_opt_disp_struct_8.xyz,Nucleus 26O :,4.334434,-6.341701,1.039297,-103.49,319.52,-230.63,-399.36,333.19,380.6,427.63,-13.99,-612.98,-824.92,-399.36,-230.63,319.52,0,718.88,-0.53
nw_cut_3_0_ch3_opt_disp_struct_9.xyz,Nucleus 1H :,1.034057,0.00555,-1.315262,29.08,35.07,23.41,28.75,40.37,26.95,29.49,-6.78,-0.2,-2.6,23.41,28.75,35.07,0,11.66,-0.08
nw_cut_3_0_ch3_opt_disp_struct_9.xyz,Nucleus 2H :,1.823041,0.642913,-1.722515,29.03,35.28,24.39,27.42,46.88,25.5,28.0,-12.57,1.46,-2.19,24.39,27.42,35.28,0,10.89,-0.44
nw_cut_3_0_ch3_opt_disp_struct_9.xyz,Nucleus 6H :,1.246697,-1.024825,-1.624886,24.05,16.24,24.97,30.94,50.01,15.2,30.34,-19.45,-5.28,1.32,16.24,24.97,30.94,0,14.7,0.19
nw_cut_3_0_ch3_opt_disp_struct_9.xyz,Nucleus 10H :,0.955371,0.130462,0.163125,23.76,29.8,19.16,22.32,34.15,39.47,51.54,-4.4,-19.72,-29.76,19.16,22.32,29.8,0,10.64,-0.41
nw_cut_3_0_ch3_opt_disp_struct_9.xyz,Nucleus 14H :,1.729181,0.95537,0.955681,23.94,28.51,19.95,23.36,10.11,33.23,46.55,-23.27,9.92,-4.73,19.95,23.36,28.51,0,8.56,-0.2
nw_cut_3_0_ch3_opt_disp_struct_9.xyz,Nucleus 16H :,1.341974,0.788455,2.257691,23.99,19.45,27.91,24.62,12.1,32.33,48.75,-24.22,-4.43,7.44,19.45,24.62,27.91,0,8.46,0.22
nw_cut_3_0_ch3_opt_disp_struct_9.xyz,Nucleus 17H :,1.761574,1.245108,3.048378,24.25,20.66,25.2,26.9,44.67,28.55,31.98,-19.47,-7.72,-5.25,20.66,25.2,26.9,0,6.24,0.46
nw_cut_3_0_ch3_opt_disp_struct_9.xyz,Nucleus 18H :,0.32558,-0.13394,2.337541,28.97,35.59,27.07,24.25,43.51,26.72,33.2,-0.11,-10.46,-5.94,24.25,27.07,35.59,0,11.34,-0.5
nw_cut_3_0_ch3_opt_disp_struct_9.xyz,Nucleus 19H :,0.058305,-0.563055,1.038027,29.17,23.78,29.47,34.27,42.74,22.06,27.86,-9.28,2.55,1.6,23.78,29.47,34.27,0,10.49,0.09
nw_cut_3_0_ch3_opt_disp_struct_9.xyz,Nucleus 20H :,-0.962816,-1.517854,0.842612,28.74,34.81,23.78,27.63,39.55,13.16,27.36,11.2,-5.42,0.36,23.78,27.63,34.81,0,11.03,-0.3
nw_cut_3_0_ch3_opt_disp_struct_9.xyz,Nucleus 21H :,-1.198801,-1.872619,-0.156872,28.67,34.44,24.7,26.87,42.21,12.27,24.53,12.49,-7.85,2.36,24.7,26.87,34.44,0,9.74,-0.55
nw_cut_3_0_ch3_opt_disp_struct_9.xyz,Nucleus 23H :,-1.680518,-2.015113,1.943495,29.79,35.05,27.82,26.49,38.91,17.08,7.05,-4.26,10.56,20.01,26.49,27.82,35.05,0,8.56,-0.69
nw_cut_3_0_ch3_opt_disp_struct_9.xyz,Nucleus 24H :,-2.770304,-3.028847,1.749916,30.14,25.57,31.11,33.75,23.88,41.27,33.67,-8.51,-1.91,2.04,25.57,31.11,33.75,0,8.18,0.36
nw_cut_3_0_ch3_opt_disp_struct_9.xyz,Nucleus 28H :,-1.378307,-1.558204,3.230441,27.55,34.61,21.97,26.07,31.56,47.01,50.36,-2.21,-25.26,-18.81,21.97,26.07,34.61,0,12.64,-0.35
nw_cut_3_0_ch3_opt_disp_struct_9.xyz,Nucleus 29H :,-1.935275,-1.945323,4.079258,27.68,35.06,23.24,24.75,41.72,35.7,33.07,-2.4,-12.81,-12.23,23.24,24.75,35.06,0,11.82,-0.74
nw_cut_3_0_ch3_opt_disp_struct_9.xyz,Nucleus 30H :,-0.372854,-0.611201,3.451737,29.68,34.25,27.67,27.13,38.5,13.4,20.66,-5.47,15.07,6.9,27.13,27.67,34.25,0,7.12,-0.85
nw_cut_3_0_ch3_opt_disp_struct_9.xyz,Nucleus 0C :,-0.138427,-0.273454,4.455844,172.74,160.84,169.19,188.2,235.84,241.49,257.88,-77.11,-73.43,-66.43,160.84,169.19,188.2,0,27.36,-0.39
nw_cut_3_0_ch3_opt_disp_struct_9.xyz,Nucleus 3C :,2.516229,1.642803,0.682334,63.69,149.11,52.65,-10.69,242.45,276.19,262.94,-93.39,-222.67,-274.47,-10.69,52.65,149.11,0,159.8,-0.21
nw_cut_3_0_ch3_opt_disp_struct_9.xyz,Nucleus 4C :,0.09086,0.294571,-1.79408,55.86,-29.54,127.57,69.56,274.72,257.99,258.71,-293.72,-131.19,-198.92,-29.54,69.56,127.57,0,157.11,0.26
nw_cut_3_0_ch3_opt_disp_struct_9.xyz,Nucleus 7C :,-2.979652,-3.190207,0.690033,43.06,143.1,-34.92,21.01,272.6,269.78,266.61,-125.89,-307.17,-246.75,-34.92,21.01,143.1,0,178.02,-0.37
nw_cut_3_0_ch3_opt_disp_struct_9.xyz,Nucleus 8C :,-3.6977,-2.708246,2.235574,49.08,168.33,0.5,-21.58,225.7,268.03,257.88,-57.69,-266.04,-280.63,-21.58,0.5,168.33,0,189.91,-0.77
nw_cut_3_0_ch3_opt_disp_struct_9.xyz,Nucleus 9C :,-2.493252,-3.996137,2.186965,55.54,158.47,50.52,-42.36,250.3,272.73,270.17,-92.41,-221.86,-312.3,-42.36,50.52,158.47,0,200.83,-0.07
nw_cut_3_0_ch3_opt_disp_struct_9.xyz,Nucleus 11C :,4.696957,-5.726964,1.788996,44.59,173.63,-60.87,21.02,235.18,263.53,276.34,-61.77,-326.32,-253.18,-60.87,21.02,173.63,0,234.5,-0.3
nw_cut_3_0_ch3_opt_disp_struct_9.xyz,Nucleus 12C :,5.633721,-5.970763,2.294606,161.13,188.69,137.98,156.73,255.29,222.93,229.69,-62.35,-75.6,-86.57,137.98,156.73,188.69,0,50.71,-0.26
nw_cut_3_0_ch3_opt_disp_struct_9.xyz,Nucleus 13C :,4.808533,-4.782619,1.248282,52.15,164.72,46.64,-54.92,229.73,258.3,276.25,-65.03,-229.39,-313.43,-54.92,46.64,164.72,0,219.64,-0.08
nw_cut_3_0_ch3_opt_disp_struct_9.xyz,Nucleus 15C :,3.580308,-5.708633,2.793327,65.28,170.38,51.81,-26.34,244.2,273.04,265.77,-74.04,-220.07,-293.06,-26.34,51.81,170.38,0,196.72,-0.21
nw_cut_3_0_ch3_opt_disp_struct_9.xyz,Nucleus 22C :,3.461228,-6.545314,3.680274,163.54,191.04,156.24,143.35,260.21,231.74,238.92,-67.64,-82.21,-90.38,143.35,156.24,191.04,0,47.69,-0.46
nw_cut_3_0_ch3_opt_disp_struct_9.xyz,Nucleus 25C :,2.679898,-4.698005,2.647499,4.27,-89.9,94.13,8.57,191.92,252.27,270.37,-97.92,-343.26,-260.56,-89.9,8.57,94.13,0,184.03,0.07
nw_cut_3_0_ch3_opt_disp_struct_9.xyz,Nucleus 5N :,2.662439,-4.1819,1.792201,118.99,57.42,169.47,130.08,300.17,336.67,330.78,-131.22,-206.49,-272.95,57.42,130.08,169.47,0,112.05,0.3
nw_cut_3_0_ch3_opt_disp_struct_9.xyz,Nucleus 27N :,1.837827,-4.781315,3.181988,144.66,44.25,244.02,145.71,297.3,327.67,341.83,-285.37,-87.5,-159.96,44.25,145.71,244.02,0,199.77,0.02
nw_cut_3_0_ch3_opt_disp_struct_9.xyz,Nucleus 26O :,4.50172,-6.52561,1.06562,-103.94,319.56,-231.15,-400.22,332.42,380.51,427.69,-13.17,-613.45,-825.82,-400.22,-231.15,319.56,0,719.78,-0.53
nw_cut_3_0_opt.xyz,Nucleus 1H :,0.982328,-0.02557,-1.311663,28.95,35.01,23.24,28.61,40.4,25.95,28.31,-6.73,1.53,-2.59,23.24,28.61,35.01,0,11.77,-0.09
nw_cut_3_0_opt.xyz,Nucleus 2H :,1.771707,0.61666,-1.710182,28.93,35.15,24.27,27.37,45.67,23.8,27.67,-11.8,1.85,-0.39,24.27,27.37,35.15,0,10.88,-0.43
nw_cut_3_0_opt.xyz,Nucleus 6H :,1.202461,-1.054038,-1.622248,23.65,15.9,24.36,30.69,48.7,14.28,29.4,-18.55,2.02,-4.89,15.9,24.36,30.69,0,14.79,0.14
nw_cut_3_0_opt.xyz,Nucleus 10H :,0.891222,0.094839,0.166432,23.43,28.4,18.99,22.89,49.08,31.12,33.16,-2.99,-13.24,-26.84,18.99,22.89,28.4,0,9.41,-0.17
nw_cut_3_0_opt.xyz,Nucleus 12H :,1.662259,0.916021,0.965548,23.65,19.97,23.97,27.02,48.2,16.86,30.59,-24.63,3.52,-3.58,19.97,23.97,27.02,0,7.05,0.14
nw_cut_3_0_opt.xyz,Nucleus 14H :,1.27183,0.742475,2.265696,23.63,19.96,26.59,24.35,7.67,34.27,43.17,12.58,-7.71,-19.07,19.96,24.35,26.59,0,6.63,0.33
nw_cut_3_0_opt.xyz,Nucleus 16H :,1.685837,1.198359,3.059861,23.65,19.16,27.8,24.0,10.63,31.58,48.11,-24.38,-3.79,8.81,19.16,24.0,27.8,0,8.64,0.12
nw_cut_3_0_opt.xyz,Nucleus 17H :,0.2526,-0.177558,2.338011,24.01,20.37,25.0,26.67,44.15,27.92,30.5,-19.19,-7.35,-3.99,20.37,25.0,26.67,0,6.3,0.47
nw_cut_3_0_opt.xyz,Nucleus 18H :,-0.010346,-0.601031,1.034764,28.9,35.84,26.79,24.06,42.43,26.13,32.14,0.14,-9.6,-4.54,24.06,26.79,35.84,0,11.78,-0.54
nw_cut_3_0_opt.xyz,Nucleus 20H :,-1.029398,-1.555115,0.833227,30.38,36.33,28.01,26.81,40.58,18.91,13.87,-4.41,8.99,13.22,26.81,28.01,36.33,0,9.52,-0.75
nw_cut_3_0_opt.xyz,Nucleus 21H :,-1.258298,-1.910092,-0.167205,30.9,25.21,32.37,35.12,22.9,36.0,39.33,-5.78,-2.59,2.84,25.21,32.37,35.12,0,9.91,0.45
nw_cut_3_0_opt.xyz,Nucleus 25H :,-1.740837,-2.049138,1.933043,27.64,46.69,14.65,21.57,57.05,21.17,25.92,9.27,-10.34,-20.17,14.65,21.57,46.69,0,32.04,-0.57
nw_cut_3_0_opt.xyz,Nucleus 26H :,-2.517534,-2.789637,1.775415,27.42,44.37,22.25,15.65,45.08,30.87,26.97,1.24,-13.6,-8.29,15.65,22.25,44.37,0,28.72,-0.54
nw_cut_3_0_opt.xyz,Nucleus 27H :,-1.45253,-1.606508,3.221457,30.21,34.95,28.47,27.2,38.49,20.11,22.53,-4.25,8.57,5.17,27.2,28.47,34.95,0,7.75,-0.67
nw_cut_3_0_opt.xyz,Nucleus 0C :,-2.007713,-2.000328,4.066833,172.79,160.59,169.48,188.3,235.22,241.22,257.55,-76.58,-72.59,-66.46,160.59,169.48,188.3,0,27.71,-0.36
nw_cut_3_0_opt.xyz,Nucleus 3C :,-0.449211,-0.660335,3.449438,63.15,149.12,51.47,-11.15,242.65,263.84,274.06,-93.7,-221.69,-275.73,-11.15,51.47,149.12,0,160.27,-0.22
nw_cut_3_0_opt.xyz,Nucleus 4C :,-0.214058,-0.328633,4.455248,54.05,-32.54,128.47,66.21,274.71,256.48,259.22,-297.04,-130.22,-201.01,-32.54,66.21,128.47,0,161.01,0.23
nw_cut_3_0_opt.xyz,Nucleus 7C :,2.451225,1.603407,0.697766,37.08,144.62,-47.14,13.76,264.08,270.97,273.02,-125.4,-319.78,-251.65,-47.14,13.76,144.62,0,191.76,-0.36
nw_cut_3_0_opt.xyz,Nucleus 8C :,0.041869,0.260419,-1.797473,47.99,173.08,-3.72,-25.38,227.99,264.73,256.29,-55.31,-267.74,-281.98,-25.38,-3.72,173.08,0,198.46,-0.78
nw_cut_3_0_opt.xyz,Nucleus 9C :,3.014083,-3.893794,1.519857,52.03,177.88,32.65,-54.43,250.34,271.63,266.28,-72.74,-237.29,-322.12,-54.43,32.65,177.88,0,232.31,-0.25
nw_cut_3_0_opt.xyz,Nucleus 11C :,3.945972,-4.173303,2.015483,51.69,178.12,-62.83,39.79,233.85,261.37,273.73,-56.59,-326.29,-230.99,-62.83,39.79,178.12,0,240.95,-0.15
nw_cut_3_0_opt.xyz,Nucleus 13C :,3.146775,-2.939546,1.001616,52.1,178.8,37.19,-59.7,278.28,224.7,253.45,-46.79,-240.85,-312.5,-59.7,37.19,178.8,0,238.5,-0.19
nw_cut_3_0_opt.xyz,Nucleus 15C :,1.900061,-3.872333,2.527038,57.7,172.97,37.5,-37.37,243.7,273.59,265.78,-71.03,-235.58,-303.36,-37.37,37.5,172.97,0,210.34,-0.29
nw_cut_3_0_opt.xyz,Nucleus 19C :,1.780103,-4.709483,3.413424,164.2,191.56,159.02,142.01,256.81,234.67,243.39,-64.3,-84.2,-93.78,142.01,159.02,191.56,0,49.55,-0.31
nw_cut_3_0_opt.xyz,Nucleus 22C :,1.003069,-2.858197,2.384538,5.07,-84.41,94.35,5.26,201.71,250.79,270.48,-107.42,-337.06,-263.29,-84.41,5.26,94.35,0,178.76,0.0
nw_cut_3_0_opt.xyz,Nucleus 5N :,0.985361,-2.358772,1.518597,114.0,48.71,169.73,123.57,300.47,335.89,328.97,-131.27,-212.12,-279.93,48.71,123.57,169.73,0,121.02,0.24
nw_cut_3_0_opt.xyz,Nucleus 24N :,0.14549,-2.963581,2.891493,133.32,4.04,230.86,165.05,293.47,327.98,347.01,-325.06,-110.97,-132.48,4.04,165.05,230.86,0,226.82,0.42
nw_cut_3_0_opt.xyz,Nucleus 23O :,2.795695,-4.668559,0.777158,-86.67,323.28,-211.49,-371.8,344.45,382.23,427.0,-21.82,-595.07,-796.79,-371.8,-211.49,323.28,0,695.08,-0.54
nw_cut_3_0_opt_disp_struct_0.xyz,Nucleus 1H :,0.982328,-0.02557,-1.311663,28.97,35.02,23.28,28.61,40.49,26.15,28.56,-6.84,1.12,-2.57,23.28,28.61,35.02,0,11.74,-0.09
nw_cut_3_0_opt_disp_struct_0.xyz,Nucleus 2H :,1.771707,0.61666,-1.710182,28.95,35.16,24.29,27.41,45.88,24.39,27.59,-11.9,1.4,-0.51,24.29,27.41,35.16,0,10.87,-0.43
nw_cut_3_0_opt_disp_struct_0.xyz,Nucleus 6H :,1.202461,-1.054038,-1.622248,23.74,15.97,24.51,30.75,49.16,14.46,29.39,-18.96,1.93,-4.76,15.97,24.51,30.75,0,14.78,0.16
nw_cut_3_0_opt_disp_struct_0.xyz,Nucleus 10H :,0.891222,0.094839,0.166432,23.5,28.3,19.05,23.16,49.5,32.13,32.94,-3.88,-13.14,-27.04,19.05,23.16,28.3,0,9.25,-0.11
nw_cut_3_0_opt_disp_struct_0.xyz,Nucleus 12H :,1.662259,0.916021,0.965548,23.77,20.02,24.29,27.0,48.37,16.82,30.77,-24.49,3.63,-3.78,20.02,24.29,27.0,0,6.98,0.22
nw_cut_3_0_opt_disp_struct_0.xyz,Nucleus 14H :,1.27183,0.742475,2.265696,23.73,20.03,26.58,24.57,7.71,33.88,43.48,12.6,-7.33,-19.16,20.03,24.57,26.58,0,6.55,0.38
nw_cut_3_0_opt_disp_struct_0.xyz,Nucleus 16H :,1.685837,1.198359,3.059861,23.75,19.23,27.68,24.33,10.83,31.34,48.34,-24.29,-3.67,8.69,19.23,24.33,27.68,0,8.45,0.21
nw_cut_3_0_opt_disp_struct_0.xyz,Nucleus 17H :,0.2526,-0.177558,2.338011,24.06,20.43,25.05,26.69,44.36,28.04,30.85,-19.33,-7.43,-4.33,20.43,25.05,26.69,0,6.26,0.47
nw_cut_3_0_opt_disp_struct_0.xyz,Nucleus 18H :,-0.010346,-0.601031,1.034764,28.91,35.82,26.81,24.09,42.47,26.38,32.22,-0.09,-9.54,-4.72,24.09,26.81,35.82,0,11.73,-0.54
nw_cut_3_0_opt_disp_struct_0.xyz,Nucleus 20H :,-1.029398,-1.555115,0.833227,30.26,36.13,27.93,26.72,40.3,18.63,13.14,-4.34,9.17,13.88,26.72,27.93,36.13,0,9.41,-0.74
nw_cut_3_0_opt_disp_struct_0.xyz,Nucleus 21H :,-1.258298,-1.910092,-0.167205,30.73,25.19,32.39,34.61,23.56,35.86,39.1,-5.87,-2.59,2.14,25.19,32.39,34.61,0,9.42,0.53
nw_cut_3_0_opt_disp_struct_0.xyz,Nucleus 25H :,-1.740837,-2.049138,1.933043,28.6,44.27,17.71,23.82,55.2,25.19,31.16,5.64,-12.49,-18.9,17.71,23.82,44.27,0,26.56,-0.54
nw_cut_3_0_opt_disp_struct_0.xyz,Nucleus 26H :,-2.517534,-2.789637,1.775415,28.41,41.75,24.65,18.84,41.61,33.27,25.88,2.19,-9.51,-8.19,18.84,24.65,41.75,0,22.91,-0.49
nw_cut_3_0_opt_disp_struct_0.xyz,Nucleus 27H :,-1.45253,-1.606508,3.221457,30.09,34.81,28.35,27.11,38.49,19.43,22.3,-4.46,9.2,5.31,27.11,28.35,34.81,0,7.7,-0.68
nw_cut_3_0_opt_disp_struct_0.xyz,Nucleus 0C :,-2.007713,-2.000328,4.066833,172.78,160.61,169.44,188.28,257.61,235.64,241.14,-76.88,-72.93,-66.24,160.61,169.44,188.28,0,27.67,-0.36
nw_cut_3_0_opt_disp_struct_0.xyz,Nucleus 3C :,-0.449211,-0.660335,3.449438,63.31,149.22,52.1,-11.4,242.68,264.09,274.81,-93.58,-222.06,-276.04,-11.4,52.1,149.22,0,160.62,-0.21
nw_cut_3_0_opt_disp_struct_0.xyz,Nucleus 4C :,-0.214058,-0.328633,4.455248,54.29,-32.29,128.38,66.78,274.78,256.92,259.2,-296.82,-130.21,-201.01,-32.29,66.78,128.38,0,160.67,0.23
nw_cut_3_0_opt_disp_struct_0.xyz,Nucleus 7C :,2.451225,1.603407,0.697766,38.84,144.58,-43.66,15.61,264.23,271.24,273.42,-125.25,-316.84,-250.27,-43.66,15.61,144.58,0,188.24,-0.37
nw_cut_3_0_opt_disp_struct_0.xyz,Nucleus 8C :,0.041869,0.260419,-1.797473,49.23,172.78,-1.33,-23.76,228.44,266.35,257.43,-55.95,-267.24,-281.32,-23.76,-1.33,172.78,0,196.54,-0.77
nw_cut_3_0_opt_disp_struct_0.xyz,Nucleus 9C :,3.181449,-4.077679,1.545839,53.98,177.91,35.27,-51.23,249.74,272.28,267.18,-72.39,-235.47,-319.4,-51.23,35.27,177.91,0,229.14,-0.24
nw_cut_3_0_opt_disp_struct_0.xyz,Nucleus 11C :,4.113337,-4.357188,2.041466,53.69,178.05,-59.66,42.69,231.98,261.72,273.56,-54.79,-323.06,-228.33,-59.66,42.69,178.05,0,237.71,-0.14
nw_cut_3_0_opt_disp_struct_0.xyz,Nucleus 13C :,3.314141,-3.123431,1.027598,53.18,178.49,39.35,-58.3,222.99,277.09,254.09,-45.24,-237.55,-311.84,-58.3,39.35,178.49,0,236.79,-0.18
nw_cut_3_0_opt_disp_struct_0.xyz,Nucleus 15C :,2.067427,-4.056218,2.553021,60.44,173.02,41.37,-33.06,242.41,273.19,266.04,-69.74,-231.37,-299.19,-33.06,41.37,173.02,0,206.08,-0.28
nw_cut_3_0_opt_disp_struct_0.xyz,Nucleus 19C :,1.947468,-4.893368,3.439407,164.07,191.48,158.43,142.29,257.18,234.91,242.75,-64.78,-84.01,-93.85,142.29,158.43,191.48,0,49.19,-0.34
nw_cut_3_0_opt_disp_struct_0.xyz,Nucleus 22C :,1.170435,-3.042082,2.410521,4.33,-86.41,94.14,5.27,200.55,251.17,270.14,-106.49,-339.29,-263.09,-86.41,5.27,94.14,0,180.55,0.02
nw_cut_3_0_opt_disp_struct_0.xyz,Nucleus 5N :,1.152727,-2.542657,1.54458,115.26,50.95,169.66,125.16,300.45,336.09,329.48,-131.51,-210.68,-278.05,50.95,125.16,169.66,0,118.71,0.25
nw_cut_3_0_opt_disp_struct_0.xyz,Nucleus 24N :,0.312855,-3.147466,2.917476,139.05,21.24,238.74,157.16,293.92,326.34,344.88,-306.74,-99.84,-141.42,21.24,157.16,238.74,0,217.5,0.25
nw_cut_3_0_opt_disp_struct_0.xyz,Nucleus 23O :,2.96306,-4.852444,0.803141,-93.67,321.29,-219.22,-383.08,342.86,381.57,426.79,-22.2,-602.06,-807.98,-383.08,-219.22,321.29,0,704.37,-0.53
nw_cut_3_0_opt_disp_struct_1.xyz,Nucleus 1H :,0.982328,-0.02557,-1.311663,28.98,35.02,23.3,28.62,40.54,26.32,28.72,-6.93,0.85,-2.57,23.3,28.62,35.02,0,11.72,-0.09
nw_cut_3_0_opt_disp_struct_1.xyz,Nucleus 2H :,1.771707,0.61666,-1.710182,28.96,35.17,24.31,27.41,46.02,24.83,27.54,-11.96,1.17,-0.7,24.31,27.41,35.17,0,10.86,-0.43
nw_cut_3_0_opt_disp_struct_1.xyz,Nucleus 6H :,1.202461,-1.054038,-1.622248,23.8,16.02,24.62,30.77,49.45,14.61,29.42,-19.23,1.84,-4.69,16.02,24.62,30.77,0,14.75,0.17
nw_cut_3_0_opt_disp_struct_1.xyz,Nucleus 10H :,0.891222,0.094839,0.166432,23.53,28.28,19.08,23.22,49.75,33.19,32.47,-4.4,-13.22,-27.2,19.08,23.22,28.28,0,9.2,-0.1
nw_cut_3_0_opt_disp_struct_1.xyz,Nucleus 12H :,1.662259,0.916021,0.965548,23.83,20.07,24.4,27.01,48.44,16.62,31.0,-24.43,3.85,-4.01,20.07,24.4,27.01,0,6.94,0.25
nw_cut_3_0_opt_disp_struct_1.xyz,Nucleus 14H :,1.27183,0.742475,2.265696,23.77,20.08,26.62,24.61,7.51,33.68,43.7,12.84,-7.1,-19.31,20.08,24.61,26.62,0,6.54,0.39
nw_cut_3_0_opt_disp_struct_1.xyz,Nucleus 16H :,1.685837,1.198359,3.059861,23.79,19.3,27.64,24.44,10.97,31.26,48.44,-24.25,-3.63,8.59,19.3,24.44,27.64,0,8.34,0.23
nw_cut_3_0_opt_disp_struct_1.xyz,Nucleus 17H :,0.2526,-0.177558,2.338011,24.09,20.47,25.08,26.72,44.5,28.15,31.05,-19.45,-7.49,-4.49,20.47,25.08,26.72,0,6.25,0.48
nw_cut_3_0_opt_disp_struct_1.xyz,Nucleus 18H :,-0.010346,-0.601031,1.034764,28.91,35.79,26.82,24.11,42.54,26.53,32.28,-0.22,-9.55,-4.84,24.11,26.82,35.79,0,11.68,-0.54
nw_cut_3_0_opt_disp_struct_1.xyz,Nucleus 20H :,-1.029398,-1.555115,0.833227,30.16,35.94,27.88,26.65,40.05,18.36,12.4,-4.29,9.38,14.58,26.65,27.88,35.94,0,9.29,-0.74
nw_cut_3_0_opt_disp_struct_1.xyz,Nucleus 21H :,-1.258298,-1.910092,-0.167205,30.61,25.23,32.35,34.24,23.91,35.62,39.08,-6.01,-2.57,1.79,25.23,32.35,34.24,0,9.01,0.58
nw_cut_3_0_opt_disp_struct_1.xyz,Nucleus 25H :,-1.740837,-2.049138,1.933043,28.89,42.21,19.44,25.01,53.79,27.52,34.34,3.21,-14.01,-18.2,19.44,25.01,42.21,0,22.77,-0.51
nw_cut_3_0_opt_disp_struct_1.xyz,Nucleus 26H :,-2.517534,-2.789637,1.775415,28.73,39.77,25.8,20.63,39.25,35.01,25.88,2.42,-6.58,-9.79,20.63,25.8,39.77,0,19.14,-0.46
nw_cut_3_0_opt_disp_struct_1.xyz,Nucleus 27H :,-1.45253,-1.606508,3.221457,30.0,34.69,28.25,27.07,38.44,18.77,22.1,9.83,5.46,-4.6,27.07,28.25,34.69,0,7.62,-0.69
nw_cut_3_0_opt_disp_struct_1.xyz,Nucleus 0C :,-2.007713,-2.000328,4.066833,172.76,160.63,169.4,188.25,257.58,235.89,241.13,-77.01,-73.19,-66.12,160.63,169.4,188.25,0,27.62,-0.36
nw_cut_3_0_opt_disp_struct_1.xyz,Nucleus 3C :,-0.449211,-0.660335,3.449438,63.35,149.25,52.44,-11.64,242.79,275.32,264.22,-93.63,-222.36,-276.31,-11.64,52.44,149.25,0,160.89,-0.2
nw_cut_3_0_opt_disp_struct_1.xyz,Nucleus 4C :,-0.214058,-0.328633,4.455248,54.58,-31.92,128.33,67.34,274.72,257.37,258.91,-296.38,-130.13,-200.74,-31.92,67.34,128.33,0,160.25,0.24
nw_cut_3_0_opt_disp_struct_1.xyz,Nucleus 7C :,2.451225,1.603407,0.697766,39.85,144.4,-41.72,16.87,264.15,271.65,273.67,-125.27,-315.24,-249.4,-41.72,16.87,144.4,0,186.12,-0.37
nw_cut_3_0_opt_disp_struct_1.xyz,Nucleus 8C :,0.041869,0.260419,-1.797473,49.8,172.49,0.0,-23.08,228.89,267.51,258.31,-56.71,-267.18,-281.41,-23.08,0.0,172.49,0,195.57,-0.76
nw_cut_3_0_opt_disp_struct_1.xyz,Nucleus 9C :,3.348815,-4.261563,1.571822,55.04,177.73,37.08,-49.7,249.19,272.86,267.98,-72.4,-234.27,-318.26,-49.7,37.08,177.73,0,227.43,-0.24
nw_cut_3_0_opt_disp_struct_1.xyz,Nucleus 11C :,4.280703,-4.541073,2.067449,54.81,177.79,-58.06,44.69,230.69,261.93,273.51,-53.66,-321.46,-226.6,-58.06,44.69,177.79,0,235.85,-0.13
nw_cut_3_0_opt_disp_struct_1.xyz,Nucleus 13C :,3.481506,-3.307316,1.053581,53.71,178.14,40.81,-57.81,221.63,276.2,254.63,-44.14,-235.26,-311.93,-57.81,40.81,178.14,0,235.95,-0.16
nw_cut_3_0_opt_disp_struct_1.xyz,Nucleus 15C :,2.234792,-4.240103,2.579004,62.22,172.87,44.32,-30.52,241.15,272.74,266.16,-68.7,-228.0,-296.68,-30.52,44.32,172.87,0,203.39,-0.26
nw_cut_3_0_opt_disp_struct_1.xyz,Nucleus 19C :,2.114834,-5.077253,3.46539,163.95,191.39,157.97,142.48,257.52,234.77,242.14,-65.18,-83.75,-93.65,142.48,157.97,191.39,0,48.91,-0.37
nw_cut_3_0_opt_disp_struct_1.xyz,Nucleus 22C :,1.3378,-3.225967,2.436503,4.04,-87.6,94.04,5.68,199.43,251.5,270.2,-105.47,-340.65,-262.9,-87.6,5.68,94.04,0,181.64,0.03
nw_cut_3_0_opt_disp_struct_1.xyz,Nucleus 5N :,1.320092,-2.726542,1.570563,116.11,52.49,169.58,126.25,300.36,336.24,329.78,-131.63,-209.71,-276.72,52.49,126.25,169.58,0,117.09,0.26
nw_cut_3_0_opt_disp_struct_1.xyz,Nucleus 24N :,0.480221,-3.331351,2.943459,141.97,31.06,242.31,152.54,293.14,324.6,343.99,-295.65,-94.21,-145.96,31.06,152.54,242.31,0,211.25,0.15
nw_cut_3_0_opt_disp_struct_1.xyz,Nucleus 23O :,3.130426,-5.036329,0.829124,-98.02,320.11,-224.02,-390.16,341.62,381.11,426.68,-22.12,-606.38,-814.98,-390.16,-224.02,320.11,0,710.27,-0.53
nw_cut_3_0_opt_disp_struct_10.xyz,Nucleus 1H :,0.982328,-0.02557,-1.311663,29.04,34.94,23.39,28.8,40.26,26.61,28.94,-6.57,0.39,-2.5,23.39,28.8,34.94,0,11.55,-0.06
nw_cut_3_0_opt_disp_struct_10.xyz,Nucleus 2H :,1.771707,0.61666,-1.710182,29.0,35.39,24.39,27.22,45.65,25.19,27.32,-11.29,1.47,-1.33,24.39,27.22,35.39,0,11.0,-0.49
nw_cut_3_0_opt_disp_struct_10.xyz,Nucleus 6H :,1.202461,-1.054038,-1.622248,23.96,16.14,24.91,30.83,49.49,14.94,29.95,-19.09,1.44,-4.86,16.14,24.91,30.83,0,14.69,0.19
nw_cut_3_0_opt_disp_struct_10.xyz,Nucleus 10H :,0.891222,0.094839,0.166432,23.52,28.57,18.99,23.0,48.76,32.63,32.31,-3.75,-13.38,-26.0,18.99,23.0,28.57,0,9.58,-0.16
nw_cut_3_0_opt_disp_struct_10.xyz,Nucleus 12H :,1.662259,0.916021,0.965548,23.88,20.06,24.28,27.29,47.76,15.78,31.04,-23.57,4.39,-3.76,20.06,24.28,27.29,0,7.23,0.17
nw_cut_3_0_opt_disp_struct_10.xyz,Nucleus 14H :,1.27183,0.742475,2.265696,23.85,20.05,27.09,24.41,6.57,33.42,44.01,13.53,-6.38,-19.59,20.05,24.41,27.09,0,7.04,0.24
nw_cut_3_0_opt_disp_struct_10.xyz,Nucleus 16H :,1.685837,1.198359,3.059861,23.92,19.38,27.93,24.45,11.46,31.79,47.49,-23.12,8.01,-3.87,19.38,24.45,27.93,0,8.55,0.19
nw_cut_3_0_opt_disp_struct_10.xyz,Nucleus 17H :,0.2526,-0.177558,2.338011,24.21,20.61,25.08,26.93,44.63,28.31,31.14,-19.54,-7.56,-4.35,20.61,25.08,26.93,0,6.32,0.41
nw_cut_3_0_opt_disp_struct_10.xyz,Nucleus 18H :,-0.010346,-0.601031,1.034764,28.93,35.64,26.91,24.24,42.55,26.38,32.11,-0.03,-9.41,-4.81,24.24,26.91,35.64,0,11.4,-0.53
nw_cut_3_0_opt_disp_struct_10.xyz,Nucleus 20H :,-1.029398,-1.555115,0.833227,29.78,35.0,27.86,26.47,38.79,16.59,6.06,-4.15,11.1,20.94,26.47,27.86,35.0,0,8.53,-0.68
nw_cut_3_0_opt_disp_struct_10.xyz,Nucleus 21H :,-1.258298,-1.910092,-0.167205,30.09,25.62,30.93,33.73,41.5,32.99,23.32,-8.86,-1.45,2.77,25.62,30.93,33.73,0,8.11,0.31
nw_cut_3_0_opt_disp_struct_10.xyz,Nucleus 25H :,-1.740837,-2.049138,1.933043,27.54,34.21,22.12,26.3,32.15,47.19,49.82,-2.48,-25.25,-18.79,22.12,26.3,34.21,0,12.09,-0.31
nw_cut_3_0_opt_disp_struct_10.xyz,Nucleus 26H :,-2.517534,-2.789637,1.775415,27.66,34.9,23.38,24.69,42.73,32.29,35.64,-1.83,-14.03,-11.83,23.38,24.69,34.9,0,11.52,-0.77
nw_cut_3_0_opt_disp_struct_10.xyz,Nucleus 27H :,-1.45253,-1.606508,3.221457,29.67,34.18,27.7,27.13,38.12,13.15,20.74,15.46,6.81,-5.27,27.13,27.7,34.18,0,7.05,-0.84
nw_cut_3_0_opt_disp_struct_10.xyz,Nucleus 0C :,-2.007713,-2.000328,4.066833,172.71,160.75,169.14,188.24,235.67,240.71,256.91,-76.36,-72.88,-65.91,160.75,169.14,188.24,0,27.49,-0.39
nw_cut_3_0_opt_disp_struct_10.xyz,Nucleus 3C :,-0.449211,-0.660335,3.449438,62.95,149.06,52.5,-12.7,241.41,273.71,263.59,-92.4,-220.71,-276.75,-12.7,52.5,149.06,0,161.76,-0.19
nw_cut_3_0_opt_disp_struct_10.xyz,Nucleus 4C :,-0.214058,-0.328633,4.455248,55.86,-30.27,128.04,69.8,273.46,258.01,258.26,-294.31,-130.16,-197.7,-30.27,69.8,128.04,0,158.31,0.26
nw_cut_3_0_opt_disp_struct_10.xyz,Nucleus 7C :,2.451225,1.603407,0.697766,41.03,143.34,-39.59,19.34,272.52,268.07,264.8,-124.19,-311.78,-246.33,-39.59,19.34,143.34,0,182.93,-0.36
nw_cut_3_0_opt_disp_struct_10.xyz,Nucleus 8C :,0.041869,0.260419,-1.797473,49.55,171.23,1.1,-23.68,228.47,266.93,259.43,-57.53,-265.56,-283.1,-23.68,1.1,171.23,0,194.91,-0.75
nw_cut_3_0_opt_disp_struct_10.xyz,Nucleus 9C :,4.855106,-5.916527,1.805669,55.41,176.42,39.31,-49.51,248.09,271.18,264.95,-71.92,-230.41,-315.67,-49.51,39.31,176.42,0,225.93,-0.21
nw_cut_3_0_opt_disp_struct_10.xyz,Nucleus 11C :,5.786994,-6.196036,2.301295,55.87,176.28,-56.75,48.08,230.02,261.54,271.27,-53.9,-319.07,-222.26,-56.75,48.08,176.28,0,233.03,-0.1
nw_cut_3_0_opt_disp_struct_10.xyz,Nucleus 13C :,4.987797,-4.962279,1.287428,53.57,176.55,42.83,-58.67,221.35,273.75,255.74,-44.85,-230.92,-314.36,-58.67,42.83,176.55,0,235.22,-0.14
nw_cut_3_0_opt_disp_struct_10.xyz,Nucleus 15C :,3.741083,-5.895066,2.812851,65.6,171.57,51.34,-26.11,240.62,271.4,263.88,-69.26,-219.82,-290.01,-26.11,51.34,171.57,0,197.68,-0.22
nw_cut_3_0_opt_disp_struct_10.xyz,Nucleus 19C :,3.621125,-6.732216,3.699237,163.41,191.08,156.2,142.96,260.9,231.19,238.4,-68.38,-81.45,-90.43,142.96,156.2,191.08,0,48.12,-0.45
nw_cut_3_0_opt_disp_struct_10.xyz,Nucleus 22C :,2.844091,-4.88093,2.67035,3.71,-90.95,94.17,7.92,191.66,252.02,270.08,-97.67,-344.01,-260.94,-90.95,7.92,94.17,0,185.12,0.07
nw_cut_3_0_opt_disp_struct_10.xyz,Nucleus 5N :,2.826383,-4.381505,1.804409,118.43,56.69,168.95,129.64,300.25,335.98,329.72,-131.65,-206.18,-272.84,56.69,129.64,168.95,0,112.26,0.3
nw_cut_3_0_opt_disp_struct_10.xyz,Nucleus 24N :,1.986512,-4.986314,3.177305,145.13,45.72,243.35,146.31,294.7,327.8,343.16,-283.25,-87.07,-159.96,45.72,146.31,243.35,0,197.63,0.02
nw_cut_3_0_opt_disp_struct_10.xyz,Nucleus 23O :,4.636717,-6.691292,1.06297,-107.79,318.96,-235.07,-407.25,330.62,380.19,427.57,-12.05,-616.97,-832.71,-407.25,-235.07,318.96,0,726.21,-0.53
nw_cut_3_0_opt_disp_struct_11.xyz,Nucleus 1H :,0.982328,-0.02557,-1.311663,29.04,34.94,23.38,28.81,40.23,26.61,28.96,-6.53,0.38,-2.51,23.38,28.81,34.94,0,11.56,-0.06
nw_cut_3_0_opt_disp_struct_11.xyz,Nucleus 2H :,1.771707,0.61666,-1.710182,29.0,35.4,24.38,27.21,45.59,25.16,27.3,-11.23,1.51,-1.34,24.38,27.21,35.4,0,11.02,-0.49
nw_cut_3_0_opt_disp_struct_11.xyz,Nucleus 6H :,1.202461,-1.054038,-1.622248,23.96,16.13,24.91,30.84,49.43,14.93,29.97,-19.0,1.43,-4.87,16.13,24.91,30.84,0,14.71,0.19
nw_cut_3_0_opt_disp_struct_11.xyz,Nucleus 10H :,0.891222,0.094839,0.166432,23.52,28.59,18.97,23.0,48.6,32.58,32.24,-3.65,-13.37,-25.83,18.97,23.0,28.59,0,9.62,-0.16
nw_cut_3_0_opt_disp_struct_11.xyz,Nucleus 12H :,1.662259,0.916021,0.965548,23.88,20.04,24.28,27.31,47.65,15.74,30.99,-23.45,4.39,-3.69,20.04,24.28,27.31,0,7.27,0.17
nw_cut_3_0_opt_disp_struct_11.xyz,Nucleus 14H :,1.27183,0.742475,2.265696,23.86,20.04,27.11,24.42,6.55,33.33,44.0,13.54,-6.28,-19.58,20.04,24.42,27.11,0,7.07,0.24
nw_cut_3_0_opt_disp_struct_11.xyz,Nucleus 16H :,1.685837,1.198359,3.059861,23.92,19.36,27.94,24.46,11.47,31.81,47.37,-22.98,7.97,-3.87,19.36,24.46,27.94,0,8.58,0.19
nw_cut_3_0_opt_disp_struct_11.xyz,Nucleus 17H :,0.2526,-0.177558,2.338011,24.21,20.61,25.08,26.94,44.61,28.3,31.13,-19.5,-7.57,-4.34,20.61,25.08,26.94,0,6.33,0.41
nw_cut_3_0_opt_disp_struct_11.xyz,Nucleus 18H :,-0.010346,-0.601031,1.034764,28.93,35.63,26.92,24.25,42.55,26.36,32.11,-0.0,-9.42,-4.79,24.25,26.92,35.63,0,11.38,-0.53
nw_cut_3_0_opt_disp_struct_11.xyz,Nucleus 20H :,-1.029398,-1.555115,0.833227,29.75,34.95,27.86,26.45,38.71,16.36,5.36,-4.15,21.64,11.33,26.45,27.86,34.95,0,8.5,-0.67
nw_cut_3_0_opt_disp_struct_11.xyz,Nucleus 21H :,-1.258298,-1.910092,-0.167205,30.07,25.66,30.81,33.74,41.8,32.78,23.1,-9.19,-1.33,3.05,25.66,30.81,33.74,0,8.08,0.27
nw_cut_3_0_opt_disp_struct_11.xyz,Nucleus 25H :,-1.740837,-2.049138,1.933043,27.46,33.89,22.19,26.31,32.2,47.75,50.27,-2.59,-26.23,-19.01,22.19,26.31,33.89,0,11.7,-0.29
nw_cut_3_0_opt_disp_struct_11.xyz,Nucleus 26H :,-2.517534,-2.789637,1.775415,27.59,34.81,23.43,24.52,43.23,32.12,36.49,-2.03,-14.67,-12.38,23.43,24.52,34.81,0,11.38,-0.81
nw_cut_3_0_opt_disp_struct_11.xyz,Nucleus 27H :,-1.45253,-1.606508,3.221457,29.65,34.16,27.65,27.14,38.11,12.55,20.57,16.06,6.98,-5.33,27.14,27.65,34.16,0,7.02,-0.85
nw_cut_3_0_opt_disp_struct_11.xyz,Nucleus 0C :,-2.007713,-2.000328,4.066833,172.71,160.76,169.12,188.25,235.62,240.69,256.88,-76.31,-72.86,-65.89,160.76,169.12,188.25,0,27.49,-0.39
nw_cut_3_0_opt_disp_struct_11.xyz,Nucleus 3C :,-0.449211,-0.660335,3.449438,62.92,149.03,52.48,-12.75,241.34,273.58,263.53,-92.35,-220.54,-276.78,-12.75,52.48,149.03,0,161.78,-0.19
nw_cut_3_0_opt_disp_struct_11.xyz,Nucleus 4C :,-0.214058,-0.328633,4.455248,55.9,-30.21,128.02,69.9,273.4,257.87,258.41,-294.25,-130.2,-197.52,-30.21,69.9,128.02,0,158.23,0.27
nw_cut_3_0_opt_disp_struct_11.xyz,Nucleus 7C :,2.451225,1.603407,0.697766,41.04,143.3,-39.57,19.39,272.33,268.06,264.66,-124.14,-311.51,-246.29,-39.57,19.39,143.3,0,182.87,-0.36
nw_cut_3_0_opt_disp_struct_11.xyz,Nucleus 8C :,0.041869,0.260419,-1.797473,49.51,171.15,1.09,-23.72,228.42,266.47,259.47,-57.53,-265.15,-283.16,-23.72,1.09,171.15,0,194.87,-0.75
nw_cut_3_0_opt_disp_struct_11.xyz,Nucleus 9C :,5.022471,-6.100411,1.831652,55.36,176.36,39.27,-49.56,248.04,270.98,264.65,-71.9,-230.3,-315.41,-49.56,39.27,176.36,0,225.92,-0.21
nw_cut_3_0_opt_disp_struct_11.xyz,Nucleus 11C :,5.95436,-6.379921,2.327278,55.86,176.21,-56.75,48.11,229.98,261.45,271.08,-53.92,-318.92,-222.11,-56.75,48.11,176.21,0,232.96,-0.1
nw_cut_3_0_opt_disp_struct_11.xyz,Nucleus 13C :,5.155163,-5.146164,1.313411,53.57,176.48,42.89,-58.67,221.31,273.52,255.75,-44.88,-230.63,-314.37,-58.67,42.89,176.48,0,235.15,-0.14
nw_cut_3_0_opt_disp_struct_11.xyz,Nucleus 15C :,3.908449,-6.078951,2.838834,65.66,171.52,51.48,-26.02,240.63,271.37,263.7,-69.33,-219.62,-289.78,-26.02,51.48,171.52,0,197.54,-0.22
nw_cut_3_0_opt_disp_struct_11.xyz,Nucleus 19C :,3.788491,-6.916101,3.725219,163.38,191.06,156.1,142.98,261.24,230.71,238.04,-68.63,-81.2,-90.0,142.98,156.1,191.06,0,48.08,-0.45
nw_cut_3_0_opt_disp_struct_11.xyz,Nucleus 22C :,3.011457,-5.064815,2.696333,3.69,-91.11,94.17,8.0,190.83,252.0,270.17,-96.86,-344.11,-260.98,-91.11,8.0,94.17,0,185.28,0.07
nw_cut_3_0_opt_disp_struct_11.xyz,Nucleus 5N :,2.993749,-4.56539,1.830392,118.52,56.85,168.92,129.8,300.21,335.94,329.65,-131.6,-205.98,-272.65,56.85,129.8,168.92,0,112.07,0.3
nw_cut_3_0_opt_disp_struct_11.xyz,Nucleus 24N :,2.153878,-5.170199,3.203288,145.22,46.05,243.23,146.38,294.83,328.16,343.44,-283.18,-86.79,-160.8,46.05,146.38,243.23,0,197.18,0.02
nw_cut_3_0_opt_disp_struct_11.xyz,Nucleus 23O :,4.804083,-6.875177,1.088953,-108.14,318.87,-235.41,-407.88,330.06,380.09,427.62,-11.57,-617.25,-833.38,-407.88,-235.41,318.87,0,726.75,-0.53
nw_cut_3_0_opt_disp_struct_12.xyz,Nucleus 1H :,0.982328,-0.02557,-1.311663,29.05,34.94,23.39,28.82,40.2,26.61,28.97,-6.49,0.38,-2.51,23.39,28.82,34.94,0,11.55,-0.06
nw_cut_3_0_opt_disp_struct_12.xyz,Nucleus 2H :,1.771707,0.61666,-1.710182,29.0,35.42,24.37,27.2,45.54,25.13,27.28,-11.17,1.55,-1.34,24.37,27.2,35.42,0,11.05,-0.49
nw_cut_3_0_opt_disp_struct_12.xyz,Nucleus 6H :,1.202461,-1.054038,-1.622248,23.97,16.13,24.93,30.85,49.36,14.93,29.99,-18.92,1.42,-4.87,16.13,24.93,30.85,0,14.72,0.2
nw_cut_3_0_opt_disp_struct_12.xyz,Nucleus 10H :,0.891222,0.094839,0.166432,23.52,28.61,18.95,23.0,48.46,32.17,32.55,-3.57,-13.37,-25.68,18.95,23.0,28.61,0,9.66,-0.16
nw_cut_3_0_opt_disp_struct_12.xyz,Nucleus 12H :,1.662259,0.916021,0.965548,23.88,20.03,24.29,27.33,47.55,15.7,30.96,-23.34,4.41,-3.64,20.03,24.29,27.33,0,7.3,0.17
nw_cut_3_0_opt_disp_struct_12.xyz,Nucleus 14H :,1.27183,0.742475,2.265696,23.86,20.02,27.13,24.42,6.52,33.24,43.99,13.54,-6.17,-19.56,20.02,24.42,27.13,0,7.11,0.24
nw_cut_3_0_opt_disp_struct_12.xyz,Nucleus 16H :,1.685837,1.198359,3.059861,23.93,19.35,27.96,24.47,11.48,31.83,47.26,-22.86,7.94,-3.88,19.35,24.47,27.96,0,8.61,0.19
nw_cut_3_0_opt_disp_struct_12.xyz,Nucleus 17H :,0.2526,-0.177558,2.338011,24.21,20.61,25.08,26.95,44.58,28.29,31.13,-19.48,-7.57,-4.32,20.61,25.08,26.95,0,6.34,0.41
nw_cut_3_0_opt_disp_struct_12.xyz,Nucleus 18H :,-0.010346,-0.601031,1.034764,28.94,35.63,26.93,24.25,42.55,26.34,32.1,0.03,-9.42,-4.78,24.25,26.93,35.63,0,11.38,-0.53
nw_cut_3_0_opt_disp_struct_12.xyz,Nucleus 20H :,-1.029398,-1.555115,0.833227,29.73,34.9,27.86,26.44,38.65,16.13,4.65,-4.15,22.35,11.57,26.44,27.86,34.9,0,8.46,-0.66
nw_cut_3_0_opt_disp_struct_12.xyz,Nucleus 21H :,-1.258298,-1.910092,-0.167205,30.05,25.68,30.71,33.75,42.1,32.59,22.87,-9.53,-1.22,3.33,25.68,30.71,33.75,0,8.07,0.25
nw_cut_3_0_opt_disp_struct_12.xyz,Nucleus 25H :,-1.740837,-2.049138,1.933043,27.39,33.62,26.31,22.24,32.24,48.13,50.89,-2.68,-27.17,-19.24,22.24,26.31,33.62,0,11.38,-0.28
nw_cut_3_0_opt_disp_struct_12.xyz,Nucleus 26H :,-2.517534,-2.789637,1.775415,27.52,34.74,23.47,24.36,43.7,31.96,37.32,-2.19,-15.38,-12.83,23.47,24.36,34.74,0,11.27,-0.84
nw_cut_3_0_opt_disp_struct_12.xyz,Nucleus 27H :,-1.45253,-1.606508,3.221457,29.63,34.14,27.61,27.15,38.12,11.95,20.39,16.68,7.16,-5.4,27.15,27.61,34.14,0,6.99,-0.87
nw_cut_3_0_opt_disp_struct_12.xyz,Nucleus 0C :,-2.007713,-2.000328,4.066833,172.71,160.77,169.11,188.26,235.59,240.69,256.84,-76.27,-72.85,-65.87,160.77,169.11,188.26,0,27.49,-0.39
nw_cut_3_0_opt_disp_struct_12.xyz,Nucleus 3C :,-0.449211,-0.660335,3.449438,62.9,149.01,52.47,-12.78,241.28,263.47,273.45,-92.31,-220.4,-276.8,-12.78,52.47,149.01,0,161.79,-0.19
nw_cut_3_0_opt_disp_struct_12.xyz,Nucleus 4C :,-0.214058,-0.328633,4.455248,55.94,-30.16,128.0,69.99,273.34,257.74,258.55,-294.21,-130.23,-197.35,-30.16,69.99,128.0,0,158.16,0.27
nw_cut_3_0_opt_disp_struct_12.xyz,Nucleus 7C :,2.451225,1.603407,0.697766,41.04,143.26,-39.56,19.42,272.18,268.07,264.52,-124.11,-311.29,-246.25,-39.56,19.42,143.26,0,182.82,-0.35
nw_cut_3_0_opt_disp_struct_12.xyz,Nucleus 8C :,0.041869,0.260419,-1.797473,49.49,171.11,1.09,-23.74,228.37,266.1,259.48,-57.5,-264.81,-283.18,-23.74,1.09,171.11,0,194.85,-0.75
nw_cut_3_0_opt_disp_struct_12.xyz,Nucleus 9C :,5.189837,-6.284296,1.857635,55.31,176.31,39.23,-49.61,247.99,270.82,264.43,-71.87,-230.22,-315.2,-49.61,39.23,176.31,0,225.92,-0.21
nw_cut_3_0_opt_disp_struct_12.xyz,Nucleus 11C :,6.121726,-6.563806,2.353261,55.85,176.15,-56.74,48.15,229.94,261.36,270.93,-53.93,-318.77,-221.98,-56.74,48.15,176.15,0,232.89,-0.1
nw_cut_3_0_opt_disp_struct_12.xyz,Nucleus 13C :,5.322529,-5.330048,1.339394,53.56,176.42,42.93,-58.68,221.27,273.33,255.75,-44.9,-230.39,-314.38,-58.68,42.93,176.42,0,235.1,-0.14
nw_cut_3_0_opt_disp_struct_12.xyz,Nucleus 15C :,4.075815,-6.262836,2.864816,65.71,171.46,51.61,-25.95,240.64,271.35,263.54,-69.39,-219.45,-289.58,-25.95,51.61,171.46,0,197.41,-0.21
nw_cut_3_0_opt_disp_struct_12.xyz,Nucleus 19C :,3.955856,-7.099986,3.751202,163.36,191.05,156.03,143.0,261.58,230.23,237.68,-68.86,-80.96,-89.6,143.0,156.03,191.05,0,48.05,-0.46
nw_cut_3_0_opt_disp_struct_12.xyz,Nucleus 22C :,3.178823,-5.248699,2.722316,3.67,-91.24,94.19,8.06,190.02,251.98,270.29,-96.04,-344.18,-261.07,-91.24,8.06,94.19,0,185.43,0.07
nw_cut_3_0_opt_disp_struct_12.xyz,Nucleus 5N :,3.161115,-4.749275,1.856375,118.59,56.96,168.88,129.92,300.17,335.91,329.57,-131.57,-205.82,-272.5,56.96,129.92,168.88,0,111.92,0.3
nw_cut_3_0_opt_disp_struct_12.xyz,Nucleus 24N :,2.321243,-5.354083,3.229271,145.29,46.33,243.11,146.43,294.76,328.43,343.79,-283.1,-86.48,-161.54,46.33,146.43,243.11,0,196.78,0.02
nw_cut_3_0_opt_disp_struct_12.xyz,Nucleus 23O :,4.971448,-7.059062,1.114936,-108.41,318.89,-235.72,-408.4,329.5,379.99,427.67,-10.98,-617.47,-833.94,-408.4,-235.72,318.89,0,727.29,-0.53
nw_cut_3_0_opt_disp_struct_13.xyz,Nucleus 1H :,0.982328,-0.02557,-1.311663,29.05,34.94,23.39,28.83,40.17,26.61,28.97,-6.46,0.38,-2.51,23.39,28.83,34.94,0,11.55,-0.06
nw_cut_3_0_opt_disp_struct_13.xyz,Nucleus 2H :,1.771707,0.61666,-1.710182,29.0,35.43,24.37,27.2,45.49,25.11,27.26,-11.12,1.6,-1.34,24.37,27.2,35.43,0,11.06,-0.49
nw_cut_3_0_opt_disp_struct_13.xyz,Nucleus 6H :,1.202461,-1.054038,-1.622248,23.98,16.13,24.94,30.86,49.29,14.93,30.0,-18.83,1.4,-4.87,16.13,24.94,30.86,0,14.73,0.2
nw_cut_3_0_opt_disp_struct_13.xyz,Nucleus 10H :,0.891222,0.094839,0.166432,23.52,28.62,18.93,23.01,48.33,32.1,32.53,-3.49,-13.38,-25.53,18.93,23.01,28.62,0,9.69,-0.16
nw_cut_3_0_opt_disp_struct_13.xyz,Nucleus 12H :,1.662259,0.916021,0.965548,23.88,20.01,24.29,27.34,47.45,15.67,30.92,-23.22,4.41,-3.59,20.01,24.29,27.34,0,7.33,0.17
nw_cut_3_0_opt_disp_struct_13.xyz,Nucleus 14H :,1.27183,0.742475,2.265696,23.86,20.01,27.14,24.42,6.5,33.16,43.98,13.55,-6.07,-19.55,20.01,24.42,27.14,0,7.13,0.24
nw_cut_3_0_opt_disp_struct_13.xyz,Nucleus 16H :,1.685837,1.198359,3.059861,23.93,19.34,27.98,24.48,11.49,31.84,47.16,-22.74,7.92,-3.87,19.34,24.48,27.98,0,8.64,0.19
nw_cut_3_0_opt_disp_struct_13.xyz,Nucleus 17H :,0.2526,-0.177558,2.338011,24.22,20.61,25.08,26.96,44.56,28.28,31.12,-19.45,-7.57,-4.3,20.61,25.08,26.96,0,6.35,0.41
nw_cut_3_0_opt_disp_struct_13.xyz,Nucleus 18H :,-0.010346,-0.601031,1.034764,28.94,35.62,26.94,24.26,42.55,26.32,32.09,0.05,-9.43,-4.75,24.26,26.94,35.62,0,11.36,-0.53
nw_cut_3_0_opt_disp_struct_13.xyz,Nucleus 20H :,-1.029398,-1.555115,0.833227,29.72,34.86,27.86,26.43,38.58,15.89,3.95,-4.15,23.06,11.82,26.43,27.86,34.86,0,8.43,-0.66
nw_cut_3_0_opt_disp_struct_13.xyz,Nucleus 21H :,-1.258298,-1.910092,-0.167205,30.03,25.7,30.62,33.76,42.4,32.41,22.64,-9.87,-1.11,3.6,25.7,30.62,33.76,0,8.06,0.22
nw_cut_3_0_opt_disp_struct_13.xyz,Nucleus 25H :,-1.740837,-2.049138,1.933043,27.33,33.39,26.31,22.28,32.27,48.41,51.63,-2.75,-28.1,-19.47,22.28,26.31,33.39,0,11.11,-0.28
nw_cut_3_0_opt_disp_struct_13.xyz,Nucleus 26H :,-2.517534,-2.789637,1.775415,27.47,34.68,23.51,24.23,44.15,31.81,38.12,-2.33,-16.14,-13.21,23.51,24.23,34.68,0,11.17,-0.87
nw_cut_3_0_opt_disp_struct_13.xyz,Nucleus 27H :,-1.45253,-1.606508,3.221457,29.62,34.12,27.58,27.15,38.13,11.35,20.22,17.29,7.34,-5.48,27.15,27.58,34.12,0,6.97,-0.88
nw_cut_3_0_opt_disp_struct_13.xyz,Nucleus 0C :,-2.007713,-2.000328,4.066833,172.71,160.78,169.09,188.26,235.55,240.68,256.8,-76.23,-72.83,-65.85,160.78,169.09,188.26,0,27.48,-0.4
nw_cut_3_0_opt_disp_struct_13.xyz,Nucleus 3C :,-0.449211,-0.660335,3.449438,62.87,148.99,52.45,-12.82,241.22,263.42,273.34,-92.27,-220.27,-276.8,-12.82,52.45,148.99,0,161.81,-0.19
nw_cut_3_0_opt_disp_struct_13.xyz,Nucleus 4C :,-0.214058,-0.328633,4.455248,55.97,-30.12,127.98,70.06,273.28,257.63,258.67,-294.18,-130.27,-197.2,-30.12,70.06,127.98,0,158.1,0.27
nw_cut_3_0_opt_disp_struct_13.xyz,Nucleus 7C :,2.451225,1.603407,0.697766,41.04,143.22,-39.55,19.45,272.05,268.08,264.38,-124.09,-311.09,-246.21,-39.55,19.45,143.22,0,182.77,-0.35
nw_cut_3_0_opt_disp_struct_13.xyz,Nucleus 8C :,0.041869,0.260419,-1.797473,49.47,171.07,1.09,-23.76,228.32,265.78,259.48,-57.48,-264.51,-283.19,-23.76,1.09,171.07,0,194.83,-0.74
nw_cut_3_0_opt_disp_struct_13.xyz,Nucleus 9C :,5.357203,-6.468181,1.883617,55.28,176.27,39.2,-49.64,247.95,270.67,264.22,-71.85,-230.15,-315.01,-49.64,39.2,176.27,0,225.91,-0.21
nw_cut_3_0_opt_disp_struct_13.xyz,Nucleus 11C :,6.289091,-6.74769,2.379244,55.85,176.1,-56.73,48.18,229.91,261.27,270.79,-53.93,-318.63,-221.87,-56.73,48.18,176.1,0,232.83,-0.1
nw_cut_3_0_opt_disp_struct_13.xyz,Nucleus 13C :,5.489894,-5.513933,1.365376,53.56,176.37,42.98,-58.68,221.23,273.14,255.75,-44.91,-230.16,-314.38,-58.68,42.98,176.37,0,235.05,-0.14
nw_cut_3_0_opt_disp_struct_13.xyz,Nucleus 15C :,4.24318,-6.44672,2.890799,65.74,171.4,51.71,-25.88,240.64,271.33,263.39,-69.44,-219.29,-289.4,-25.88,51.71,171.4,0,197.28,-0.21
nw_cut_3_0_opt_disp_struct_13.xyz,Nucleus 19C :,4.123222,-7.283871,3.777185,163.34,191.04,155.96,143.01,261.91,229.78,237.35,-69.08,-80.72,-89.23,143.01,155.96,191.04,0,48.03,-0.46
nw_cut_3_0_opt_disp_struct_13.xyz,Nucleus 22C :,3.346188,-5.432584,2.748299,3.65,-91.36,94.2,8.1,189.21,251.95,270.41,-95.22,-344.23,-261.17,-91.36,8.1,94.2,0,185.56,0.07
nw_cut_3_0_opt_disp_struct_13.xyz,Nucleus 5N :,3.32848,-4.933159,1.882358,118.64,57.05,168.85,130.03,300.13,335.88,329.49,-131.55,-205.7,-272.34,57.05,130.03,168.85,0,111.8,0.31
nw_cut_3_0_opt_disp_struct_13.xyz,Nucleus 24N :,2.488609,-5.537968,3.255254,145.34,46.55,243.01,146.45,294.53,328.67,344.22,-283.06,-86.15,-162.2,46.55,146.45,243.01,0,196.46,0.02
nw_cut_3_0_opt_disp_struct_13.xyz,Nucleus 23O :,5.138814,-7.242946,1.140919,-108.65,318.92,-236.0,-408.86,328.82,379.88,427.74,-10.27,-617.65,-834.45,-408.86,-236.0,318.92,0,727.78,-0.52
nw_cut_3_0_opt_disp_struct_14.xyz,Nucleus 1H :,0.982328,-0.02557,-1.311663,29.05,34.94,23.38,28.84,40.15,26.61,28.97,-6.43,0.38,-2.51,23.38,28.84,34.94,0,11.56,-0.05
nw_cut_3_0_opt_disp_struct_14.xyz,Nucleus 2H :,1.771707,0.61666,-1.710182,29.0,35.44,24.36,27.19,45.44,25.08,27.24,-11.07,1.64,-1.33,24.36,27.19,35.44,0,11.08,-0.49
nw_cut_3_0_opt_disp_struct_14.xyz,Nucleus 6H :,1.202461,-1.054038,-1.622248,23.98,16.12,24.95,30.87,49.22,14.93,30.01,-18.75,1.39,-4.86,16.12,24.95,30.87,0,14.75,0.2
nw_cut_3_0_opt_disp_struct_14.xyz,Nucleus 10H :,0.891222,0.094839,0.166432,23.52,28.63,18.92,23.01,48.2,32.03,32.52,-3.42,-13.38,-25.39,18.92,23.01,28.63,0,9.71,-0.16
nw_cut_3_0_opt_disp_struct_14.xyz,Nucleus 12H :,1.662259,0.916021,0.965548,23.88,20.0,24.3,27.35,47.35,15.64,30.88,-23.11,4.42,-3.54,20.0,24.3,27.35,0,7.35,0.17
nw_cut_3_0_opt_disp_struct_14.xyz,Nucleus 14H :,1.27183,0.742475,2.265696,23.86,19.99,27.16,24.43,6.48,33.07,43.97,13.55,-5.97,-19.53,19.99,24.43,27.16,0,7.17,0.24
nw_cut_3_0_opt_disp_struct_14.xyz,Nucleus 16H :,1.685837,1.198359,3.059861,23.93,19.32,27.99,24.49,11.49,31.84,47.06,-22.63,7.9,-3.86,19.32,24.49,27.99,0,8.67,0.19
nw_cut_3_0_opt_disp_struct_14.xyz,Nucleus 17H :,0.2526,-0.177558,2.338011,24.22,20.61,25.08,26.97,44.54,28.27,31.11,-19.42,-7.57,-4.28,20.61,25.08,26.97,0,6.36,0.41
nw_cut_3_0_opt_disp_struct_14.xyz,Nucleus 18H :,-0.010346,-0.601031,1.034764,28.94,35.62,26.95,24.26,42.54,26.3,32.07,0.07,-9.43,-4.73,24.26,26.95,35.62,0,11.36,-0.53
nw_cut_3_0_opt_disp_struct_14.xyz,Nucleus 20H :,-1.029398,-1.555115,0.833227,29.71,34.82,27.87,26.43,38.53,15.65,3.25,-4.15,23.78,12.07,26.43,27.87,34.82,0,8.39,-0.66
nw_cut_3_0_opt_disp_struct_14.xyz,Nucleus 21H :,-1.258298,-1.910092,-0.167205,30.01,25.72,30.54,33.76,42.69,32.24,22.41,-10.2,-1.01,3.89,25.72,30.54,33.76,0,8.04,0.2
nw_cut_3_0_opt_disp_struct_14.xyz,Nucleus 25H :,-1.740837,-2.049138,1.933043,27.27,33.19,26.31,22.32,32.29,48.63,52.43,-2.8,-29.01,-19.71,22.32,26.31,33.19,0,10.87,-0.26
nw_cut_3_0_opt_disp_struct_14.xyz,Nucleus 26H :,-2.517534,-2.789637,1.775415,27.43,34.63,23.54,24.11,31.69,44.6,38.89,-2.44,-16.92,-13.54,23.54,24.11,34.63,0,11.09,-0.9
nw_cut_3_0_opt_disp_struct_14.xyz,Nucleus 27H :,-1.45253,-1.606508,3.221457,29.6,34.11,27.54,27.16,38.15,10.75,20.04,17.91,7.52,-5.56,27.16,27.54,34.11,0,6.95,-0.89
nw_cut_3_0_opt_disp_struct_14.xyz,Nucleus 0C :,-2.007713,-2.000328,4.066833,172.71,160.79,169.08,188.27,235.52,240.68,256.77,-76.18,-72.82,-65.83,160.79,169.08,188.27,0,27.48,-0.4
nw_cut_3_0_opt_disp_struct_14.xyz,Nucleus 3C :,-0.449211,-0.660335,3.449438,62.86,148.97,52.44,-12.84,241.16,263.37,273.23,-92.24,-220.16,-276.8,-12.84,52.44,148.97,0,161.81,-0.19
nw_cut_3_0_opt_disp_struct_14.xyz,Nucleus 4C :,-0.214058,-0.328633,4.455248,56.0,-30.08,127.96,70.13,273.22,257.52,258.77,-294.15,-130.29,-197.06,-30.08,70.13,127.96,0,158.04,0.27
nw_cut_3_0_opt_disp_struct_14.xyz,Nucleus 7C :,2.451225,1.603407,0.697766,41.04,143.19,-39.54,19.47,271.94,268.08,264.26,-124.09,-310.9,-246.17,-39.54,19.47,143.19,0,182.73,-0.35
nw_cut_3_0_opt_disp_struct_14.xyz,Nucleus 8C :,0.041869,0.260419,-1.797473,49.45,171.04,1.09,-23.77,228.27,265.5,259.48,-57.45,-264.25,-283.19,-23.77,1.09,171.04,0,194.81,-0.74
nw_cut_3_0_opt_disp_struct_14.xyz,Nucleus 9C :,5.524568,-6.652066,1.9096,55.24,176.23,39.17,-49.68,247.91,270.53,264.03,-71.84,-230.09,-314.83,-49.68,39.17,176.23,0,225.91,-0.21
nw_cut_3_0_opt_disp_struct_14.xyz,Nucleus 11C :,6.456457,-6.931575,2.405227,55.85,176.05,-56.71,48.2,229.88,261.18,270.66,-53.94,-318.49,-221.76,-56.71,48.2,176.05,0,232.76,-0.1
nw_cut_3_0_opt_disp_struct_14.xyz,Nucleus 13C :,5.65726,-5.697818,1.391359,53.56,176.32,43.02,-58.67,221.19,272.98,255.74,-44.92,-229.95,-314.37,-58.67,43.02,176.32,0,234.99,-0.13
nw_cut_3_0_opt_disp_struct_14.xyz,Nucleus 15C :,4.410546,-6.630605,2.916782,65.78,171.36,51.81,-25.83,240.64,271.3,263.25,-69.49,-219.14,-289.24,-25.83,51.81,171.36,0,197.19,-0.21
nw_cut_3_0_opt_disp_struct_14.xyz,Nucleus 19C :,4.290588,-7.467755,3.803168,163.31,191.03,155.89,143.02,262.24,229.32,237.03,-69.28,-80.48,-88.87,143.02,155.89,191.03,0,48.01,-0.46
nw_cut_3_0_opt_disp_struct_14.xyz,Nucleus 22C :,3.513554,-5.616469,2.774281,3.63,-91.46,94.22,8.14,188.38,251.91,270.55,-94.4,-344.26,-261.29,-91.46,8.14,94.22,0,185.68,0.07
nw_cut_3_0_opt_disp_struct_14.xyz,Nucleus 5N :,3.495846,-5.117044,1.908341,118.69,57.13,168.82,130.11,300.1,335.86,329.41,-131.53,-205.59,-272.18,57.13,130.11,168.82,0,111.69,0.31
nw_cut_3_0_opt_disp_struct_14.xyz,Nucleus 24N :,2.655975,-5.721853,3.281237,145.39,46.77,242.92,146.49,294.34,328.9,344.72,-283.04,-85.82,-162.91,46.77,146.49,242.92,0,196.15,0.02
nw_cut_3_0_opt_disp_struct_14.xyz,Nucleus 23O :,5.30618,-7.426831,1.166902,-108.85,318.95,-236.24,-409.26,328.17,379.78,427.81,-9.59,-617.8,-834.93,-409.26,-236.24,318.95,0,728.21,-0.52
nw_cut_3_0_opt_disp_struct_15.xyz,Nucleus 1H :,0.982328,-0.02557,-1.311663,29.06,34.94,23.38,28.85,40.13,26.61,28.96,-6.4,0.39,-2.51,23.38,28.85,34.94,0,11.56,-0.05
nw_cut_3_0_opt_disp_struct_15.xyz,Nucleus 2H :,1.771707,0.61666,-1.710182,29.0,35.45,24.35,27.19,45.39,25.04,27.22,-11.03,1.68,-1.32,24.35,27.19,35.45,0,11.1,-0.49
nw_cut_3_0_opt_disp_struct_15.xyz,Nucleus 6H :,1.202461,-1.054038,-1.622248,23.98,16.11,24.96,30.87,49.16,14.93,30.01,-18.67,1.38,-4.86,16.11,24.96,30.87,0,14.76,0.2
nw_cut_3_0_opt_disp_struct_15.xyz,Nucleus 10H :,0.891222,0.094839,0.166432,23.52,28.64,18.9,23.02,48.09,31.97,32.5,-3.35,-13.39,-25.26,18.9,23.02,28.64,0,9.74,-0.15
nw_cut_3_0_opt_disp_struct_15.xyz,Nucleus 12H :,1.662259,0.916021,0.965548,23.88,19.98,24.3,27.36,47.26,15.62,30.84,-23.01,4.43,-3.5,19.98,24.3,27.36,0,7.38,0.17
nw_cut_3_0_opt_disp_struct_15.xyz,Nucleus 14H :,1.27183,0.742475,2.265696,23.86,19.98,27.17,24.43,6.46,32.99,43.96,13.55,-5.87,-19.51,19.98,24.43,27.17,0,7.19,0.24
nw_cut_3_0_opt_disp_struct_15.xyz,Nucleus 16H :,1.685837,1.198359,3.059861,23.94,19.32,28.0,24.5,11.49,31.84,46.96,-22.52,7.88,-3.85,19.32,24.5,28.0,0,8.68,0.19
nw_cut_3_0_opt_disp_struct_15.xyz,Nucleus 17H :,0.2526,-0.177558,2.338011,24.22,20.6,25.08,26.98,44.52,28.27,31.09,-19.39,-7.57,-4.25,20.6,25.08,26.98,0,6.38,0.4
nw_cut_3_0_opt_disp_struct_15.xyz,Nucleus 18H :,-0.010346,-0.601031,1.034764,28.94,35.61,26.95,24.26,42.54,26.28,32.05,0.1,-9.43,-4.71,24.26,26.95,35.61,0,11.35,-0.53
nw_cut_3_0_opt_disp_struct_15.xyz,Nucleus 20H :,-1.029398,-1.555115,0.833227,29.69,34.79,27.87,26.42,38.48,15.4,2.54,-4.15,24.49,12.32,26.42,27.87,34.79,0,8.37,-0.65
nw_cut_3_0_opt_disp_struct_15.xyz,Nucleus 21H :,-1.258298,-1.910092,-0.167205,29.99,25.73,30.46,33.77,42.98,32.08,22.16,-10.52,-0.91,4.18,25.73,30.46,33.77,0,8.04,0.18
nw_cut_3_0_opt_disp_struct_15.xyz,Nucleus 25H :,-1.740837,-2.049138,1.933043,27.23,33.02,26.31,22.35,32.3,48.83,53.27,-2.84,-29.91,-19.96,22.35,26.31,33.02,0,10.67,-0.26
nw_cut_3_0_opt_disp_struct_15.xyz,Nucleus 26H :,-2.517534,-2.789637,1.775415,27.39,34.59,23.55,24.02,31.58,45.05,39.61,-2.53,-17.71,-13.83,23.55,24.02,34.59,0,11.04,-0.92
nw_cut_3_0_opt_disp_struct_15.xyz,Nucleus 27H :,-1.45253,-1.606508,3.221457,29.59,34.09,27.51,27.17,38.18,10.15,19.86,18.53,7.7,-5.64,27.17,27.51,34.09,0,6.92,-0.9
nw_cut_3_0_opt_disp_struct_15.xyz,Nucleus 0C :,-2.007713,-2.000328,4.066833,172.71,160.79,169.07,188.28,235.5,240.68,256.73,-76.14,-72.82,-65.81,160.79,169.07,188.28,0,27.49,-0.4
nw_cut_3_0_opt_disp_struct_15.xyz,Nucleus 3C :,-0.449211,-0.660335,3.449438,62.84,148.96,52.43,-12.86,241.12,263.32,273.13,-92.21,-220.06,-276.78,-12.86,52.43,148.96,0,161.82,-0.19
nw_cut_3_0_opt_disp_struct_15.xyz,Nucleus 4C :,-0.214058,-0.328633,4.455248,56.03,-30.05,127.94,70.19,273.16,257.43,258.84,-294.12,-130.32,-196.93,-30.05,70.19,127.94,0,157.99,0.27
nw_cut_3_0_opt_disp_struct_15.xyz,Nucleus 7C :,2.451225,1.603407,0.697766,41.04,143.16,-39.53,19.49,271.84,268.08,264.15,-124.09,-310.74,-246.12,-39.53,19.49,143.16,0,182.69,-0.35
nw_cut_3_0_opt_disp_struct_15.xyz,Nucleus 8C :,0.041869,0.260419,-1.797473,49.45,171.02,1.1,-23.78,228.22,265.28,259.46,-57.41,-264.04,-283.17,-23.78,1.1,171.02,0,194.8,-0.74
nw_cut_3_0_opt_disp_struct_15.xyz,Nucleus 9C :,5.691934,-6.835951,1.935583,55.21,176.2,39.14,-49.7,247.88,270.42,263.88,-71.83,-230.04,-314.67,-49.7,39.14,176.2,0,225.9,-0.21
nw_cut_3_0_opt_disp_struct_15.xyz,Nucleus 11C :,6.623823,-7.11546,2.431209,55.84,176.01,-56.7,48.22,229.85,261.1,270.56,-53.94,-318.36,-221.67,-56.7,48.22,176.01,0,232.71,-0.1
nw_cut_3_0_opt_disp_struct_15.xyz,Nucleus 13C :,5.824626,-5.881703,1.417342,53.56,176.28,43.06,-58.67,221.16,272.82,255.74,-44.93,-229.76,-314.36,-58.67,43.06,176.28,0,234.95,-0.13
nw_cut_3_0_opt_disp_struct_15.xyz,Nucleus 15C :,4.577912,-6.81449,2.942765,65.8,171.31,51.88,-25.78,240.65,271.27,263.12,-69.53,-219.01,-289.09,-25.78,51.88,171.31,0,197.09,-0.21
nw_cut_3_0_opt_disp_struct_15.xyz,Nucleus 19C :,4.457953,-7.65164,3.829151,163.3,191.03,155.84,143.03,262.57,228.85,236.71,-69.47,-80.24,-88.52,143.03,155.84,191.03,0,48.0,-0.47
nw_cut_3_0_opt_disp_struct_15.xyz,Nucleus 22C :,3.68092,-5.800354,2.800264,3.62,-91.55,94.23,8.18,187.54,251.87,270.71,-93.57,-344.28,-261.42,-91.55,8.18,94.23,0,185.78,0.07
nw_cut_3_0_opt_disp_struct_15.xyz,Nucleus 5N :,3.663212,-5.300929,1.934324,118.72,57.2,168.78,130.19,300.06,335.85,329.32,-131.53,-205.51,-272.03,57.2,130.19,168.78,0,111.58,0.31
nw_cut_3_0_opt_disp_struct_15.xyz,Nucleus 24N :,2.823341,-5.905738,3.30722,145.45,46.98,242.84,146.52,294.1,329.12,345.28,-283.02,-85.5,-163.65,46.98,146.52,242.84,0,195.86,0.02
nw_cut_3_0_opt_disp_struct_15.xyz,Nucleus 23O :,5.473545,-7.610716,1.192885,-109.07,318.93,-236.48,-409.67,327.53,379.67,427.89,-8.97,-617.93,-835.4,-409.67,-236.48,318.93,0,728.6,-0.52
nw_cut_3_0_opt_disp_struct_16.xyz,Nucleus 1H :,0.982328,-0.02557,-1.311663,29.06,34.95,23.38,28.86,40.11,26.6,28.95,-6.37,0.41,-2.5,23.38,28.86,34.95,0,11.57,-0.05
nw_cut_3_0_opt_disp_struct_16.xyz,Nucleus 2H :,1.771707,0.61666,-1.710182,28.99,35.46,24.34,27.18,45.33,25.01,27.21,-10.99,1.71,-1.3,24.34,27.18,35.46,0,11.12,-0.49
nw_cut_3_0_opt_disp_struct_16.xyz,Nucleus 6H :,1.202461,-1.054038,-1.622248,23.99,16.11,24.97,30.88,49.09,14.93,30.01,-18.59,1.37,-4.85,16.11,24.97,30.88,0,14.77,0.2
nw_cut_3_0_opt_disp_struct_16.xyz,Nucleus 10H :,0.891222,0.094839,0.166432,23.52,28.65,18.88,23.02,47.98,31.92,32.49,-3.3,-13.39,-25.15,18.88,23.02,28.65,0,9.77,-0.15
nw_cut_3_0_opt_disp_struct_16.xyz,Nucleus 12H :,1.662259,0.916021,0.965548,23.88,19.97,24.31,27.37,47.18,15.59,30.81,-22.91,4.44,-3.46,19.97,24.31,27.37,0,7.4,0.17
nw_cut_3_0_opt_disp_struct_16.xyz,Nucleus 14H :,1.27183,0.742475,2.265696,23.86,19.97,27.19,24.43,6.45,32.91,43.95,13.56,-5.78,-19.5,19.97,24.43,27.19,0,7.22,0.24
nw_cut_3_0_opt_disp_struct_16.xyz,Nucleus 16H :,1.685837,1.198359,3.059861,23.94,19.3,28.01,24.5,11.49,31.84,46.87,-22.42,7.87,-3.83,19.3,24.5,28.01,0,8.71,0.19
nw_cut_3_0_opt_disp_struct_16.xyz,Nucleus 17H :,0.2526,-0.177558,2.338011,24.22,20.6,25.08,26.99,44.5,28.26,31.07,-19.37,-7.57,-4.22,20.6,25.08,26.99,0,6.39,0.4
nw_cut_3_0_opt_disp_struct_16.xyz,Nucleus 18H :,-0.010346,-0.601031,1.034764,28.95,35.61,26.96,24.27,42.54,26.26,32.03,0.12,-9.43,-4.68,24.27,26.96,35.61,0,11.34,-0.53
nw_cut_3_0_opt_disp_struct_16.xyz,Nucleus 20H :,-1.029398,-1.555115,0.833227,29.68,34.76,27.87,26.41,38.43,15.15,1.83,-4.16,25.21,12.58,26.41,27.87,34.76,0,8.35,-0.65
nw_cut_3_0_opt_disp_struct_16.xyz,Nucleus 21H :,-1.258298,-1.910092,-0.167205,29.97,25.74,30.4,33.78,43.27,31.93,21.91,-10.85,-0.81,4.47,25.74,30.4,33.78,0,8.04,0.16
nw_cut_3_0_opt_disp_struct_16.xyz,Nucleus 25H :,-1.740837,-2.049138,1.933043,27.19,32.87,26.31,22.38,32.31,54.11,49.02,-2.88,-30.81,-20.2,22.38,26.31,32.87,0,10.49,-0.25
nw_cut_3_0_opt_disp_struct_16.xyz,Nucleus 26H :,-2.517534,-2.789637,1.775415,27.35,34.56,23.56,23.94,31.49,45.51,40.28,-2.61,-18.51,-14.11,23.56,23.94,34.56,0,11.0,-0.93
nw_cut_3_0_opt_disp_struct_16.xyz,Nucleus 27H :,-1.45253,-1.606508,3.221457,29.58,34.08,27.49,27.17,38.22,9.54,19.68,19.15,7.89,-5.73,27.17,27.49,34.08,0,6.91,-0.91
nw_cut_3_0_opt_disp_struct_16.xyz,Nucleus 0C :,-2.007713,-2.000328,4.066833,172.72,160.8,169.06,188.29,235.47,240.68,256.69,-76.09,-72.81,-65.79,160.8,169.06,188.29,0,27.49,-0.4
nw_cut_3_0_opt_disp_struct_16.xyz,Nucleus 3C :,-0.449211,-0.660335,3.449438,62.83,148.94,52.42,-12.88,241.08,263.28,273.03,-92.19,-219.98,-276.76,-12.88,52.42,148.94,0,161.82,-0.19
nw_cut_3_0_opt_disp_struct_16.xyz,Nucleus 4C :,-0.214058,-0.328633,4.455248,56.04,-30.03,127.92,70.24,273.11,257.36,258.89,-294.09,-130.33,-196.81,-30.03,70.24,127.92,0,157.95,0.27
nw_cut_3_0_opt_disp_struct_16.xyz,Nucleus 7C :,2.451225,1.603407,0.697766,41.04,143.13,-39.52,19.51,271.76,268.07,264.06,-124.1,-310.6,-246.07,-39.52,19.51,143.13,0,182.65,-0.35
nw_cut_3_0_opt_disp_struct_16.xyz,Nucleus 8C :,0.041869,0.260419,-1.797473,49.43,170.99,1.1,-23.79,228.18,265.11,259.43,-57.39,-263.87,-283.14,-23.79,1.1,170.99,0,194.78,-0.74
nw_cut_3_0_opt_disp_struct_16.xyz,Nucleus 9C :,5.8593,-7.019835,1.961566,55.19,176.17,39.12,-49.73,247.86,270.32,263.75,-71.82,-230.0,-314.53,-49.73,39.12,176.17,0,225.9,-0.21
nw_cut_3_0_opt_disp_struct_16.xyz,Nucleus 11C :,6.791188,-7.299345,2.457192,55.84,175.98,-56.69,48.24,229.82,261.02,270.46,-53.94,-318.24,-221.59,-56.69,48.24,175.98,0,232.67,-0.1
nw_cut_3_0_opt_disp_struct_16.xyz,Nucleus 13C :,5.991991,-6.065588,1.443325,53.56,176.24,43.1,-58.66,221.13,272.69,255.73,-44.93,-229.58,-314.35,-58.66,43.1,176.24,0,234.9,-0.13
nw_cut_3_0_opt_disp_struct_16.xyz,Nucleus 15C :,4.745277,-6.998375,2.968748,65.83,171.28,51.95,-25.75,240.64,271.24,263.0,-69.56,-218.89,-288.95,-25.75,51.95,171.28,0,197.03,-0.21
nw_cut_3_0_opt_disp_struct_16.xyz,Nucleus 19C :,4.625319,-7.835525,3.855134,163.28,191.02,155.79,143.04,262.89,228.39,236.41,-69.65,-80.01,-88.19,143.04,155.79,191.02,0,47.98,-0.47
nw_cut_3_0_opt_disp_struct_16.xyz,Nucleus 22C :,3.848285,-5.984239,2.826247,3.61,-91.63,94.24,8.21,186.71,251.82,270.87,-92.73,-344.28,-261.56,-91.63,8.21,94.24,0,185.87,0.07
nw_cut_3_0_opt_disp_struct_16.xyz,Nucleus 5N :,3.830577,-5.484814,1.960306,118.75,57.26,168.75,130.25,300.03,335.83,329.24,-131.52,-205.43,-271.89,57.26,130.25,168.75,0,111.49,0.31
nw_cut_3_0_opt_disp_struct_16.xyz,Nucleus 24N :,2.990706,-6.089623,3.333202,145.5,47.16,242.77,146.56,293.81,329.32,345.87,-283.02,-85.16,-164.33,47.16,146.56,242.77,0,195.61,0.02
nw_cut_3_0_opt_disp_struct_16.xyz,Nucleus 23O :,5.640911,-7.794601,1.218868,-109.23,318.95,-236.67,-409.98,326.84,379.55,427.97,-8.26,-618.01,-835.79,-409.98,-236.67,318.95,0,728.93,-0.52
nw_cut_3_0_opt_disp_struct_17.xyz,Nucleus 1H :,0.982328,-0.02557,-1.311663,29.07,34.95,23.38,28.87,40.09,26.6,28.93,-6.35,0.42,-2.5,23.38,28.87,34.95,0,11.57,-0.05
nw_cut_3_0_opt_disp_struct_17.xyz,Nucleus 2H :,1.771707,0.61666,-1.710182,28.99,35.47,24.33,27.18,45.28,24.98,27.19,-10.95,1.75,-1.28,24.33,27.18,35.47,0,11.14,-0.49
nw_cut_3_0_opt_disp_struct_17.xyz,Nucleus 6H :,1.202461,-1.054038,-1.622248,23.98,16.1,24.97,30.88,49.02,14.93,30.01,-18.51,1.36,-4.84,16.1,24.97,30.88,0,14.78,0.2
nw_cut_3_0_opt_disp_struct_17.xyz,Nucleus 10H :,0.891222,0.094839,0.166432,23.52,28.66,18.87,23.02,47.88,31.88,32.48,-3.25,-13.4,-25.04,18.87,23.02,28.66,0,9.79,-0.15
nw_cut_3_0_opt_disp_struct_17.xyz,Nucleus 12H :,1.662259,0.916021,0.965548,23.88,19.96,24.31,27.38,47.09,15.57,30.78,-22.82,4.45,-3.42,19.96,24.31,27.38,0,7.42,0.17
nw_cut_3_0_opt_disp_struct_17.xyz,Nucleus 14H :,1.27183,0.742475,2.265696,23.87,19.96,27.2,24.44,6.43,32.82,43.94,13.56,-5.69,-19.48,19.96,24.44,27.2,0,7.24,0.24
nw_cut_3_0_opt_disp_struct_17.xyz,Nucleus 16H :,1.685837,1.198359,3.059861,23.94,19.3,28.02,24.51,11.49,31.83,46.78,-22.33,7.86,-3.81,19.3,24.51,28.02,0,8.72,0.2
nw_cut_3_0_opt_disp_struct_17.xyz,Nucleus 17H :,0.2526,-0.177558,2.338011,24.22,20.6,25.08,26.99,44.48,28.26,31.04,-19.35,-7.57,-4.19,20.6,25.08,26.99,0,6.39,0.4
nw_cut_3_0_opt_disp_struct_17.xyz,Nucleus 18H :,-0.010346,-0.601031,1.034764,28.94,35.6,26.96,24.27,42.53,26.24,32.01,0.14,-9.43,-4.65,24.27,26.96,35.6,0,11.33,-0.52
nw_cut_3_0_opt_disp_struct_17.xyz,Nucleus 20H :,-1.029398,-1.555115,0.833227,29.67,34.73,27.87,26.41,38.4,14.89,1.12,-4.17,25.93,12.83,26.41,27.87,34.73,0,8.32,-0.65
nw_cut_3_0_opt_disp_struct_17.xyz,Nucleus 21H :,-1.258298,-1.910092,-0.167205,29.96,25.76,30.34,33.78,43.57,31.79,21.67,-11.17,-0.72,4.76,25.76,30.34,33.78,0,8.02,0.14
nw_cut_3_0_opt_disp_struct_17.xyz,Nucleus 25H :,-1.740837,-2.049138,1.933043,27.16,32.75,26.31,22.41,32.32,54.97,49.22,-2.9,-31.69,-20.44,22.41,26.31,32.75,0,10.34,-0.25
nw_cut_3_0_opt_disp_struct_17.xyz,Nucleus 26H :,-2.517534,-2.789637,1.775415,27.32,34.53,23.55,23.89,31.41,45.99,40.92,-2.67,-19.3,-14.37,23.55,23.89,34.53,0,10.98,-0.94
nw_cut_3_0_opt_disp_struct_17.xyz,Nucleus 27H :,-1.45253,-1.606508,3.221457,29.57,34.07,27.47,27.17,38.26,8.93,19.49,19.77,8.08,-5.82,27.17,27.47,34.07,0,6.9,-0.91
nw_cut_3_0_opt_disp_struct_17.xyz,Nucleus 0C :,-2.007713,-2.000328,4.066833,172.72,160.81,169.04,188.3,235.44,240.69,256.65,-76.05,-72.81,-65.77,160.81,169.04,188.3,0,27.49,-0.4
nw_cut_3_0_opt_disp_struct_17.xyz,Nucleus 3C :,-0.449211,-0.660335,3.449438,62.81,148.92,52.41,-12.9,241.05,263.25,272.94,-92.17,-219.9,-276.74,-12.9,52.41,148.92,0,161.82,-0.19
nw_cut_3_0_opt_disp_struct_17.xyz,Nucleus 4C :,-0.214058,-0.328633,4.455248,56.06,-30.01,127.91,70.28,273.06,257.3,258.93,-294.07,-130.34,-196.7,-30.01,70.28,127.91,0,157.92,0.27
nw_cut_3_0_opt_disp_struct_17.xyz,Nucleus 7C :,2.451225,1.603407,0.697766,41.04,143.11,-39.51,19.52,271.69,268.06,263.98,-124.1,-310.48,-246.02,-39.51,19.52,143.11,0,182.62,-0.35
nw_cut_3_0_opt_disp_struct_17.xyz,Nucleus 8C :,0.041869,0.260419,-1.797473,49.43,170.97,1.1,-23.79,228.14,264.96,259.39,-57.38,-263.73,-283.1,-23.79,1.1,170.97,0,194.76,-0.74
nw_cut_3_0_opt_disp_struct_17.xyz,Nucleus 9C :,6.026665,-7.20372,1.987549,55.17,176.15,39.1,-49.75,247.84,270.23,263.64,-71.82,-229.97,-314.41,-49.75,39.1,176.15,0,225.9,-0.21
nw_cut_3_0_opt_disp_struct_17.xyz,Nucleus 11C :,6.958554,-7.48323,2.483175,55.84,175.95,-56.68,48.26,229.8,260.94,270.38,-53.94,-318.13,-221.52,-56.68,48.26,175.95,0,232.63,-0.1
nw_cut_3_0_opt_disp_struct_17.xyz,Nucleus 13C :,6.159357,-6.249472,1.469308,53.56,176.21,43.14,-58.66,221.1,272.56,255.72,-44.93,-229.42,-314.33,-58.66,43.14,176.21,0,234.87,-0.13
nw_cut_3_0_opt_disp_struct_17.xyz,Nucleus 15C :,4.912643,-7.18226,2.994731,65.85,171.25,52.01,-25.71,240.64,271.2,262.89,-69.58,-218.77,-288.83,-25.71,52.01,171.25,0,196.96,-0.21
nw_cut_3_0_opt_disp_struct_17.xyz,Nucleus 19C :,4.792685,-8.01941,3.881117,163.27,191.01,155.74,143.05,263.21,227.94,236.12,-69.81,-79.78,-87.88,143.05,155.74,191.01,0,47.96,-0.47
nw_cut_3_0_opt_disp_struct_17.xyz,Nucleus 22C :,4.015651,-6.168123,2.85223,3.59,-91.7,94.25,8.23,185.87,251.76,271.03,-91.9,-344.27,-261.71,-91.7,8.23,94.25,0,185.95,0.07
nw_cut_3_0_opt_disp_struct_17.xyz,Nucleus 5N :,3.997943,-5.668699,1.986289,118.78,57.31,168.73,130.31,300.01,335.81,329.16,-131.51,-205.36,-271.75,57.31,130.31,168.73,0,111.42,0.31
nw_cut_3_0_opt_disp_struct_17.xyz,Nucleus 24N :,3.158072,-6.273507,3.359185,145.53,47.3,242.7,146.58,293.44,329.51,346.5,-283.06,-84.82,-164.98,47.3,146.58,242.7,0,195.4,0.02
nw_cut_3_0_opt_disp_struct_17.xyz,Nucleus 23O :,5.808277,-7.978486,1.244851,-109.37,318.97,-236.84,-410.25,326.06,379.44,428.07,-7.47,-618.07,-836.15,-410.25,-236.84,318.97,0,729.22,-0.52
nw_cut_3_0_opt_disp_struct_18.xyz,Nucleus 1H :,0.982328,-0.02557,-1.311663,29.07,34.95,23.38,28.87,40.07,26.6,28.9,-6.33,0.44,-2.49,23.38,28.87,34.95,0,11.57,-0.05
nw_cut_3_0_opt_disp_struct_18.xyz,Nucleus 2H :,1.771707,0.61666,-1.710182,28.99,35.47,24.32,27.18,45.24,24.95,27.17,-10.91,1.79,-1.25,24.32,27.18,35.47,0,11.15,-0.49
nw_cut_3_0_opt_disp_struct_18.xyz,Nucleus 6H :,1.202461,-1.054038,-1.622248,23.99,16.1,24.98,30.89,48.95,14.92,30.0,-18.44,1.35,-4.83,16.1,24.98,30.89,0,14.79,0.2
nw_cut_3_0_opt_disp_struct_18.xyz,Nucleus 10H :,0.891222,0.094839,0.166432,23.52,28.67,18.86,23.03,47.78,31.83,32.47,-3.2,-13.4,-24.93,18.86,23.03,28.67,0,9.81,-0.15
nw_cut_3_0_opt_disp_struct_18.xyz,Nucleus 12H :,1.662259,0.916021,0.965548,23.88,19.95,24.32,27.38,47.01,15.55,30.74,-22.73,4.45,-3.38,19.95,24.32,27.38,0,7.43,0.18
nw_cut_3_0_opt_disp_struct_18.xyz,Nucleus 14H :,1.27183,0.742475,2.265696,23.87,19.95,27.21,24.44,6.42,32.74,43.93,13.57,-5.6,-19.46,19.95,24.44,27.21,0,7.26,0.24
nw_cut_3_0_opt_disp_struct_18.xyz,Nucleus 16H :,1.685837,1.198359,3.059861,23.94,19.29,28.03,24.51,11.49,31.81,46.7,-22.23,7.85,-3.79,19.29,24.51,28.03,0,8.74,0.2
nw_cut_3_0_opt_disp_struct_18.xyz,Nucleus 17H :,0.2526,-0.177558,2.338011,24.23,20.6,25.09,27.0,44.46,28.25,31.02,-19.32,-7.57,-4.16,20.6,25.09,27.0,0,6.4,0.4
nw_cut_3_0_opt_disp_struct_18.xyz,Nucleus 18H :,-0.010346,-0.601031,1.034764,28.95,35.6,26.97,24.27,42.53,26.22,31.99,0.16,-9.43,-4.62,24.27,26.97,35.6,0,11.33,-0.52
nw_cut_3_0_opt_disp_struct_18.xyz,Nucleus 20H :,-1.029398,-1.555115,0.833227,29.66,34.71,27.88,26.4,38.36,14.64,0.4,-4.18,26.66,13.09,26.4,27.88,34.71,0,8.31,-0.64
nw_cut_3_0_opt_disp_struct_18.xyz,Nucleus 21H :,-1.258298,-1.910092,-0.167205,29.95,25.77,30.28,33.79,43.86,31.66,21.41,-11.5,-0.64,5.05,25.77,30.28,33.79,0,8.02,0.12
nw_cut_3_0_opt_disp_struct_18.xyz,Nucleus 25H :,-1.740837,-2.049138,1.933043,27.12,32.63,26.31,22.43,32.32,55.82,49.42,-2.92,-32.57,-20.69,22.43,26.31,32.63,0,10.2,-0.24
nw_cut_3_0_opt_disp_struct_18.xyz,Nucleus 26H :,-2.517534,-2.789637,1.775415,27.3,34.51,23.86,23.53,31.35,46.49,41.5,-2.73,-20.1,-14.61,23.53,23.86,34.51,0,10.98,-0.94
nw_cut_3_0_opt_disp_struct_18.xyz,Nucleus 27H :,-1.45253,-1.606508,3.221457,29.56,34.07,27.44,27.18,38.3,8.33,19.31,20.39,8.27,-5.92,27.18,27.44,34.07,0,6.89,-0.92
nw_cut_3_0_opt_disp_struct_18.xyz,Nucleus 0C :,-2.007713,-2.000328,4.066833,172.72,160.82,169.04,188.3,235.41,240.69,256.61,-76.0,-72.81,-65.75,160.82,169.04,188.3,0,27.48,-0.4
nw_cut_3_0_opt_disp_struct_18.xyz,Nucleus 3C :,-0.449211,-0.660335,3.449438,62.8,148.91,52.4,-12.91,241.03,263.21,272.85,-92.16,-219.82,-276.72,-12.91,52.4,148.91,0,161.82,-0.19
nw_cut_3_0_opt_disp_struct_18.xyz,Nucleus 4C :,-0.214058,-0.328633,4.455248,56.08,-29.99,127.9,70.32,273.01,257.24,258.95,-294.04,-130.35,-196.59,-29.99,70.32,127.9,0,157.89,0.27
nw_cut_3_0_opt_disp_struct_18.xyz,Nucleus 7C :,2.451225,1.603407,0.697766,41.04,143.09,-39.51,19.53,271.62,268.05,263.9,-124.11,-310.36,-245.98,-39.51,19.53,143.09,0,182.6,-0.35
nw_cut_3_0_opt_disp_struct_18.xyz,Nucleus 8C :,0.041869,0.260419,-1.797473,49.42,170.95,1.11,-23.8,228.1,264.83,259.35,-57.36,-263.6,-283.07,-23.8,1.11,170.95,0,194.75,-0.74
nw_cut_3_0_opt_disp_struct_18.xyz,Nucleus 9C :,6.194031,-7.387605,2.013532,55.15,176.13,39.08,-49.76,247.82,270.14,263.53,-71.82,-229.94,-314.29,-49.76,39.08,176.13,0,225.89,-0.21
nw_cut_3_0_opt_disp_struct_18.xyz,Nucleus 11C :,7.12592,-7.667114,2.509158,55.84,175.92,-56.67,48.28,229.77,260.87,270.3,-53.93,-318.02,-221.45,-56.67,48.28,175.92,0,232.59,-0.1
nw_cut_3_0_opt_disp_struct_18.xyz,Nucleus 13C :,6.326723,-6.433357,1.495291,53.57,176.18,43.17,-58.65,221.07,272.43,255.71,-44.93,-229.26,-314.31,-58.65,43.17,176.18,0,234.83,-0.13
nw_cut_3_0_opt_disp_struct_18.xyz,Nucleus 15C :,5.080009,-7.366144,3.020714,65.87,171.22,52.06,-25.68,240.64,271.17,262.78,-69.6,-218.67,-288.72,-25.68,52.06,171.22,0,196.9,-0.21
nw_cut_3_0_opt_disp_struct_18.xyz,Nucleus 19C :,4.96005,-8.203295,3.9071,163.26,191.01,155.7,143.06,263.53,227.49,235.83,-69.95,-79.55,-87.59,143.06,155.7,191.01,0,47.95,-0.47
nw_cut_3_0_opt_disp_struct_18.xyz,Nucleus 22C :,4.183017,-6.352008,2.878213,3.58,-91.77,94.26,8.25,185.03,251.71,271.2,-91.06,-344.26,-261.87,-91.77,8.25,94.26,0,186.03,0.08
nw_cut_3_0_opt_disp_struct_18.xyz,Nucleus 5N :,4.165309,-5.852583,2.012272,118.81,57.36,168.71,130.36,299.99,335.79,329.08,-131.51,-205.3,-271.62,57.36,130.36,168.71,0,111.35,0.31
nw_cut_3_0_opt_disp_struct_18.xyz,Nucleus 24N :,3.325438,-6.457392,3.385168,145.57,47.44,242.65,146.61,293.08,329.69,347.15,-283.11,-84.48,-165.64,47.44,146.61,242.65,0,195.21,0.02
nw_cut_3_0_opt_disp_struct_18.xyz,Nucleus 23O :,5.975642,-8.16237,1.270834,-109.5,318.98,-236.99,-410.49,325.29,379.32,428.17,-6.69,-618.1,-836.49,-410.49,-236.99,318.98,0,729.47,-0.52
nw_cut_3_0_opt_disp_struct_19.xyz,Nucleus 1H :,0.982328,-0.02557,-1.311663,29.07,34.95,23.38,28.88,40.06,26.59,28.88,-6.31,0.46,-2.48,23.38,28.88,34.95,0,11.57,-0.05
nw_cut_3_0_opt_disp_struct_19.xyz,Nucleus 2H :,1.771707,0.61666,-1.710182,28.99,35.48,24.32,27.17,45.19,24.91,27.15,-10.88,1.83,-1.23,24.32,27.17,35.48,0,11.16,-0.49
nw_cut_3_0_opt_disp_struct_19.xyz,Nucleus 6H :,1.202461,-1.054038,-1.622248,23.99,16.09,24.99,30.9,48.89,14.92,30.0,-18.36,1.34,-4.81,16.09,24.99,30.9,0,14.81,0.2
nw_cut_3_0_opt_disp_struct_19.xyz,Nucleus 10H :,0.891222,0.094839,0.166432,23.52,28.67,18.85,23.03,47.69,31.79,32.46,-3.15,-13.41,-24.83,18.85,23.03,28.67,0,9.82,-0.15
nw_cut_3_0_opt_disp_struct_19.xyz,Nucleus 12H :,1.662259,0.916021,0.965548,23.88,19.94,24.32,27.39,46.93,15.53,30.71,-22.64,4.46,-3.34,19.94,24.32,27.39,0,7.45,0.18
nw_cut_3_0_opt_disp_struct_19.xyz,Nucleus 14H :,1.27183,0.742475,2.265696,23.87,19.94,27.22,24.44,6.4,32.66,43.92,13.57,-5.51,-19.45,19.94,24.44,27.22,0,7.28,0.23
nw_cut_3_0_opt_disp_struct_19.xyz,Nucleus 16H :,1.685837,1.198359,3.059861,23.95,19.28,28.04,24.52,11.49,31.8,46.62,-22.15,7.85,-3.77,19.28,24.52,28.04,0,8.76,0.2
nw_cut_3_0_opt_disp_struct_19.xyz,Nucleus 17H :,0.2526,-0.177558,2.338011,24.23,20.59,25.09,27.0,44.44,28.25,30.99,-19.3,-7.58,-4.13,20.59,25.09,27.0,0,6.41,0.4
nw_cut_3_0_opt_disp_struct_19.xyz,Nucleus 18H :,-0.010346,-0.601031,1.034764,28.95,35.6,26.97,24.27,42.52,26.19,31.96,0.18,-9.42,-4.59,24.27,26.97,35.6,0,11.33,-0.52
nw_cut_3_0_opt_disp_struct_19.xyz,Nucleus 20H :,-1.029398,-1.555115,0.833227,29.65,34.68,27.88,26.4,38.33,14.38,-0.31,-4.19,27.39,13.35,26.4,27.88,34.68,0,8.28,-0.64
nw_cut_3_0_opt_disp_struct_19.xyz,Nucleus 21H :,-1.258298,-1.910092,-0.167205,29.94,25.78,30.23,33.8,44.15,31.53,21.15,-11.82,-0.55,5.35,25.78,30.23,33.8,0,8.02,0.11
nw_cut_3_0_opt_disp_struct_19.xyz,Nucleus 25H :,-1.740837,-2.049138,1.933043,27.1,32.54,26.3,22.45,32.32,56.68,49.61,-2.93,-33.45,-20.94,22.45,26.3,32.54,0,10.09,-0.24
nw_cut_3_0_opt_disp_struct_19.xyz,Nucleus 26H :,-2.517534,-2.789637,1.775415,27.28,34.49,23.85,23.49,31.3,47.01,42.04,-2.78,-20.9,-14.85,23.49,23.85,34.49,0,11.0,-0.94
nw_cut_3_0_opt_disp_struct_19.xyz,Nucleus 27H :,-1.45253,-1.606508,3.221457,29.55,34.06,27.42,27.18,38.35,7.72,19.12,21.02,8.46,-6.01,27.18,27.42,34.06,0,6.88,-0.93
nw_cut_3_0_opt_disp_struct_19.xyz,Nucleus 0C :,-2.007713,-2.000328,4.066833,172.72,160.82,169.03,188.31,235.38,240.69,256.57,-75.95,-72.8,-65.73,160.82,169.03,188.31,0,27.49,-0.4
nw_cut_3_0_opt_disp_struct_19.xyz,Nucleus 3C :,-0.449211,-0.660335,3.449438,62.79,148.9,52.39,-12.92,241.01,263.18,272.77,-92.15,-219.75,-276.69,-12.92,52.39,148.9,0,161.82,-0.19
nw_cut_3_0_opt_disp_struct_19.xyz,Nucleus 4C :,-0.214058,-0.328633,4.455248,56.09,-29.97,127.89,70.35,272.96,257.19,258.97,-294.02,-130.35,-196.49,-29.97,70.35,127.89,0,157.86,0.27
nw_cut_3_0_opt_disp_struct_19.xyz,Nucleus 7C :,2.451225,1.603407,0.697766,41.04,143.08,-39.5,19.54,271.55,268.04,263.83,-124.12,-310.25,-245.93,-39.5,19.54,143.08,0,182.58,-0.35
nw_cut_3_0_opt_disp_struct_19.xyz,Nucleus 8C :,0.041869,0.260419,-1.797473,49.41,170.93,1.11,-23.8,228.06,264.7,259.32,-57.34,-263.48,-283.03,-23.8,1.11,170.93,0,194.73,-0.74
nw_cut_3_0_opt_disp_struct_19.xyz,Nucleus 9C :,6.361397,-7.57149,2.039515,55.13,176.11,39.07,-49.78,247.81,270.07,263.43,-71.82,-229.91,-314.18,-49.78,39.07,176.11,0,225.89,-0.21
nw_cut_3_0_opt_disp_struct_19.xyz,Nucleus 11C :,7.293285,-7.850999,2.535141,55.84,175.9,-56.66,48.29,229.75,260.8,270.22,-53.93,-317.92,-221.38,-56.66,48.29,175.9,0,232.56,-0.1
nw_cut_3_0_opt_disp_struct_19.xyz,Nucleus 13C :,6.494088,-6.617242,1.521274,53.57,176.16,43.2,-58.64,221.05,272.31,255.7,-44.93,-229.11,-314.3,-58.64,43.2,176.16,0,234.8,-0.13
nw_cut_3_0_opt_disp_struct_19.xyz,Nucleus 15C :,5.247374,-7.550029,3.046697,65.88,171.19,52.11,-25.66,240.63,271.13,262.67,-69.62,-218.57,-288.61,-25.66,52.11,171.19,0,196.85,-0.21
nw_cut_3_0_opt_disp_struct_19.xyz,Nucleus 19C :,5.127416,-8.387179,3.933083,163.24,191.0,155.66,143.07,263.85,227.03,235.55,-70.08,-79.32,-87.3,143.07,155.66,191.0,0,47.93,-0.47
nw_cut_3_0_opt_disp_struct_19.xyz,Nucleus 22C :,4.350382,-6.535893,2.904196,3.57,-91.82,94.27,8.27,184.18,251.64,271.38,-90.22,-344.23,-262.04,-91.82,8.27,94.27,0,186.09,0.08
nw_cut_3_0_opt_disp_struct_19.xyz,Nucleus 5N :,4.332674,-6.036468,2.038255,118.83,57.4,168.69,130.4,299.98,335.78,329.0,-131.51,-205.24,-271.51,57.4,130.4,168.69,0,111.29,0.31
nw_cut_3_0_opt_disp_struct_19.xyz,Nucleus 24N :,3.492803,-6.641277,3.411151,145.6,47.56,242.6,146.64,292.7,329.86,347.83,-283.17,-84.13,-166.3,47.56,146.64,242.6,0,195.04,0.02
nw_cut_3_0_opt_disp_struct_19.xyz,Nucleus 23O :,6.143008,-8.346255,1.296817,-109.61,318.99,-237.12,-410.7,324.53,379.2,428.27,-5.93,-618.1,-836.81,-410.7,-237.12,318.99,0,729.69,-0.52
nw_cut_3_0_opt_disp_struct_2.xyz,Nucleus 1H :,0.982328,-0.02557,-1.311663,28.98,35.0,23.31,28.64,40.55,26.44,28.81,-6.95,0.68,-2.57,23.31,28.64,35.0,0,11.69,-0.09
nw_cut_3_0_opt_disp_struct_2.xyz,Nucleus 2H :,1.771707,0.61666,-1.710182,28.97,35.19,24.33,27.39,46.06,25.07,27.49,-11.96,1.11,-0.85,24.33,27.39,35.19,0,10.86,-0.44
nw_cut_3_0_opt_disp_struct_2.xyz,Nucleus 6H :,1.202461,-1.054038,-1.622248,23.84,16.06,24.68,30.78,49.6,14.72,29.49,-19.37,1.76,-4.68,16.06,24.68,30.78,0,14.72,0.17
nw_cut_3_0_opt_disp_struct_2.xyz,Nucleus 10H :,0.891222,0.094839,0.166432,23.53,28.29,19.09,23.2,49.83,33.63,32.28,-4.59,-13.32,-27.24,19.09,23.2,28.29,0,9.2,-0.11
nw_cut_3_0_opt_disp_struct_2.xyz,Nucleus 12H :,1.662259,0.916021,0.965548,23.85,20.1,24.41,27.04,48.46,16.39,31.2,-24.39,4.07,-4.19,20.1,24.41,27.04,0,6.94,0.24
nw_cut_3_0_opt_disp_struct_2.xyz,Nucleus 14H :,1.27183,0.742475,2.265696,23.8,20.13,26.68,24.6,7.2,33.63,43.83,13.15,-6.99,-19.42,20.13,24.6,26.68,0,6.55,0.37
nw_cut_3_0_opt_disp_struct_2.xyz,Nucleus 16H :,1.685837,1.198359,3.059861,23.82,19.35,27.65,24.47,11.08,31.31,48.44,-24.2,-3.68,8.51,19.35,24.47,27.65,0,8.3,0.23
nw_cut_3_0_opt_disp_struct_2.xyz,Nucleus 17H :,0.2526,-0.177558,2.338011,24.11,20.5,25.09,26.75,44.59,28.24,31.13,-19.54,-7.53,-4.55,20.5,25.09,26.75,0,6.25,0.47
nw_cut_3_0_opt_disp_struct_2.xyz,Nucleus 18H :,-0.010346,-0.601031,1.034764,28.91,35.76,26.83,24.13,42.59,26.59,32.3,-0.28,-9.57,-4.9,24.13,26.83,35.76,0,11.63,-0.54
nw_cut_3_0_opt_disp_struct_2.xyz,Nucleus 20H :,-1.029398,-1.555115,0.833227,30.09,35.78,27.87,26.63,39.82,18.13,11.69,-4.25,9.59,15.3,26.63,27.87,35.78,0,9.15,-0.73
nw_cut_3_0_opt_disp_struct_2.xyz,Nucleus 21H :,-1.258298,-1.910092,-0.167205,30.51,25.28,32.24,34.0,24.05,35.32,39.2,-6.21,-2.49,1.65,25.28,32.24,34.0,0,8.72,0.6
nw_cut_3_0_opt_disp_struct_2.xyz,Nucleus 25H :,-1.740837,-2.049138,1.933043,28.84,40.5,20.39,25.63,52.63,28.88,36.48,1.58,-15.22,-17.84,20.39,25.63,40.5,0,20.11,-0.48
nw_cut_3_0_opt_disp_struct_2.xyz,Nucleus 26H :,-2.517534,-2.789637,1.775415,28.74,38.32,26.23,21.66,26.69,36.28,37.67,2.11,-6.28,-10.26,21.66,26.23,38.32,0,16.66,-0.45
nw_cut_3_0_opt_disp_struct_2.xyz,Nucleus 27H :,-1.45253,-1.606508,3.221457,29.94,34.59,28.18,27.06,38.37,18.12,21.94,10.49,5.61,-4.7,27.06,28.18,34.59,0,7.53,-0.7
nw_cut_3_0_opt_disp_struct_2.xyz,Nucleus 0C :,-2.007713,-2.000328,4.066833,172.74,160.65,169.35,188.22,257.49,235.98,241.1,-76.99,-73.28,-66.08,160.65,169.35,188.22,0,27.57,-0.37
nw_cut_3_0_opt_disp_struct_2.xyz,Nucleus 3C :,-0.449211,-0.660335,3.449438,63.34,149.23,52.61,-11.82,242.88,275.57,264.25,-93.71,-222.48,-276.5,-11.82,52.61,149.23,0,161.05,-0.2
nw_cut_3_0_opt_disp_struct_2.xyz,Nucleus 4C :,-0.214058,-0.328633,4.455248,54.84,-31.57,128.28,67.82,274.62,257.83,258.45,-295.93,-130.08,-200.35,-31.57,67.82,128.28,0,159.85,0.24
nw_cut_3_0_opt_disp_struct_2.xyz,Nucleus 7C :,2.451225,1.603407,0.697766,40.41,144.19,-40.68,17.71,264.15,271.67,273.76,-125.28,-314.35,-248.75,-40.68,17.71,144.19,0,184.87,-0.37
nw_cut_3_0_opt_disp_struct_2.xyz,Nucleus 8C :,0.041869,0.260419,-1.797473,50.0,172.24,0.67,-22.92,229.06,268.13,258.84,-57.18,-267.15,-281.7,-22.92,0.67,172.24,0,195.16,-0.76
nw_cut_3_0_opt_disp_struct_2.xyz,Nucleus 9C :,3.51618,-4.445448,1.597805,55.56,177.49,38.23,-49.05,248.69,273.21,268.26,-72.38,-233.38,-317.72,-49.05,38.23,177.49,0,226.54,-0.23
nw_cut_3_0_opt_disp_struct_2.xyz,Nucleus 11C :,4.448069,-4.724958,2.093431,55.39,177.51,-57.3,45.97,230.08,262.03,273.53,-53.21,-320.73,-225.51,-57.3,45.97,177.51,0,234.81,-0.12
nw_cut_3_0_opt_disp_struct_2.xyz,Nucleus 13C :,3.648872,-3.4912,1.079564,53.91,177.78,41.69,-57.75,221.05,275.76,254.96,-43.81,-233.98,-312.27,-57.75,41.69,177.78,0,235.53,-0.16
nw_cut_3_0_opt_disp_struct_2.xyz,Nucleus 15C :,2.402158,-4.423988,2.604987,63.36,172.65,46.44,-29.01,240.42,272.53,266.06,-68.2,-225.68,-295.06,-29.01,46.44,172.65,0,201.66,-0.25
nw_cut_3_0_opt_disp_struct_2.xyz,Nucleus 19C :,2.2822,-5.261138,3.491373,163.85,191.32,157.63,142.6,257.88,234.47,241.61,-65.6,-83.45,-93.37,142.6,157.63,191.32,0,48.72,-0.38
nw_cut_3_0_opt_disp_struct_2.xyz,Nucleus 22C :,1.505166,-3.409851,2.462486,3.93,-88.33,94.03,6.08,198.35,251.71,270.28,-104.42,-341.47,-262.68,-88.33,6.08,94.03,0,182.36,0.04
nw_cut_3_0_opt_disp_struct_2.xyz,Nucleus 5N :,1.487458,-2.910427,1.596546,116.71,53.6,169.5,127.04,300.23,336.31,329.93,-131.64,-208.97,-275.72,53.6,127.04,169.5,0,115.9,0.27
nw_cut_3_0_opt_disp_struct_2.xyz,Nucleus 24N :,0.647587,-3.515235,2.969442,143.5,36.67,243.89,149.93,292.41,323.74,343.5,-289.33,-91.27,-148.56,36.67,149.93,243.89,0,207.22,0.09
nw_cut_3_0_opt_disp_struct_2.xyz,Nucleus 23O :,3.297792,-5.220214,0.855107,-100.47,319.69,-226.85,-394.26,340.18,380.85,426.71,-21.08,-608.98,-819.1,-394.26,-226.85,319.69,0,713.95,-0.53
nw_cut_3_0_opt_disp_struct_3.xyz,Nucleus 1H :,0.982328,-0.02557,-1.311663,29.0,34.99,23.33,28.67,40.53,26.53,28.84,-6.93,0.58,-2.55,23.33,28.67,34.99,0,11.66,-0.08
nw_cut_3_0_opt_disp_struct_3.xyz,Nucleus 2H :,1.771707,0.61666,-1.710182,28.98,35.22,24.36,27.37,46.04,25.17,27.44,-11.89,1.14,-0.97,24.36,27.37,35.22,0,10.86,-0.44
nw_cut_3_0_opt_disp_struct_3.xyz,Nucleus 6H :,1.202461,-1.054038,-1.622248,23.87,16.09,24.73,30.78,49.67,14.81,29.57,-19.43,1.68,-4.7,16.09,24.73,30.78,0,14.69,0.18
nw_cut_3_0_opt_disp_struct_3.xyz,Nucleus 10H :,0.891222,0.094839,0.166432,23.53,28.34,19.11,23.14,49.79,33.76,32.16,-4.58,-13.36,-27.19,19.11,23.14,28.34,0,9.23,-0.13
nw_cut_3_0_opt_disp_struct_3.xyz,Nucleus 12H :,1.662259,0.916021,0.965548,23.86,20.12,24.37,27.08,48.45,16.22,31.32,-24.36,4.22,-4.27,20.12,24.37,27.08,0,6.96,0.22
nw_cut_3_0_opt_disp_struct_3.xyz,Nucleus 14H :,1.27183,0.742475,2.265696,23.81,20.14,26.75,24.55,6.96,33.68,43.91,13.36,-6.97,-19.5,20.14,24.55,26.75,0,6.61,0.34
nw_cut_3_0_opt_disp_struct_3.xyz,Nucleus 16H :,1.685837,1.198359,3.059861,23.84,19.38,27.68,24.46,11.17,31.42,48.38,-24.12,-3.75,8.42,19.38,24.46,27.68,0,8.3,0.22
nw_cut_3_0_opt_disp_struct_3.xyz,Nucleus 17H :,0.2526,-0.177558,2.338011,24.13,20.52,25.09,26.78,44.64,28.3,31.15,-19.59,-7.56,-4.54,20.52,25.09,26.78,0,6.26,0.46
nw_cut_3_0_opt_disp_struct_3.xyz,Nucleus 18H :,-0.010346,-0.601031,1.034764,28.91,35.74,26.84,24.15,42.6,26.6,32.28,-0.28,-9.55,-4.91,24.15,26.84,35.74,0,11.59,-0.54
nw_cut_3_0_opt_disp_struct_3.xyz,Nucleus 20H :,-1.029398,-1.555115,0.833227,30.02,35.63,27.85,26.58,39.62,17.93,10.98,-4.21,9.76,15.97,26.58,27.85,35.63,0,9.05,-0.72
nw_cut_3_0_opt_disp_struct_3.xyz,Nucleus 21H :,-1.258298,-1.910092,-0.167205,30.43,25.35,32.08,33.85,24.08,34.98,39.4,-6.46,-2.37,1.65,25.35,32.08,33.85,0,8.5,0.58
nw_cut_3_0_opt_disp_struct_3.xyz,Nucleus 25H :,-1.740837,-2.049138,1.933043,28.68,39.1,20.99,25.95,51.66,29.8,38.29,0.45,-16.45,-17.71,20.99,25.95,39.1,0,18.11,-0.45
nw_cut_3_0_opt_disp_struct_3.xyz,Nucleus 26H :,-2.517534,-2.789637,1.775415,28.61,37.28,26.28,22.26,27.74,37.46,36.52,1.47,-6.62,-10.75,22.26,26.28,37.28,0,15.02,-0.47
nw_cut_3_0_opt_disp_struct_3.xyz,Nucleus 27H :,-1.45253,-1.606508,3.221457,29.89,34.51,28.09,27.06,38.3,17.47,21.78,11.11,5.76,-4.77,27.06,28.09,34.51,0,7.45,-0.72
nw_cut_3_0_opt_disp_struct_3.xyz,Nucleus 0C :,-2.007713,-2.000328,4.066833,172.73,160.67,169.31,188.21,257.37,236.0,241.05,-76.89,-73.25,-66.09,160.67,169.31,188.21,0,27.54,-0.37
nw_cut_3_0_opt_disp_struct_3.xyz,Nucleus 3C :,-0.449211,-0.660335,3.449438,63.29,149.23,52.66,-12.02,242.79,275.52,264.21,-93.61,-222.42,-276.61,-12.02,52.66,149.23,0,161.25,-0.2
nw_cut_3_0_opt_disp_struct_3.xyz,Nucleus 4C :,-0.214058,-0.328633,4.455248,55.08,-31.26,128.26,68.25,274.46,258.23,258.01,-295.52,-130.02,-199.9,-31.26,68.25,128.26,0,159.52,0.25
nw_cut_3_0_opt_disp_struct_3.xyz,Nucleus 7C :,2.451225,1.603407,0.697766,40.71,144.04,-40.16,18.25,264.4,271.04,273.78,-125.12,-313.85,-248.14,-40.16,18.25,144.04,0,184.2,-0.37
nw_cut_3_0_opt_disp_struct_3.xyz,Nucleus 8C :,0.041869,0.260419,-1.797473,49.96,171.99,0.92,-23.02,228.95,268.52,259.12,-57.39,-267.26,-282.06,-23.02,0.92,171.99,0,195.01,-0.75
nw_cut_3_0_opt_disp_struct_3.xyz,Nucleus 9C :,3.683546,-4.629333,1.623788,55.73,177.27,38.84,-48.91,248.34,273.25,268.12,-72.29,-232.72,-317.5,-48.91,38.84,177.27,0,226.18,-0.22
nw_cut_3_0_opt_disp_struct_3.xyz,Nucleus 11C :,4.615434,-4.908842,2.119414,55.67,177.25,-56.98,46.75,229.93,262.06,273.45,-53.21,-320.41,-224.8,-56.98,46.75,177.25,0,234.23,-0.11
nw_cut_3_0_opt_disp_struct_3.xyz,Nucleus 13C :,3.816238,-3.675085,1.105547,53.91,177.54,42.13,-57.95,221.08,275.6,255.15,-43.91,-233.4,-312.81,-57.95,42.13,177.54,0,235.49,-0.15
nw_cut_3_0_opt_disp_struct_3.xyz,Nucleus 15C :,2.569524,-4.607872,2.63097,64.12,172.47,47.94,-28.05,240.17,272.42,265.79,-68.11,-224.11,-293.79,-28.05,47.94,172.47,0,200.52,-0.24
nw_cut_3_0_opt_disp_struct_3.xyz,Nucleus 19C :,2.449565,-5.445023,3.517356,163.76,191.26,157.31,142.7,258.26,234.1,241.15,-66.01,-83.18,-93.04,142.7,157.31,191.26,0,48.56,-0.4
nw_cut_3_0_opt_disp_struct_3.xyz,Nucleus 22C :,1.672532,-3.593736,2.488469,3.86,-88.96,94.0,6.55,197.41,251.79,270.21,-103.51,-342.14,-262.17,-88.96,6.55,94.0,0,182.96,0.04
nw_cut_3_0_opt_disp_struct_3.xyz,Nucleus 5N :,1.654824,-3.094311,1.622528,117.15,54.4,169.43,127.63,300.17,336.3,329.99,-131.64,-208.37,-275.0,54.4,127.63,169.43,0,115.03,0.27
nw_cut_3_0_opt_disp_struct_3.xyz,Nucleus 24N :,0.814952,-3.69912,2.995424,144.18,39.94,244.39,148.22,292.42,323.87,343.19,-286.13,-89.8,-151.0,39.94,148.22,244.39,0,204.45,0.06
nw_cut_3_0_opt_disp_struct_3.xyz,Nucleus 23O :,3.465157,-5.404098,0.88109,-102.66,319.16,-229.22,-397.92,338.58,380.71,426.82,-20.0,-611.24,-822.85,-397.92,-229.22,319.16,0,717.08,-0.53
nw_cut_3_0_opt_disp_struct_4.xyz,Nucleus 1H :,0.982328,-0.02557,-1.311663,29.0,34.98,23.34,28.69,40.49,26.57,28.84,-6.89,0.51,-2.52,23.34,28.69,34.98,0,11.64,-0.08
nw_cut_3_0_opt_disp_struct_4.xyz,Nucleus 2H :,1.771707,0.61666,-1.710182,28.98,35.24,24.37,27.34,45.99,25.22,27.42,-11.79,1.18,-1.06,24.37,27.34,35.24,0,10.87,-0.45
nw_cut_3_0_opt_disp_struct_4.xyz,Nucleus 6H :,1.202461,-1.054038,-1.622248,23.89,16.11,24.77,30.78,49.71,14.87,29.64,-19.45,1.62,-4.72,16.11,24.77,30.78,0,14.67,0.18
nw_cut_3_0_opt_disp_struct_4.xyz,Nucleus 10H :,0.891222,0.094839,0.166432,23.53,28.38,19.1,23.1,49.7,33.67,32.15,-4.49,-13.38,-27.07,19.1,23.1,28.38,0,9.28,-0.14
nw_cut_3_0_opt_disp_struct_4.xyz,Nucleus 12H :,1.662259,0.916021,0.965548,23.86,20.12,24.34,27.12,48.4,16.11,31.34,-24.3,4.28,-4.24,20.12,24.34,27.12,0,7.0,0.21
nw_cut_3_0_opt_disp_struct_4.xyz,Nucleus 14H :,1.27183,0.742475,2.265696,23.82,20.14,26.82,24.51,6.83,33.73,43.96,13.45,-6.95,-19.55,20.14,24.51,26.82,0,6.68,0.31
nw_cut_3_0_opt_disp_struct_4.xyz,Nucleus 16H :,1.685837,1.198359,3.059861,23.86,19.41,27.72,24.45,11.25,31.51,48.27,-24.0,-3.8,8.34,19.41,24.45,27.72,0,8.31,0.21
nw_cut_3_0_opt_disp_struct_4.xyz,Nucleus 17H :,0.2526,-0.177558,2.338011,24.15,20.54,25.09,26.81,44.67,28.32,31.16,-19.63,-7.56,-4.51,20.54,25.09,26.81,0,6.27,0.45
nw_cut_3_0_opt_disp_struct_4.xyz,Nucleus 18H :,-0.010346,-0.601031,1.034764,28.91,35.71,26.85,24.17,42.59,26.57,32.23,-0.26,-9.5,-4.89,24.17,26.85,35.71,0,11.54,-0.54
nw_cut_3_0_opt_disp_struct_4.xyz,Nucleus 20H :,-1.029398,-1.555115,0.833227,29.97,35.5,27.85,26.56,39.45,17.76,10.28,-4.19,9.92,16.68,26.56,27.85,35.5,0,8.94,-0.71
nw_cut_3_0_opt_disp_struct_4.xyz,Nucleus 21H :,-1.258298,-1.910092,-0.167205,30.35,25.4,31.89,33.77,24.06,34.64,39.66,-6.77,-2.24,1.7,25.4,31.89,33.77,0,8.37,0.55
nw_cut_3_0_opt_disp_struct_4.xyz,Nucleus 25H :,-1.740837,-2.049138,1.933043,28.47,37.95,21.35,26.11,30.51,50.88,40.01,-0.41,-18.04,-17.56,21.35,26.11,37.95,0,16.6,-0.43
nw_cut_3_0_opt_disp_struct_4.xyz,Nucleus 26H :,-2.517534,-2.789637,1.775415,28.43,36.54,26.13,22.61,38.5,35.69,28.8,0.76,-7.22,-11.24,22.61,26.13,36.54,0,13.93,-0.5
nw_cut_3_0_opt_disp_struct_4.xyz,Nucleus 27H :,-1.45253,-1.606508,3.221457,29.84,34.43,28.02,27.07,38.25,16.84,21.63,11.74,5.9,-4.84,27.07,28.02,34.43,0,7.36,-0.74
nw_cut_3_0_opt_disp_struct_4.xyz,Nucleus 0C :,-2.007713,-2.000328,4.066833,172.72,160.69,169.28,188.2,235.98,240.98,257.25,-76.78,-73.17,-66.09,160.69,169.28,188.2,0,27.51,-0.38
nw_cut_3_0_opt_disp_struct_4.xyz,Nucleus 3C :,-0.449211,-0.660335,3.449438,63.24,149.21,52.67,-12.17,242.52,275.26,264.1,-93.36,-222.2,-276.62,-12.17,52.67,149.21,0,161.38,-0.2
nw_cut_3_0_opt_disp_struct_4.xyz,Nucleus 4C :,-0.214058,-0.328633,4.455248,55.27,-31.02,128.22,68.6,274.29,258.43,257.75,-295.19,-129.99,-199.49,-31.02,68.6,128.22,0,159.24,0.25
nw_cut_3_0_opt_disp_struct_4.xyz,Nucleus 7C :,2.451225,1.603407,0.697766,40.87,143.88,-39.89,18.61,273.77,270.1,264.74,-124.93,-313.53,-247.57,-39.89,18.61,143.88,0,183.77,-0.36
nw_cut_3_0_opt_disp_struct_4.xyz,Nucleus 8C :,0.041869,0.260419,-1.797473,49.89,171.81,1.04,-23.17,228.75,268.75,259.24,-57.4,-267.32,-282.34,-23.17,1.04,171.81,0,194.98,-0.75
nw_cut_3_0_opt_disp_struct_4.xyz,Nucleus 9C :,3.850912,-4.813218,1.649771,55.78,177.08,39.18,-48.93,248.18,273.02,267.73,-72.18,-232.12,-317.29,-48.93,39.18,177.08,0,226.01,-0.22
nw_cut_3_0_opt_disp_struct_4.xyz,Nucleus 11C :,4.7828,-5.092727,2.145397,55.81,177.04,-56.85,47.24,229.99,262.03,273.2,-53.38,-320.18,-224.21,-56.85,47.24,177.04,0,233.89,-0.11
nw_cut_3_0_opt_disp_struct_4.xyz,Nucleus 13C :,3.983603,-3.85897,1.13153,53.85,177.31,42.39,-58.14,221.25,275.45,255.3,-44.15,-233.01,-313.28,-58.14,42.39,177.31,0,235.45,-0.15
nw_cut_3_0_opt_disp_struct_4.xyz,Nucleus 15C :,2.736889,-4.791757,2.656953,64.6,172.28,48.97,-27.45,240.21,272.28,265.44,-68.3,-223.02,-292.8,-27.45,48.97,172.28,0,199.73,-0.23
nw_cut_3_0_opt_disp_struct_4.xyz,Nucleus 19C :,2.616931,-5.628907,3.543339,163.7,191.23,157.08,142.79,258.66,233.72,240.72,-66.42,-82.91,-92.7,142.79,157.08,191.23,0,48.44,-0.41
nw_cut_3_0_opt_disp_struct_4.xyz,Nucleus 22C :,1.839897,-3.777621,2.514452,3.84,-89.42,94.03,6.92,196.52,251.82,270.09,-102.61,-342.61,-261.68,-89.42,6.92,94.03,0,183.45,0.05
nw_cut_3_0_opt_disp_struct_4.xyz,Nucleus 5N :,1.822189,-3.278196,1.648511,117.46,54.98,169.33,128.08,300.18,336.25,330.01,-131.68,-207.89,-274.48,54.98,128.08,169.33,0,114.35,0.28
nw_cut_3_0_opt_disp_struct_4.xyz,Nucleus 24N :,0.982318,-3.883005,3.021407,144.45,41.77,244.39,147.2,292.92,324.47,343.05,-284.76,-89.06,-153.26,41.77,147.2,244.39,0,202.62,0.04
nw_cut_3_0_opt_disp_struct_4.xyz,Nucleus 23O :,3.632523,-5.587983,0.907073,-104.08,318.94,-230.78,-400.41,336.98,380.64,426.96,-18.61,-612.78,-825.44,-400.41,-230.78,318.94,0,719.35,-0.53
nw_cut_3_0_opt_disp_struct_5.xyz,Nucleus 1H :,0.982328,-0.02557,-1.311663,29.01,34.97,23.35,28.71,40.45,26.59,28.85,-6.83,0.47,-2.51,23.35,28.71,34.97,0,11.62,-0.08
nw_cut_3_0_opt_disp_struct_5.xyz,Nucleus 2H :,1.771707,0.61666,-1.710182,28.99,35.27,24.39,27.31,45.92,25.23,27.4,-11.69,1.23,-1.13,24.39,27.31,35.27,0,10.88,-0.46
nw_cut_3_0_opt_disp_struct_5.xyz,Nucleus 6H :,1.202461,-1.054038,-1.622248,23.9,16.12,24.8,30.78,49.71,14.9,29.72,-19.44,1.58,-4.76,16.12,24.8,30.78,0,14.66,0.18
nw_cut_3_0_opt_disp_struct_5.xyz,Nucleus 10H :,0.891222,0.094839,0.166432,23.53,28.42,19.1,23.06,49.57,33.46,32.22,-4.37,-13.38,-26.92,19.1,23.06,28.42,0,9.32,-0.15
nw_cut_3_0_opt_disp_struct_5.xyz,Nucleus 12H :,1.662259,0.916021,0.965548,23.87,20.12,24.31,27.17,48.32,16.04,31.3,-24.21,4.31,-4.16,20.12,24.31,27.17,0,7.05,0.19
nw_cut_3_0_opt_disp_struct_5.xyz,Nucleus 14H :,1.27183,0.742475,2.265696,23.83,20.13,26.88,24.47,6.76,33.74,43.99,13.49,-6.9,-19.59,20.13,24.47,26.88,0,6.75,0.28
nw_cut_3_0_opt_disp_struct_5.xyz,Nucleus 16H :,1.685837,1.198359,3.059861,23.87,19.41,27.76,24.44,11.3,31.59,48.14,-23.86,-3.83,8.27,19.41,24.44,27.76,0,8.35,0.2
nw_cut_3_0_opt_disp_struct_5.xyz,Nucleus 17H :,0.2526,-0.177558,2.338011,24.16,20.56,25.09,26.84,44.69,28.32,31.15,-19.64,-7.56,-4.48,20.56,25.09,26.84,0,6.28,0.44
nw_cut_3_0_opt_disp_struct_5.xyz,Nucleus 18H :,-0.010346,-0.601031,1.034764,28.92,35.7,26.86,24.19,42.58,26.54,32.19,-0.23,-9.46,-4.87,24.19,26.86,35.7,0,11.51,-0.54
nw_cut_3_0_opt_disp_struct_5.xyz,Nucleus 20H :,-1.029398,-1.555115,0.833227,29.92,35.39,27.84,26.54,39.3,17.59,9.58,-4.17,10.09,17.38,26.54,27.84,35.39,0,8.85,-0.71
nw_cut_3_0_opt_disp_struct_5.xyz,Nucleus 21H :,-1.258298,-1.910092,-0.167205,30.29,25.45,31.7,33.73,24.02,34.31,39.95,-7.11,-2.1,1.8,25.45,31.7,33.73,0,8.28,0.51
nw_cut_3_0_opt_disp_struct_5.xyz,Nucleus 25H :,-1.740837,-2.049138,1.933043,28.26,37.0,21.58,26.19,31.08,50.3,41.61,-1.06,-19.39,-17.76,21.58,26.19,37.0,0,15.42,-0.4
nw_cut_3_0_opt_disp_struct_5.xyz,Nucleus 26H :,-2.517534,-2.789637,1.775415,28.25,36.02,22.85,25.89,39.44,35.02,29.83,0.1,-7.93,-11.71,22.85,25.89,36.02,0,13.17,-0.54
nw_cut_3_0_opt_disp_struct_5.xyz,Nucleus 27H :,-1.45253,-1.606508,3.221457,29.8,34.37,27.95,27.08,38.21,16.21,21.49,12.36,6.04,-4.91,27.08,27.95,34.37,0,7.29,-0.76
nw_cut_3_0_opt_disp_struct_5.xyz,Nucleus 0C :,-2.007713,-2.000328,4.066833,172.72,160.7,169.25,188.2,235.95,240.91,257.16,-76.69,-73.09,-66.09,160.7,169.25,188.2,0,27.5,-0.38
nw_cut_3_0_opt_disp_struct_5.xyz,Nucleus 3C :,-0.449211,-0.660335,3.449438,63.17,149.18,52.65,-12.31,242.2,274.91,263.98,-93.07,-221.9,-276.61,-12.31,52.65,149.18,0,161.49,-0.2
nw_cut_3_0_opt_disp_struct_5.xyz,Nucleus 4C :,-0.214058,-0.328633,4.455248,55.42,-30.82,128.19,68.9,274.12,258.51,257.64,-294.92,-129.98,-199.11,-30.82,68.9,128.19,0,159.01,0.25
nw_cut_3_0_opt_disp_struct_5.xyz,Nucleus 7C :,2.451225,1.603407,0.697766,40.94,143.75,-39.76,18.84,273.71,269.34,264.93,-124.72,-313.3,-247.13,-39.76,18.84,143.75,0,183.51,-0.36
nw_cut_3_0_opt_disp_struct_5.xyz,Nucleus 8C :,0.041869,0.260419,-1.797473,49.81,171.66,1.08,-23.31,228.63,268.78,259.28,-57.42,-267.28,-282.56,-23.31,1.08,171.66,0,194.97,-0.75
nw_cut_3_0_opt_disp_struct_5.xyz,Nucleus 9C :,4.018277,-4.997103,1.675754,55.74,176.91,39.34,-49.03,248.18,272.65,267.19,-72.11,-231.61,-317.07,-49.03,39.34,176.91,0,225.94,-0.22
nw_cut_3_0_opt_disp_struct_5.xyz,Nucleus 11C :,4.950166,-5.276612,2.17138,55.86,176.85,-56.8,47.54,230.09,261.97,272.83,-53.58,-319.99,-223.72,-56.8,47.54,176.85,0,233.65,-0.11
nw_cut_3_0_opt_disp_struct_5.xyz,Nucleus 13C :,4.150969,-4.042855,1.157513,53.78,177.13,42.52,-58.31,221.37,275.23,255.44,-44.36,-232.67,-313.66,-58.31,42.52,177.13,0,235.44,-0.14
nw_cut_3_0_opt_disp_struct_5.xyz,Nucleus 15C :,2.904255,-4.975642,2.682936,64.93,172.12,49.7,-27.04,240.31,272.09,265.12,-68.52,-222.18,-292.03,-27.04,49.7,172.12,0,199.16,-0.23
nw_cut_3_0_opt_disp_struct_5.xyz,Nucleus 19C :,2.784297,-5.812792,3.569322,163.63,191.19,156.87,142.84,259.07,233.35,240.32,-66.82,-82.66,-92.36,142.84,156.87,191.19,0,48.35,-0.42
nw_cut_3_0_opt_disp_struct_5.xyz,Nucleus 22C :,2.007263,-3.961506,2.540435,3.82,-89.79,94.05,7.21,195.67,251.85,269.98,-101.74,-342.98,-261.31,-89.79,7.21,94.05,0,183.84,0.06
nw_cut_3_0_opt_disp_struct_5.xyz,Nucleus 5N :,1.989555,-3.462081,1.674494,117.72,55.45,169.26,128.46,300.22,336.2,329.99,-131.7,-207.48,-274.06,55.45,128.46,169.26,0,113.81,0.28
nw_cut_3_0_opt_disp_struct_5.xyz,Nucleus 24N :,1.149684,-4.06689,3.04739,144.63,42.97,244.25,146.68,293.5,325.17,342.99,-284.12,-88.55,-155.09,42.97,146.68,244.25,0,201.28,0.03
nw_cut_3_0_opt_disp_struct_5.xyz,Nucleus 23O :,3.799889,-5.771868,0.933056,-105.13,318.83,-231.95,-402.28,335.48,380.58,427.1,-17.2,-613.96,-827.41,-402.28,-231.95,318.83,0,721.11,-0.53
nw_cut_3_0_opt_disp_struct_6.xyz,Nucleus 1H :,0.982328,-0.02557,-1.311663,29.02,34.96,23.36,28.73,40.41,26.6,28.87,-6.77,0.44,-2.5,23.36,28.73,34.96,0,11.6,-0.07
nw_cut_3_0_opt_disp_struct_6.xyz,Nucleus 2H :,1.771707,0.61666,-1.710182,28.99,35.3,24.39,27.29,45.86,25.24,27.38,-11.59,1.28,-1.2,24.39,27.29,35.3,0,10.91,-0.47
nw_cut_3_0_opt_disp_struct_6.xyz,Nucleus 6H :,1.202461,-1.054038,-1.622248,23.92,16.13,24.83,30.79,49.69,14.92,29.78,-19.39,1.54,-4.79,16.13,24.83,30.79,0,14.66,0.19
nw_cut_3_0_opt_disp_struct_6.xyz,Nucleus 10H :,0.891222,0.094839,0.166432,23.52,28.46,19.08,23.03,49.42,33.21,32.31,-4.23,-13.39,-26.74,19.08,23.03,28.46,0,9.38,-0.16
nw_cut_3_0_opt_disp_struct_6.xyz,Nucleus 12H :,1.662259,0.916021,0.965548,23.87,20.12,24.29,27.2,48.21,15.98,31.24,-24.09,4.32,-4.06,20.12,24.29,27.2,0,7.08,0.18
nw_cut_3_0_opt_disp_struct_6.xyz,Nucleus 14H :,1.27183,0.742475,2.265696,23.84,20.12,26.94,24.45,6.72,33.71,44.0,13.5,-6.82,-19.61,20.12,24.45,26.94,0,6.82,0.27
nw_cut_3_0_opt_disp_struct_6.xyz,Nucleus 16H :,1.685837,1.198359,3.059861,23.88,19.41,27.8,24.43,11.35,31.65,48.01,-23.71,-3.85,8.2,19.41,24.43,27.8,0,8.39,0.2
nw_cut_3_0_opt_disp_struct_6.xyz,Nucleus 17H :,0.2526,-0.177558,2.338011,24.17,20.58,25.08,26.86,44.69,28.32,31.15,-19.63,-7.55,-4.44,20.58,25.08,26.86,0,6.28,0.43
nw_cut_3_0_opt_disp_struct_6.xyz,Nucleus 18H :,-0.010346,-0.601031,1.034764,28.92,35.68,26.87,24.2,42.56,26.5,32.16,-0.18,-9.42,-4.86,24.2,26.87,35.68,0,11.48,-0.54
nw_cut_3_0_opt_disp_struct_6.xyz,Nucleus 20H :,-1.029398,-1.555115,0.833227,29.88,35.29,27.84,26.52,39.18,17.41,8.87,-4.17,10.27,18.09,26.52,27.84,35.29,0,8.77,-0.7
nw_cut_3_0_opt_disp_struct_6.xyz,Nucleus 21H :,-1.258298,-1.910092,-0.167205,30.25,25.5,31.52,33.72,23.95,34.01,40.26,-7.46,-1.96,1.93,25.5,31.52,33.72,0,8.22,0.46
nw_cut_3_0_opt_disp_struct_6.xyz,Nucleus 25H :,-1.740837,-2.049138,1.933043,28.07,36.22,21.75,26.24,31.49,43.06,49.9,-1.55,-20.75,-17.93,21.75,26.24,36.22,0,14.47,-0.38
nw_cut_3_0_opt_disp_struct_6.xyz,Nucleus 26H :,-2.517534,-2.789637,1.775415,28.09,35.64,23.01,25.62,40.26,34.5,30.84,-0.45,-12.15,-8.74,23.01,25.62,35.64,0,12.63,-0.59
nw_cut_3_0_opt_disp_struct_6.xyz,Nucleus 27H :,-1.45253,-1.606508,3.221457,29.77,34.32,27.89,27.09,38.18,15.59,21.35,12.99,6.18,-4.98,27.09,27.89,34.32,0,7.23,-0.78
nw_cut_3_0_opt_disp_struct_6.xyz,Nucleus 0C :,-2.007713,-2.000328,4.066833,172.71,160.71,169.22,188.2,235.9,240.85,257.08,-76.62,-73.03,-66.06,160.71,169.22,188.2,0,27.49,-0.38
nw_cut_3_0_opt_disp_struct_6.xyz,Nucleus 3C :,-0.449211,-0.660335,3.449438,63.11,149.16,52.61,-12.43,241.92,274.57,263.88,-92.81,-221.59,-276.62,-12.43,52.61,149.16,0,161.59,-0.19
nw_cut_3_0_opt_disp_struct_6.xyz,Nucleus 4C :,-0.214058,-0.328633,4.455248,55.54,-30.67,128.16,69.14,273.94,258.48,257.68,-294.71,-129.99,-198.76,-30.67,69.14,128.16,0,158.83,0.26
nw_cut_3_0_opt_disp_struct_6.xyz,Nucleus 7C :,2.451225,1.603407,0.697766,40.99,143.64,-39.69,19.01,273.53,268.82,265.0,-124.54,-313.02,-246.82,-39.69,19.01,143.64,0,183.33,-0.36
nw_cut_3_0_opt_disp_struct_6.xyz,Nucleus 8C :,0.041869,0.260419,-1.797473,49.73,171.53,1.08,-23.43,228.58,268.59,259.29,-57.46,-267.08,-282.73,-23.43,1.08,171.53,0,194.96,-0.75
nw_cut_3_0_opt_disp_struct_6.xyz,Nucleus 9C :,4.185643,-5.180987,1.701737,55.68,176.78,39.39,-49.14,248.22,272.26,266.62,-72.06,-231.2,-316.81,-49.14,39.39,176.78,0,225.92,-0.22
nw_cut_3_0_opt_disp_struct_6.xyz,Nucleus 11C :,5.117531,-5.460497,2.197363,55.88,176.69,-56.79,47.73,230.14,261.89,272.42,-53.72,-319.79,-223.3,-56.79,47.73,176.69,0,233.48,-0.1
nw_cut_3_0_opt_disp_struct_6.xyz,Nucleus 13C :,4.318335,-4.22674,1.183496,53.71,176.97,42.61,-58.44,221.42,274.93,255.54,-44.52,-232.29,-313.93,-58.44,42.61,176.97,0,235.41,-0.14
nw_cut_3_0_opt_disp_struct_6.xyz,Nucleus 15C :,3.071621,-5.159527,2.708919,65.16,171.98,50.23,-26.74,240.42,271.88,264.82,-68.73,-221.49,-291.43,-26.74,50.23,171.98,0,198.72,-0.23
nw_cut_3_0_opt_disp_struct_6.xyz,Nucleus 19C :,2.951662,-5.996677,3.595305,163.58,191.16,156.69,142.88,259.47,232.97,239.92,-67.19,-82.42,-92.01,142.88,156.69,191.16,0,48.28,-0.43
nw_cut_3_0_opt_disp_struct_6.xyz,Nucleus 22C :,2.174629,-4.145391,2.566418,3.8,-90.1,94.07,7.43,194.84,251.9,269.94,-100.91,-343.29,-261.09,-90.1,7.43,94.07,0,184.17,0.06
nw_cut_3_0_opt_disp_struct_6.xyz,Nucleus 5N :,2.156921,-3.645966,1.700477,117.93,55.83,169.19,128.78,300.26,336.16,329.95,-131.71,-207.15,-273.72,55.83,128.78,169.19,0,113.36,0.29
nw_cut_3_0_opt_disp_struct_6.xyz,Nucleus 24N :,1.317049,-4.250775,3.073373,144.75,43.79,244.05,146.41,293.97,325.82,342.95,-283.8,-88.19,-156.51,43.79,146.41,244.05,0,200.26,0.02
nw_cut_3_0_opt_disp_struct_6.xyz,Nucleus 23O :,3.967254,-5.955753,0.959039,-105.94,318.77,-232.86,-403.73,334.13,380.53,427.23,-15.88,-614.87,-828.95,-403.73,-232.86,318.77,0,722.5,-0.53
nw_cut_3_0_opt_disp_struct_7.xyz,Nucleus 1H :,0.982328,-0.02557,-1.311663,29.02,34.95,23.37,28.75,40.37,26.61,28.88,-6.71,0.42,-2.49,23.37,28.75,34.95,0,11.58,-0.07
nw_cut_3_0_opt_disp_struct_7.xyz,Nucleus 2H :,1.771707,0.61666,-1.710182,29.0,35.33,24.4,27.27,45.81,25.23,27.37,-11.5,1.33,-1.25,24.4,27.27,35.33,0,10.93,-0.47
nw_cut_3_0_opt_disp_struct_7.xyz,Nucleus 6H :,1.202461,-1.054038,-1.622248,23.93,16.14,24.85,30.8,49.65,14.93,29.84,-19.32,1.51,-4.82,16.14,24.85,30.8,0,14.66,0.19
nw_cut_3_0_opt_disp_struct_7.xyz,Nucleus 10H :,0.891222,0.094839,0.166432,23.53,28.5,19.06,23.02,49.25,32.99,32.37,-4.09,-13.39,-26.56,19.06,23.02,28.5,0,9.44,-0.16
nw_cut_3_0_opt_disp_struct_7.xyz,Nucleus 12H :,1.662259,0.916021,0.965548,23.87,20.1,24.28,27.23,48.1,15.92,31.19,-23.96,4.34,-3.97,20.1,24.28,27.23,0,7.13,0.17
nw_cut_3_0_opt_disp_struct_7.xyz,Nucleus 14H :,1.27183,0.742475,2.265696,23.84,20.11,26.98,24.43,6.68,33.66,44.01,13.51,-6.72,-19.61,20.11,24.43,26.98,0,6.87,0.26
nw_cut_3_0_opt_disp_struct_7.xyz,Nucleus 16H :,1.685837,1.198359,3.059861,23.9,19.41,27.84,24.44,11.39,31.69,47.87,-23.55,8.14,-3.85,19.41,24.44,27.84,0,8.43,0.19
nw_cut_3_0_opt_disp_struct_7.xyz,Nucleus 17H :,0.2526,-0.177558,2.338011,24.18,20.59,25.08,26.88,44.68,28.32,31.14,-19.62,-7.55,-4.41,20.59,25.08,26.88,0,6.29,0.43
nw_cut_3_0_opt_disp_struct_7.xyz,Nucleus 18H :,-0.010346,-0.601031,1.034764,28.92,35.67,26.88,24.21,42.55,26.47,32.14,-0.14,-9.41,-4.85,24.21,26.88,35.67,0,11.46,-0.53
nw_cut_3_0_opt_disp_struct_7.xyz,Nucleus 20H :,-1.029398,-1.555115,0.833227,29.85,35.2,27.85,26.5,39.06,17.22,8.17,-4.16,10.46,18.79,26.5,27.85,35.2,0,8.7,-0.69
nw_cut_3_0_opt_disp_struct_7.xyz,Nucleus 21H :,-1.258298,-1.910092,-0.167205,30.2,25.54,31.35,33.71,23.84,40.58,33.72,-7.81,-1.83,2.1,25.54,31.35,33.71,0,8.17,0.42
nw_cut_3_0_opt_disp_struct_7.xyz,Nucleus 25H :,-1.740837,-2.049138,1.933043,27.91,35.58,21.88,26.27,31.78,44.34,49.65,-1.9,-22.0,-18.13,21.88,26.27,35.58,0,13.7,-0.36
nw_cut_3_0_opt_disp_struct_7.xyz,Nucleus 26H :,-2.517534,-2.789637,1.775415,27.95,35.37,23.13,25.36,40.98,34.2,31.72,-0.91,-12.56,-9.57,23.13,25.36,35.37,0,12.24,-0.63
nw_cut_3_0_opt_disp_struct_7.xyz,Nucleus 27H :,-1.45253,-1.606508,3.221457,29.74,34.28,27.84,27.1,38.15,14.98,21.2,13.6,6.33,-5.05,27.1,27.84,34.28,0,7.18,-0.79
nw_cut_3_0_opt_disp_struct_7.xyz,Nucleus 0C :,-2.007713,-2.000328,4.066833,172.71,160.72,169.2,188.21,235.84,240.8,257.03,-76.54,-72.98,-66.02,160.72,169.2,188.21,0,27.49,-0.38
nw_cut_3_0_opt_disp_struct_7.xyz,Nucleus 3C :,-0.449211,-0.660335,3.449438,63.06,149.13,52.58,-12.52,241.72,274.28,263.79,-92.64,-221.32,-276.65,-12.52,52.58,149.13,0,161.65,-0.19
nw_cut_3_0_opt_disp_struct_7.xyz,Nucleus 4C :,-0.214058,-0.328633,4.455248,55.65,-30.53,128.13,69.35,273.78,258.4,257.78,-294.56,-130.02,-198.44,-30.53,69.35,128.13,0,158.66,0.26
nw_cut_3_0_opt_disp_struct_7.xyz,Nucleus 7C :,2.451225,1.603407,0.697766,41.01,143.55,-39.65,19.13,273.28,268.49,265.01,-124.4,-312.71,-246.62,-39.65,19.13,143.55,0,183.2,-0.36
nw_cut_3_0_opt_disp_struct_7.xyz,Nucleus 8C :,0.041869,0.260419,-1.797473,49.66,171.42,1.08,-23.53,228.57,268.26,259.33,-57.52,-266.79,-282.87,-23.53,1.08,171.42,0,194.95,-0.75
nw_cut_3_0_opt_disp_struct_7.xyz,Nucleus 9C :,4.353009,-5.364872,1.72772,55.6,176.66,39.4,-49.25,248.24,271.92,266.09,-72.03,-230.9,-316.52,-49.25,39.4,176.66,0,225.91,-0.22
nw_cut_3_0_opt_disp_struct_7.xyz,Nucleus 11C :,5.284897,-5.644382,2.223346,55.88,176.56,-56.78,47.86,230.14,261.8,272.05,-53.81,-319.59,-222.96,-56.78,47.86,176.56,0,233.34,-0.1
nw_cut_3_0_opt_disp_struct_7.xyz,Nucleus 13C :,4.4857,-4.410624,1.209479,53.66,176.84,42.68,-58.53,221.42,274.6,255.63,-44.65,-231.91,-314.12,-58.53,42.68,176.84,0,235.37,-0.14
nw_cut_3_0_opt_disp_struct_7.xyz,Nucleus 15C :,3.238986,-5.343412,2.734902,65.32,171.86,50.61,-26.52,240.52,271.69,264.55,-68.92,-220.92,-290.97,-26.52,50.61,171.86,0,198.38,-0.22
nw_cut_3_0_opt_disp_struct_7.xyz,Nucleus 19C :,3.119028,-6.180562,3.621288,163.53,191.13,156.54,142.91,259.85,232.55,239.54,-67.53,-82.18,-91.65,142.91,156.54,191.13,0,48.22,-0.43
nw_cut_3_0_opt_disp_struct_7.xyz,Nucleus 22C :,2.341994,-4.329275,2.592401,3.78,-90.37,94.09,7.61,194.03,251.95,269.93,-100.09,-343.54,-260.96,-90.37,7.61,94.09,0,184.46,0.06
nw_cut_3_0_opt_disp_struct_7.xyz,Nucleus 5N :,2.324286,-3.829851,1.72646,118.1,56.12,169.13,129.05,300.29,336.12,329.89,-131.71,-206.86,-273.42,56.12,129.05,169.13,0,113.01,0.29
nw_cut_3_0_opt_disp_struct_7.xyz,Nucleus 24N :,1.484415,-4.434659,3.099356,144.86,44.43,243.85,146.31,294.26,326.42,342.92,-283.59,-87.88,-157.54,44.43,146.31,243.85,0,199.42,0.02
nw_cut_3_0_opt_disp_struct_7.xyz,Nucleus 23O :,4.13462,-6.139638,0.985022,-106.57,318.76,-233.59,-404.89,333.0,380.46,427.34,-14.73,-615.6,-830.2,-404.89,-233.59,318.76,0,723.65,-0.53
nw_cut_3_0_opt_disp_struct_8.xyz,Nucleus 1H :,0.982328,-0.02557,-1.311663,29.03,34.95,23.38,28.77,40.33,26.61,28.9,-6.66,0.41,-2.49,23.38,28.77,34.95,0,11.57,-0.07
nw_cut_3_0_opt_disp_struct_8.xyz,Nucleus 2H :,1.771707,0.61666,-1.710182,29.0,35.35,24.4,27.25,45.75,25.22,27.35,-11.42,1.38,-1.29,24.4,27.25,35.35,0,10.95,-0.48
nw_cut_3_0_opt_disp_struct_8.xyz,Nucleus 6H :,1.202461,-1.054038,-1.622248,23.94,16.14,24.87,30.81,49.6,14.94,29.89,-19.25,1.48,-4.84,16.14,24.87,30.81,0,14.67,0.19
nw_cut_3_0_opt_disp_struct_8.xyz,Nucleus 10H :,0.891222,0.094839,0.166432,23.53,28.53,19.04,23.01,49.09,32.83,32.39,-3.97,-13.39,-26.37,19.04,23.01,28.53,0,9.49,-0.16
nw_cut_3_0_opt_disp_struct_8.xyz,Nucleus 12H :,1.662259,0.916021,0.965548,23.88,20.09,24.28,27.26,47.99,15.87,31.13,-23.83,4.35,-3.89,20.09,24.28,27.26,0,7.17,0.17
nw_cut_3_0_opt_disp_struct_8.xyz,Nucleus 14H :,1.27183,0.742475,2.265696,23.84,20.09,27.02,24.42,6.64,33.58,44.01,13.52,-6.61,-19.61,20.09,24.42,27.02,0,6.93,0.25
nw_cut_3_0_opt_disp_struct_8.xyz,Nucleus 16H :,1.685837,1.198359,3.059861,23.9,19.4,27.87,24.44,11.42,31.73,47.74,-23.4,8.09,-3.86,19.4,24.44,27.87,0,8.47,0.19
nw_cut_3_0_opt_disp_struct_8.xyz,Nucleus 17H :,0.2526,-0.177558,2.338011,24.19,20.6,25.08,26.9,44.67,28.32,31.14,-19.59,-7.56,-4.39,20.6,25.08,26.9,0,6.3,0.42
nw_cut_3_0_opt_disp_struct_8.xyz,Nucleus 18H :,-0.010346,-0.601031,1.034764,28.92,35.66,26.89,24.22,42.55,26.43,32.13,-0.1,-9.4,-4.83,24.22,26.89,35.66,0,11.44,-0.53
nw_cut_3_0_opt_disp_struct_8.xyz,Nucleus 20H :,-1.029398,-1.555115,0.833227,29.82,35.13,27.85,26.49,38.96,17.02,7.47,-4.16,10.66,19.51,26.49,27.85,35.13,0,8.64,-0.68
nw_cut_3_0_opt_disp_struct_8.xyz,Nucleus 21H :,-1.258298,-1.910092,-0.167205,30.16,25.57,31.19,33.71,23.7,40.89,33.46,-8.16,-1.7,2.29,25.57,31.19,33.71,0,8.14,0.38
nw_cut_3_0_opt_disp_struct_8.xyz,Nucleus 25H :,-1.740837,-2.049138,1.933043,27.77,35.04,21.98,26.28,31.96,45.46,49.54,-2.16,-23.16,-18.34,21.98,26.28,35.04,0,13.06,-0.34
nw_cut_3_0_opt_disp_struct_8.xyz,Nucleus 26H :,-2.517534,-2.789637,1.775415,27.84,35.17,23.23,25.12,41.62,34.28,32.29,-1.28,-13.0,-10.4,23.23,25.12,35.17,0,11.94,-0.68
nw_cut_3_0_opt_disp_struct_8.xyz,Nucleus 27H :,-1.45253,-1.606508,3.221457,29.71,34.24,27.78,27.11,38.14,14.36,21.06,14.22,6.48,-5.13,27.11,27.78,34.24,0,7.13,-0.81
nw_cut_3_0_opt_disp_struct_8.xyz,Nucleus 0C :,-2.007713,-2.000328,4.066833,172.71,160.73,169.18,188.22,235.78,240.76,256.98,-76.47,-72.94,-65.98,160.73,169.18,188.22,0,27.49,-0.39
nw_cut_3_0_opt_disp_struct_8.xyz,Nucleus 3C :,-0.449211,-0.660335,3.449438,63.02,149.1,52.55,-12.6,241.58,274.05,263.72,-92.53,-221.08,-276.68,-12.6,52.55,149.1,0,161.7,-0.19
nw_cut_3_0_opt_disp_struct_8.xyz,Nucleus 4C :,-0.214058,-0.328633,4.455248,55.73,-30.43,128.1,69.52,273.64,258.28,257.94,-294.45,-130.06,-198.16,-30.43,69.52,128.1,0,158.53,0.26
nw_cut_3_0_opt_disp_struct_8.xyz,Nucleus 7C :,2.451225,1.603407,0.697766,41.03,143.48,-39.62,19.22,273.0,268.28,264.96,-124.3,-312.38,-246.49,-39.62,19.22,143.48,0,183.1,-0.36
nw_cut_3_0_opt_disp_struct_8.xyz,Nucleus 8C :,0.041869,0.260419,-1.797473,49.61,171.34,1.08,-23.6,228.55,267.84,259.36,-57.55,-266.4,-282.96,-23.6,1.08,171.34,0,194.94,-0.75
nw_cut_3_0_opt_disp_struct_8.xyz,Nucleus 9C :,4.520374,-5.548757,1.753703,55.53,176.57,39.38,-49.35,248.21,271.63,265.64,-71.99,-230.68,-316.22,-49.35,39.38,176.57,0,225.92,-0.21
nw_cut_3_0_opt_disp_struct_8.xyz,Nucleus 11C :,5.452263,-5.828266,2.249329,55.88,176.45,-56.78,47.96,230.11,261.72,271.74,-53.85,-319.41,-222.68,-56.78,47.96,176.45,0,233.23,-0.1
nw_cut_3_0_opt_disp_struct_8.xyz,Nucleus 13C :,4.653066,-4.594509,1.235462,53.62,176.73,42.73,-58.59,221.41,274.29,255.68,-44.74,-231.55,-314.23,-58.59,42.73,176.73,0,235.32,-0.14
nw_cut_3_0_opt_disp_struct_8.xyz,Nucleus 15C :,3.406352,-5.527296,2.760885,65.44,171.76,50.91,-26.35,240.58,271.55,264.3,-69.06,-220.47,-290.59,-26.35,50.91,171.76,0,198.11,-0.22
nw_cut_3_0_opt_disp_struct_8.xyz,Nucleus 19C :,3.286394,-6.364447,3.647271,163.48,191.11,156.41,142.93,260.21,232.12,239.16,-67.84,-81.94,-91.26,142.93,156.41,191.11,0,48.18,-0.44
nw_cut_3_0_opt_disp_struct_8.xyz,Nucleus 22C :,2.50936,-4.51316,2.618384,3.75,-90.59,94.11,7.74,193.24,251.99,269.96,-99.28,-343.74,-260.9,-90.59,7.74,94.11,0,184.7,0.06
nw_cut_3_0_opt_disp_struct_8.xyz,Nucleus 5N :,2.491652,-4.013735,1.752443,118.24,56.36,169.07,129.28,300.29,336.08,329.83,-131.69,-206.61,-273.18,56.36,129.28,169.07,0,112.71,0.29
nw_cut_3_0_opt_disp_struct_8.xyz,Nucleus 24N :,1.651781,-4.618544,3.125339,144.95,44.92,243.66,146.27,294.49,326.95,342.93,-283.47,-87.62,-158.43,44.92,146.27,243.66,0,198.74,0.02
nw_cut_3_0_opt_disp_struct_8.xyz,Nucleus 23O :,4.301986,-6.323522,1.011004,-107.08,318.77,-234.17,-405.83,332.05,380.38,427.43,-13.73,-616.16,-831.2,-405.83,-234.17,318.77,0,724.6,-0.53
nw_cut_3_0_opt_disp_struct_9.xyz,Nucleus 1H :,0.982328,-0.02557,-1.311663,29.04,34.95,23.38,28.79,40.3,26.61,28.92,-6.62,0.4,-2.49,23.38,28.79,34.95,0,11.57,-0.06
nw_cut_3_0_opt_disp_struct_9.xyz,Nucleus 2H :,1.771707,0.61666,-1.710182,29.0,35.37,24.39,27.24,45.7,25.21,27.34,-11.35,1.43,-1.31,24.39,27.24,35.37,0,10.98,-0.48
nw_cut_3_0_opt_disp_struct_9.xyz,Nucleus 6H :,1.202461,-1.054038,-1.622248,23.95,16.14,24.89,30.82,49.55,14.94,29.92,-19.17,1.46,-4.85,16.14,24.89,30.82,0,14.68,0.19
nw_cut_3_0_opt_disp_struct_9.xyz,Nucleus 10H :,0.891222,0.094839,0.166432,23.52,28.55,19.02,23.0,48.92,32.72,32.36,-3.86,-13.38,-26.19,19.02,23.0,28.55,0,9.53,-0.16
nw_cut_3_0_opt_disp_struct_9.xyz,Nucleus 12H :,1.662259,0.916021,0.965548,23.87,20.07,24.27,27.28,47.87,15.82,31.09,-23.7,4.37,-3.82,20.07,24.27,27.28,0,7.21,0.17
nw_cut_3_0_opt_disp_struct_9.xyz,Nucleus 14H :,1.27183,0.742475,2.265696,23.85,20.07,27.06,24.42,6.6,33.5,44.01,13.53,-6.5,-19.6,20.07,24.42,27.06,0,6.99,0.24
nw_cut_3_0_opt_disp_struct_9.xyz,Nucleus 16H :,1.685837,1.198359,3.059861,23.91,19.39,27.9,24.45,11.44,31.76,47.61,-23.26,8.04,-3.87,19.39,24.45,27.9,0,8.51,0.19
nw_cut_3_0_opt_disp_struct_9.xyz,Nucleus 17H :,0.2526,-0.177558,2.338011,24.2,20.6,25.08,26.92,44.65,28.31,31.14,-19.57,-7.56,-4.37,20.6,25.08,26.92,0,6.32,0.42
nw_cut_3_0_opt_disp_struct_9.xyz,Nucleus 18H :,-0.010346,-0.601031,1.034764,28.93,35.65,26.9,24.23,42.55,26.4,32.12,-0.06,-9.4,-4.82,24.23,26.9,35.65,0,11.42,-0.53
nw_cut_3_0_opt_disp_struct_9.xyz,Nucleus 20H :,-1.029398,-1.555115,0.833227,29.79,35.06,27.85,26.47,38.87,16.81,6.76,-4.15,10.88,20.21,26.47,27.85,35.06,0,8.59,-0.68
nw_cut_3_0_opt_disp_struct_9.xyz,Nucleus 21H :,-1.258298,-1.910092,-0.167205,30.13,25.61,31.05,33.72,41.2,33.21,23.52,-8.51,-1.57,2.53,25.61,31.05,33.72,0,8.11,0.34
nw_cut_3_0_opt_disp_struct_9.xyz,Nucleus 25H :,-1.740837,-2.049138,1.933043,27.65,34.59,22.06,26.29,32.07,46.41,49.59,-2.34,-24.23,-18.56,22.06,26.29,34.59,0,12.53,-0.33
nw_cut_3_0_opt_disp_struct_9.xyz,Nucleus 26H :,-2.517534,-2.789637,1.775415,27.74,35.02,23.31,24.89,42.2,34.84,32.4,-1.59,-13.48,-11.17,23.31,24.89,35.02,0,11.71,-0.73
nw_cut_3_0_opt_disp_struct_9.xyz,Nucleus 27H :,-1.45253,-1.606508,3.221457,29.69,34.21,27.73,27.12,38.12,13.76,20.9,14.84,6.64,-5.19,27.12,27.73,34.21,0,7.09,-0.83
nw_cut_3_0_opt_disp_struct_9.xyz,Nucleus 0C :,-2.007713,-2.000328,4.066833,172.71,160.74,169.16,188.23,235.72,240.73,256.94,-76.41,-72.92,-65.95,160.74,169.16,188.23,0,27.49,-0.39
nw_cut_3_0_opt_disp_struct_9.xyz,Nucleus 3C :,-0.449211,-0.660335,3.449438,62.98,149.08,52.53,-12.66,241.48,273.87,263.65,-92.46,-220.88,-276.72,-12.66,52.53,149.08,0,161.74,-0.19
nw_cut_3_0_opt_disp_struct_9.xyz,Nucleus 4C :,-0.214058,-0.328633,4.455248,55.8,-30.34,128.07,69.67,273.54,258.16,258.09,-294.37,-130.11,-197.91,-30.34,69.67,128.07,0,158.41,0.26
nw_cut_3_0_opt_disp_struct_9.xyz,Nucleus 7C :,2.451225,1.603407,0.697766,41.03,143.41,-39.6,19.29,272.76,268.14,264.89,-124.23,-312.07,-246.39,-39.6,19.29,143.41,0,183.01,-0.36
nw_cut_3_0_opt_disp_struct_9.xyz,Nucleus 8C :,0.041869,0.260419,-1.797473,49.57,171.27,1.08,-23.65,228.52,267.4,259.39,-57.57,-266.01,-283.04,-23.65,1.08,171.27,0,194.92,-0.75
nw_cut_3_0_opt_disp_struct_9.xyz,Nucleus 9C :,4.68774,-5.732642,1.779686,55.47,176.49,39.35,-49.43,248.15,271.4,265.29,-71.96,-230.54,-315.94,-49.43,39.35,176.49,0,225.92,-0.21
nw_cut_3_0_opt_disp_struct_9.xyz,Nucleus 11C :,5.619628,-6.012151,2.275312,55.87,176.35,-56.77,48.02,230.06,261.63,271.5,-53.88,-319.24,-222.46,-56.77,48.02,176.35,0,233.12,-0.1
nw_cut_3_0_opt_disp_struct_9.xyz,Nucleus 13C :,4.820432,-4.778394,1.261445,53.59,176.63,42.79,-58.64,221.38,274.01,255.72,-44.8,-231.22,-314.31,-58.64,42.79,176.63,0,235.27,-0.14
nw_cut_3_0_opt_disp_struct_9.xyz,Nucleus 15C :,3.573718,-5.711181,2.786868,65.53,171.66,51.14,-26.22,240.61,271.47,264.09,-69.17,-220.12,-290.28,-26.22,51.14,171.66,0,197.88,-0.22
nw_cut_3_0_opt_disp_struct_9.xyz,Nucleus 19C :,3.453759,-6.548331,3.673254,163.44,191.09,156.29,142.95,260.56,231.65,238.77,-68.12,-81.69,-90.83,142.95,156.29,191.09,0,48.14,-0.45
nw_cut_3_0_opt_disp_struct_9.xyz,Nucleus 22C :,2.676726,-4.697045,2.644367,3.73,-90.79,94.13,7.85,192.44,252.01,270.01,-98.47,-343.9,-260.89,-90.79,7.85,94.13,0,184.92,0.07
nw_cut_3_0_opt_disp_struct_9.xyz,Nucleus 5N :,2.659018,-4.19762,1.778426,118.35,56.56,169.02,129.48,300.28,336.03,329.78,-131.66,-206.38,-272.99,56.56,129.48,169.02,0,112.46,0.3
nw_cut_3_0_opt_disp_struct_9.xyz,Nucleus 24N :,1.819146,-4.802429,3.151322,145.06,45.38,243.5,146.31,294.72,327.44,343.0,-283.35,-87.36,-159.27,45.38,146.31,243.5,0,198.12,0.02
nw_cut_3_0_opt_disp_struct_9.xyz,Nucleus 23O :,4.469351,-6.507407,1.036987,-107.5,318.79,-234.66,-406.63,331.32,380.29,427.5,-12.95,-616.61,-832.04,-406.63,-234.66,318.79,0,725.42,-0.53
ny_cut_3_0_opt.xyz,Nucleus 1H :,1.215353,0.309458,0.200166,28.59,33.91,26.57,25.3,44.03,26.6,24.91,-11.27,0.92,0.59,25.3,26.57,33.91,0,8.61,-0.7
ny_cut_3_0_opt.xyz,Nucleus 2H :,1.811719,1.063099,0.731106,29.26,34.71,28.83,24.25,40.62,28.75,31.02,0.05,-6.9,-5.76,24.25,28.83,34.71,0,10.46,-0.12
ny_cut_3_0_opt.xyz,Nucleus 5H :,1.545731,0.303011,-0.841072,23.83,28.07,22.79,20.64,47.94,31.86,29.46,-26.17,-2.73,-8.87,20.64,22.79,28.07,0,7.43,-0.42
ny_cut_3_0_opt.xyz,Nucleus 7H :,-0.253096,0.597295,0.303224,24.29,27.54,23.98,21.35,48.16,30.75,17.81,-24.56,-3.32,4.03,21.35,23.98,27.54,0,6.19,-0.15
ny_cut_3_0_opt.xyz,Nucleus 10H :,-0.944755,1.127923,-0.793726,24.45,28.04,23.52,21.78,49.11,33.15,23.42,-26.07,-5.69,-0.59,21.78,23.52,28.04,0,6.26,-0.45
ny_cut_3_0_opt.xyz,Nucleus 12H :,-0.412584,1.353563,-1.712296,23.7,28.34,20.45,22.31,48.67,31.19,28.57,-27.26,-2.86,-7.2,20.45,22.31,28.34,0,7.89,-0.53
ny_cut_3_0_opt.xyz,Nucleus 14H :,-2.316425,1.372658,-0.712213,27.15,36.22,25.63,19.61,47.46,30.27,11.2,8.76,-4.67,-11.56,19.61,25.63,36.22,0,16.61,-0.27
ny_cut_3_0_opt.xyz,Nucleus 15H :,-2.865496,1.783522,-1.553102,28.97,34.87,28.01,24.02,41.74,31.29,27.65,-0.4,-5.18,-8.21,24.02,28.01,34.87,0,10.85,-0.27
ny_cut_3_0_opt.xyz,Nucleus 17H :,-2.999153,1.080834,0.461842,30.08,35.7,27.93,26.6,39.46,17.17,8.33,-4.3,11.01,18.57,26.6,27.93,35.7,0,9.1,-0.71
ny_cut_3_0_opt.xyz,Nucleus 18H :,-2.333376,0.541148,1.55732,30.27,25.51,33.08,32.21,38.76,26.31,12.85,-6.22,6.17,12.94,25.51,32.21,33.08,0,7.57,0.77
ny_cut_3_0_opt.xyz,Nucleus 22H :,-2.87247,0.325383,2.476331,26.4,42.4,21.41,15.38,26.4,36.71,46.38,-18.72,-8.85,-2.72,15.38,21.41,42.4,0,27.02,-0.55
ny_cut_3_0_opt.xyz,Nucleus 23H :,-0.960708,0.294763,1.474288,26.86,21.92,16.42,42.23,52.08,23.24,31.27,1.54,-12.53,-15.03,16.42,21.92,42.23,0,25.81,-0.57
ny_cut_3_0_opt.xyz,Nucleus 24H :,-0.435582,-0.117065,2.330331,29.94,34.55,27.06,28.2,38.82,17.0,13.73,-4.91,10.24,14.93,27.06,28.2,34.55,0,7.49,-0.7
ny_cut_3_0_opt.xyz,Nucleus 0C :,-4.337877,1.337775,0.500071,162.12,188.59,140.77,156.99,254.48,242.25,238.37,-65.11,-101.83,-81.8,140.77,156.99,188.59,0,47.82,-0.32
ny_cut_3_0_opt.xyz,Nucleus 3C :,-4.692616,1.0495,1.348451,40.76,176.82,-62.65,8.11,241.74,258.99,275.36,-65.15,-321.78,-266.88,-62.65,8.11,176.82,0,239.47,-0.41
ny_cut_3_0_opt.xyz,Nucleus 4C :,1.459394,-0.661423,0.641266,38.87,-72.2,31.27,157.55,272.93,260.44,244.79,-334.33,-239.38,-87.83,-72.2,31.27,157.55,0,229.75,-0.1
ny_cut_3_0_opt.xyz,Nucleus 6C :,-2.120609,5.146859,2.15559,59.36,-30.67,41.3,167.44,230.07,261.38,273.87,-63.12,-230.11,-294.01,-30.67,41.3,167.44,0,198.11,-0.27
ny_cut_3_0_opt.xyz,Nucleus 8C :,-1.922079,5.720396,3.062948,19.01,-73.74,119.95,10.83,236.76,260.69,272.24,-116.97,-334.46,-261.22,-73.74,10.83,119.95,0,193.69,-0.13
ny_cut_3_0_opt.xyz,Nucleus 9C :,-3.029742,4.553606,2.288044,54.97,-38.52,47.55,155.89,277.77,264.66,240.67,-307.23,-226.11,-84.82,-38.52,47.55,155.89,0,194.41,-0.11
ny_cut_3_0_opt.xyz,Nucleus 11C :,-0.915915,4.317737,1.813694,35.76,-76.71,21.32,162.67,272.37,262.38,246.03,-339.55,-250.47,-83.49,-76.71,21.32,162.67,0,239.38,-0.18
ny_cut_3_0_opt.xyz,Nucleus 16C :,0.234815,4.715167,1.949086,163.91,191.45,157.66,142.62,257.26,232.26,223.43,-65.21,-73.34,-82.68,142.62,157.66,191.45,0,48.83,-0.38
ny_cut_3_0_opt.xyz,Nucleus 19C :,-1.183094,3.077793,1.318494,3.71,-85.43,1.66,94.9,269.19,256.03,215.03,-346.59,-262.1,-120.44,-85.43,1.66,94.9,0,180.33,-0.03
ny_cut_3_0_opt.xyz,Nucleus 21N :,-2.087372,2.932495,0.91775,135.23,4.22,165.59,235.87,303.43,320.69,342.35,-316.1,-146.02,-98.66,4.22,165.59,235.87,0,231.65,0.39
ny_cut_3_0_opt.xyz,Nucleus 13O :,-0.406318,2.64506,0.856513,209.37,254.85,212.48,160.78,334.74,406.94,389.95,-121.69,-149.5,-232.34,160.78,212.48,254.85,0,94.07,0.1
ny_cut_3_0_opt.xyz,Nucleus 20O :,-2.289186,5.865373,1.346156,-94.87,-380.89,-219.82,316.11,425.23,389.92,393.06,-805.36,-610.49,-76.98,-380.89,-219.82,316.11,0,697.0,-0.54
ny_cut_3_0_opt_disp_struct_0.xyz,Nucleus 1H :,1.215353,0.309458,0.200166,28.66,34.04,26.7,25.25,44.37,26.69,25.61,-11.48,1.04,-0.23,25.25,26.7,34.04,0,8.79,-0.67
ny_cut_3_0_opt_disp_struct_0.xyz,Nucleus 2H :,1.811719,1.063099,0.731106,29.29,34.71,28.86,24.3,40.92,29.13,31.27,-0.24,-7.13,-6.09,24.3,28.86,34.71,0,10.41,-0.12
ny_cut_3_0_opt_disp_struct_0.xyz,Nucleus 5H :,1.545731,0.303011,-0.841072,23.92,27.96,23.02,20.77,48.14,31.97,29.93,-26.06,-3.44,-8.79,20.77,23.02,27.96,0,7.19,-0.38
ny_cut_3_0_opt_disp_struct_0.xyz,Nucleus 7H :,-0.253096,0.597295,0.303224,24.35,27.42,24.22,21.42,48.25,30.96,17.89,-24.41,-3.64,4.02,21.42,24.22,27.42,0,6.0,-0.07
ny_cut_3_0_opt_disp_struct_0.xyz,Nucleus 10H :,-0.944755,1.127923,-0.793726,24.55,27.9,23.89,21.86,49.27,33.0,23.39,-25.83,-5.61,-0.57,21.86,23.89,27.9,0,6.04,-0.33
ny_cut_3_0_opt_disp_struct_0.xyz,Nucleus 12H :,-0.412584,1.353563,-1.712296,23.82,28.22,22.63,20.62,49.0,31.6,28.61,-27.16,-3.38,-7.2,20.62,22.63,28.22,0,7.6,-0.47
ny_cut_3_0_opt_disp_struct_0.xyz,Nucleus 14H :,-2.316425,1.372658,-0.712213,27.26,36.31,25.82,19.64,47.49,30.41,11.27,8.71,-4.6,-11.52,19.64,25.82,36.31,0,16.67,-0.26
ny_cut_3_0_opt_disp_struct_0.xyz,Nucleus 15H :,-2.865496,1.783522,-1.553102,29.0,34.91,28.04,24.05,41.86,31.6,28.12,-0.74,-5.46,-8.4,24.05,28.04,34.91,0,10.86,-0.27
ny_cut_3_0_opt_disp_struct_0.xyz,Nucleus 17H :,-2.999153,1.080834,0.461842,29.98,35.57,27.85,26.53,39.2,16.84,7.17,-4.19,11.24,19.68,26.53,27.85,35.57,0,9.04,-0.71
ny_cut_3_0_opt_disp_struct_0.xyz,Nucleus 18H :,-2.333376,0.541148,1.55732,30.18,25.44,33.1,32.0,38.92,26.12,11.93,-6.35,6.08,13.84,25.44,32.0,33.1,0,7.66,0.71
ny_cut_3_0_opt_disp_struct_0.xyz,Nucleus 22H :,-2.87247,0.325383,2.476331,27.6,40.38,24.01,18.41,26.42,39.12,43.36,-16.84,-7.62,-1.64,18.41,24.01,40.38,0,21.97,-0.49
ny_cut_3_0_opt_disp_struct_0.xyz,Nucleus 23H :,-0.960708,0.294763,1.474288,28.0,24.31,19.45,40.23,50.11,27.25,35.41,-1.5,-11.4,-15.87,19.45,24.31,40.23,0,20.78,-0.53
ny_cut_3_0_opt_disp_struct_0.xyz,Nucleus 24H :,-0.435582,-0.117065,2.330331,29.85,34.48,26.99,28.09,38.66,16.8,12.66,-4.87,10.36,15.96,26.99,28.09,34.48,0,7.49,-0.7
ny_cut_3_0_opt_disp_struct_0.xyz,Nucleus 0C :,-4.337877,1.337775,0.500071,162.2,188.95,140.81,156.85,254.69,242.72,239.56,-65.08,-102.21,-83.07,140.81,156.85,188.95,0,48.14,-0.33
ny_cut_3_0_opt_disp_struct_0.xyz,Nucleus 3C :,-4.692616,1.0495,1.348451,42.43,176.58,-60.32,11.04,240.93,260.0,275.09,-64.61,-320.4,-263.72,-60.32,11.04,176.58,0,236.9,-0.4
ny_cut_3_0_opt_disp_struct_0.xyz,Nucleus 4C :,1.459394,-0.661423,0.641266,40.9,-68.75,33.9,157.56,273.24,260.35,243.86,-330.81,-237.21,-86.71,-68.75,33.9,157.56,0,226.31,-0.09
ny_cut_3_0_opt_disp_struct_0.xyz,Nucleus 6C :,-2.075073,5.378175,2.238773,61.15,-27.84,43.85,167.43,228.72,261.91,273.35,-61.65,-227.58,-291.32,-27.84,43.85,167.43,0,195.27,-0.27
ny_cut_3_0_opt_disp_struct_0.xyz,Nucleus 8C :,-1.876543,5.951712,3.146131,19.93,-71.59,119.91,11.47,236.29,261.35,271.15,-116.48,-333.07,-259.46,-71.59,11.47,119.91,0,191.5,-0.13
ny_cut_3_0_opt_disp_struct_0.xyz,Nucleus 9C :,-2.984206,4.784922,2.371226,57.94,-33.63,51.53,155.92,239.38,265.17,277.52,-302.52,-222.23,-83.49,-33.63,51.53,155.92,0,189.55,-0.1
ny_cut_3_0_opt_disp_struct_0.xyz,Nucleus 11C :,-0.870378,4.549053,1.896877,38.77,-71.79,25.33,162.76,273.01,262.64,245.13,-334.88,-247.11,-82.5,-71.79,25.33,162.76,0,234.55,-0.17
ny_cut_3_0_opt_disp_struct_0.xyz,Nucleus 16C :,0.280351,4.946483,2.032269,163.8,191.51,157.15,142.74,257.52,231.73,222.25,-65.16,-73.17,-81.77,142.74,157.15,191.51,0,48.77,-0.41
ny_cut_3_0_opt_disp_struct_0.xyz,Nucleus 19C :,-1.137558,3.309109,1.401676,2.83,-87.82,1.74,94.56,268.99,256.34,213.67,-348.65,-262.42,-119.46,-87.82,1.74,94.56,0,182.38,-0.02
ny_cut_3_0_opt_disp_struct_0.xyz,Nucleus 21N :,-2.041836,3.163811,1.000933,140.1,22.91,156.86,240.53,304.5,319.71,340.6,-296.59,-155.07,-92.86,22.91,156.86,240.53,0,217.62,0.23
ny_cut_3_0_opt_disp_struct_0.xyz,Nucleus 13O :,-0.360782,2.876376,0.939696,210.75,256.51,212.48,163.25,334.75,407.24,390.69,-121.77,-148.02,-230.64,163.25,212.48,256.51,0,93.26,0.06
ny_cut_3_0_opt_disp_struct_0.xyz,Nucleus 20O :,-2.24365,6.096689,1.429339,-101.91,-393.65,-227.76,315.68,425.3,389.02,391.28,-818.26,-617.44,-75.62,-393.65,-227.76,315.68,0,709.33,-0.53
ny_cut_3_0_opt_disp_struct_1.xyz,Nucleus 1H :,1.215353,0.309458,0.200166,28.71,34.13,26.76,25.24,44.62,26.74,26.03,-11.62,1.09,-0.73,25.24,26.76,34.13,0,8.89,-0.66
ny_cut_3_0_opt_disp_struct_1.xyz,Nucleus 2H :,1.811719,1.063099,0.731106,29.31,34.69,28.89,24.34,41.09,31.47,29.33,-0.4,-7.24,-6.31,24.34,28.89,34.69,0,10.35,-0.12
ny_cut_3_0_opt_disp_struct_1.xyz,Nucleus 5H :,1.545731,0.303011,-0.841072,23.95,27.93,23.04,20.87,48.19,32.08,30.24,-25.99,-3.94,-8.75,20.87,23.04,27.93,0,7.06,-0.39
ny_cut_3_0_opt_disp_struct_1.xyz,Nucleus 7H :,-0.253096,0.597295,0.303224,24.37,27.39,24.26,21.47,48.23,31.21,17.71,-24.32,-3.93,4.23,21.47,24.26,27.39,0,5.92,-0.06
ny_cut_3_0_opt_disp_struct_1.xyz,Nucleus 10H :,-0.944755,1.127923,-0.793726,24.6,27.85,24.03,21.92,49.27,32.96,23.46,-25.65,-5.58,-0.68,21.92,24.03,27.85,0,5.93,-0.29
ny_cut_3_0_opt_disp_struct_1.xyz,Nucleus 12H :,-0.412584,1.353563,-1.712296,23.88,28.18,22.74,20.72,49.1,31.87,28.68,-27.07,-3.66,-7.29,20.72,22.74,28.18,0,7.46,-0.46
ny_cut_3_0_opt_disp_struct_1.xyz,Nucleus 14H :,-2.316425,1.372658,-0.712213,27.31,36.32,25.95,19.67,47.54,30.48,11.31,8.67,-4.54,-11.52,19.67,25.95,36.32,0,16.65,-0.25
ny_cut_3_0_opt_disp_struct_1.xyz,Nucleus 15H :,-2.865496,1.783522,-1.553102,29.01,34.9,28.07,24.07,41.91,31.81,28.4,-0.91,-5.65,-8.52,24.07,28.07,34.9,0,10.83,-0.26
ny_cut_3_0_opt_disp_struct_1.xyz,Nucleus 17H :,-2.999153,1.080834,0.461842,29.92,35.45,27.82,26.48,38.99,16.56,6.22,-4.12,11.48,20.62,26.48,27.82,35.45,0,8.97,-0.7
ny_cut_3_0_opt_disp_struct_1.xyz,Nucleus 18H :,-2.333376,0.541148,1.55732,30.12,25.43,33.16,31.77,39.11,25.96,11.38,-6.53,6.0,14.44,25.43,31.77,33.16,0,7.73,0.64
ny_cut_3_0_opt_disp_struct_1.xyz,Nucleus 22H :,-2.87247,0.325383,2.476331,28.05,38.72,25.39,20.04,26.81,41.32,40.99,-16.88,-7.04,-1.05,20.04,25.39,38.72,0,18.68,-0.43
ny_cut_3_0_opt_disp_struct_1.xyz,Nucleus 23H :,-0.960708,0.294763,1.474288,28.4,38.75,25.34,21.11,29.55,48.58,37.99,-3.54,-10.68,-16.72,21.11,25.34,38.75,0,17.64,-0.52
ny_cut_3_0_opt_disp_struct_1.xyz,Nucleus 24H :,-0.435582,-0.117065,2.330331,29.8,34.42,26.97,28.0,38.54,16.65,11.78,-4.87,10.48,16.81,26.97,28.0,34.42,0,7.45,-0.72
ny_cut_3_0_opt_disp_struct_1.xyz,Nucleus 0C :,-4.337877,1.337775,0.500071,162.2,189.09,140.78,156.73,254.81,242.97,240.21,-65.09,-102.49,-83.8,140.78,156.73,189.09,0,48.31,-0.34
ny_cut_3_0_opt_disp_struct_1.xyz,Nucleus 3C :,-4.692616,1.0495,1.348451,43.29,176.29,-59.27,12.85,240.43,260.79,274.69,-64.41,-320.1,-261.54,-59.27,12.85,176.29,0,235.56,-0.39
ny_cut_3_0_opt_disp_struct_1.xyz,Nucleus 4C :,1.459394,-0.661423,0.641266,42.02,-67.06,35.75,157.38,273.38,260.55,243.47,-329.23,-235.75,-86.34,-67.06,35.75,157.38,0,224.44,-0.08
ny_cut_3_0_opt_disp_struct_1.xyz,Nucleus 6C :,-2.029537,5.609491,2.321955,62.06,-26.62,45.57,167.24,227.83,262.3,272.93,-60.81,-225.91,-290.14,-26.62,45.57,167.24,0,193.86,-0.26
ny_cut_3_0_opt_disp_struct_1.xyz,Nucleus 8C :,-1.831007,6.183028,3.229313,20.32,-70.68,119.72,11.93,235.93,261.82,270.3,-116.27,-332.71,-258.1,-70.68,11.93,119.72,0,190.4,-0.13
ny_cut_3_0_opt_disp_struct_1.xyz,Nucleus 9C :,-2.93867,5.016238,2.454409,59.82,-30.79,54.5,155.76,238.26,265.4,277.05,-299.54,-219.19,-82.51,-30.79,54.5,155.76,0,186.55,-0.09
ny_cut_3_0_opt_disp_struct_1.xyz,Nucleus 11C :,-0.824842,4.780369,1.980059,40.66,-68.91,28.3,162.6,273.3,262.63,244.4,-331.94,-244.48,-81.92,-68.91,28.3,162.6,0,231.51,-0.16
ny_cut_3_0_opt_disp_struct_1.xyz,Nucleus 16C :,0.325887,5.177799,2.115452,163.71,191.51,156.8,142.81,257.78,231.23,221.36,-65.16,-72.92,-81.16,142.81,156.8,191.51,0,48.7,-0.43
ny_cut_3_0_opt_disp_struct_1.xyz,Nucleus 19C :,-1.092022,3.540425,1.484859,2.46,-89.23,2.22,94.39,269.03,256.68,212.63,-349.83,-262.49,-118.64,-89.23,2.22,94.39,0,183.62,-0.0
ny_cut_3_0_opt_disp_struct_1.xyz,Nucleus 21N :,-1.9963,3.395127,1.084116,142.68,33.38,152.06,242.6,304.07,318.45,339.93,-284.99,-160.1,-89.31,33.38,152.06,242.6,0,209.22,0.13
ny_cut_3_0_opt_disp_struct_1.xyz,Nucleus 13O :,-0.315246,3.107692,1.022879,211.29,257.33,212.41,164.13,334.71,407.42,390.93,-121.86,-147.34,-230.0,164.13,212.41,257.33,0,93.2,0.04
ny_cut_3_0_opt_disp_struct_1.xyz,Nucleus 20O :,-2.198114,6.328005,1.512521,-106.28,-401.57,-232.69,315.41,425.37,388.31,389.53,-826.28,-621.64,-74.13,-401.57,-232.69,315.41,0,716.98,-0.53
ny_cut_3_0_opt_disp_struct_10.xyz,Nucleus 1H :,1.215353,0.309458,0.200166,28.85,34.51,26.66,25.37,44.6,25.92,26.62,-11.11,1.09,-0.58,25.37,26.66,34.51,0,9.14,-0.72
ny_cut_3_0_opt_disp_struct_10.xyz,Nucleus 2H :,1.811719,1.063099,0.731106,29.35,34.52,29.05,24.48,40.68,31.72,28.72,-0.1,-6.81,-6.15,24.48,29.05,34.52,0,10.04,-0.09
ny_cut_3_0_opt_disp_struct_10.xyz,Nucleus 5H :,1.545731,0.303011,-0.841072,23.96,28.18,22.55,21.15,47.16,31.92,29.91,-24.82,-3.73,-8.56,21.15,22.55,28.18,0,7.03,-0.6
ny_cut_3_0_opt_disp_struct_10.xyz,Nucleus 7H :,-0.253096,0.597295,0.303224,24.37,27.66,23.96,21.48,46.97,31.35,16.53,-23.07,-3.74,5.05,21.48,23.96,27.66,0,6.18,-0.2
ny_cut_3_0_opt_disp_struct_10.xyz,Nucleus 10H :,-0.944755,1.127923,-0.793726,24.69,28.12,24.0,21.95,47.83,32.99,23.93,-23.92,-5.05,-1.71,21.95,24.0,28.12,0,6.17,-0.34
ny_cut_3_0_opt_disp_struct_10.xyz,Nucleus 12H :,-0.412584,1.353563,-1.712296,23.99,28.44,22.55,20.97,47.84,31.78,28.65,-25.51,-3.34,-7.45,20.97,22.55,28.44,0,7.47,-0.58
ny_cut_3_0_opt_disp_struct_10.xyz,Nucleus 14H :,-2.316425,1.372658,-0.712213,27.44,36.34,26.3,19.67,47.41,30.75,11.31,8.53,-4.44,-11.24,19.67,26.3,36.34,0,16.67,-0.21
ny_cut_3_0_opt_disp_struct_10.xyz,Nucleus 15H :,-2.865496,1.783522,-1.553102,29.05,34.66,28.27,24.22,41.32,31.97,28.01,-0.58,-5.32,-8.25,24.22,28.27,34.66,0,10.44,-0.22
ny_cut_3_0_opt_disp_struct_10.xyz,Nucleus 17H :,-2.999153,1.080834,0.461842,29.68,34.83,27.84,26.37,-0.45,15.01,38.01,27.4,12.94,-3.88,26.37,27.84,34.83,0,8.46,-0.65
ny_cut_3_0_opt_disp_struct_10.xyz,Nucleus 18H :,-2.333376,0.541148,1.55732,29.89,25.67,33.57,30.43,41.38,25.74,9.54,-8.86,5.05,16.82,25.67,30.43,33.57,0,7.9,0.21
ny_cut_3_0_opt_disp_struct_10.xyz,Nucleus 22H :,-2.87247,0.325383,2.476331,27.41,33.09,26.73,22.41,51.45,39.35,29.51,-25.21,-12.73,-0.15,22.41,26.73,33.09,0,10.68,-0.19
ny_cut_3_0_opt_disp_struct_10.xyz,Nucleus 23H :,-0.960708,0.294763,1.474288,27.6,34.96,24.26,23.57,33.71,43.64,49.35,-25.26,-11.47,-7.19,23.57,24.26,34.96,0,11.39,-0.88
ny_cut_3_0_opt_disp_struct_10.xyz,Nucleus 24H :,-0.435582,-0.117065,2.330331,29.59,34.12,27.07,27.59,38.07,16.04,6.05,-5.1,11.12,22.59,27.07,27.59,34.12,0,7.05,-0.85
ny_cut_3_0_opt_disp_struct_10.xyz,Nucleus 0C :,-4.337877,1.337775,0.500071,162.09,189.13,140.37,156.76,254.53,238.43,241.76,-64.43,-102.15,-81.87,140.37,156.76,189.13,0,48.76,-0.33
ny_cut_3_0_opt_disp_struct_10.xyz,Nucleus 3C :,-4.692616,1.0495,1.348451,44.18,175.03,-58.83,16.33,238.98,262.59,271.13,-64.06,-321.49,-254.63,-58.83,16.33,175.03,0,233.86,-0.36
ny_cut_3_0_opt_disp_struct_10.xyz,Nucleus 4C :,1.459394,-0.661423,0.641266,42.79,-66.32,38.63,156.06,271.72,260.64,243.26,-327.65,-232.3,-87.29,-66.32,38.63,156.06,0,222.38,-0.06
ny_cut_3_0_opt_disp_struct_10.xyz,Nucleus 6C :,-1.619713,7.691335,3.0706,62.14,-27.07,47.44,166.04,226.42,271.63,261.02,-60.59,-223.66,-288.41,-27.07,47.44,166.04,0,193.11,-0.23
ny_cut_3_0_opt_disp_struct_10.xyz,Nucleus 8C :,-1.421183,8.264872,3.977958,20.08,-70.96,118.64,12.56,234.35,261.84,267.97,-115.71,-333.46,-254.75,-70.96,12.56,118.64,0,189.6,-0.12
ny_cut_3_0_opt_disp_struct_10.xyz,Nucleus 9C :,-2.528846,7.098082,3.203054,62.85,-26.7,60.76,154.48,236.44,263.86,274.66,-292.07,-212.25,-82.09,-26.7,60.76,154.48,0,181.18,-0.03
ny_cut_3_0_opt_disp_struct_10.xyz,Nucleus 11C :,-0.415018,6.862214,2.728704,44.04,-64.37,35.22,161.26,271.74,260.02,242.88,-324.23,-236.5,-81.8,-64.37,35.22,161.26,0,225.63,-0.12
ny_cut_3_0_opt_disp_struct_10.xyz,Nucleus 16C :,0.735712,7.259643,2.864096,163.34,191.33,155.7,142.99,260.12,229.25,217.06,-65.67,-71.56,-79.17,142.99,155.7,191.33,0,48.34,-0.47
ny_cut_3_0_opt_disp_struct_10.xyz,Nucleus 19C :,-0.682198,5.622269,2.233504,2.22,-92.57,4.85,94.39,270.36,255.56,204.93,-350.66,-262.32,-111.21,-92.57,4.85,94.39,0,186.96,0.04
ny_cut_3_0_opt_disp_struct_10.xyz,Nucleus 21N :,-1.586475,5.476971,1.83276,145.65,47.72,146.84,242.39,341.24,319.93,302.79,-272.4,-173.84,-80.77,47.72,146.84,242.39,0,194.67,0.02
ny_cut_3_0_opt_disp_struct_10.xyz,Nucleus 13O :,0.094579,5.189536,1.771523,211.22,258.27,211.69,163.71,334.62,407.15,390.38,-145.67,-122.94,-229.87,163.71,211.69,258.27,0,94.56,0.01
ny_cut_3_0_opt_disp_struct_10.xyz,Nucleus 20O :,-1.788289,8.409849,2.261166,-115.64,-418.97,-243.45,315.49,427.11,384.96,380.11,-845.25,-629.07,-64.79,-418.97,-243.45,315.49,0,734.46,-0.52
ny_cut_3_0_opt_disp_struct_11.xyz,Nucleus 1H :,1.215353,0.309458,0.200166,28.85,34.53,26.66,25.36,44.57,25.86,26.55,-11.07,1.09,-0.46,25.36,26.66,34.53,0,9.17,-0.72
ny_cut_3_0_opt_disp_struct_11.xyz,Nucleus 2H :,1.811719,1.063099,0.731106,29.35,34.52,29.06,24.48,40.63,31.71,28.66,-0.05,-6.77,-6.12,24.48,29.06,34.52,0,10.04,-0.09
ny_cut_3_0_opt_disp_struct_11.xyz,Nucleus 5H :,1.545731,0.303011,-0.841072,23.96,28.2,22.54,21.15,47.03,31.88,29.86,-24.68,-3.66,-8.54,21.15,22.54,28.2,0,7.05,-0.6
ny_cut_3_0_opt_disp_struct_11.xyz,Nucleus 7H :,-0.253096,0.597295,0.303224,24.37,27.68,23.95,21.47,46.84,31.32,16.48,-22.93,-3.69,5.08,21.47,23.95,27.68,0,6.21,-0.2
ny_cut_3_0_opt_disp_struct_11.xyz,Nucleus 10H :,-0.944755,1.127923,-0.793726,24.69,28.14,24.01,21.93,47.69,32.97,23.92,-23.76,-5.0,-1.74,21.93,24.01,28.14,0,6.21,-0.33
ny_cut_3_0_opt_disp_struct_11.xyz,Nucleus 12H :,-0.412584,1.353563,-1.712296,23.99,28.45,22.55,20.97,47.7,31.75,28.64,-25.34,-3.29,-7.47,20.97,22.55,28.45,0,7.48,-0.58
ny_cut_3_0_opt_disp_struct_11.xyz,Nucleus 14H :,-2.316425,1.372658,-0.712213,27.44,36.35,26.32,19.66,47.37,30.74,11.29,8.53,-4.41,-11.19,19.66,26.32,36.35,0,16.69,-0.2
ny_cut_3_0_opt_disp_struct_11.xyz,Nucleus 15H :,-2.865496,1.783522,-1.553102,29.05,34.65,28.28,24.23,41.28,31.97,27.96,-0.54,-5.27,-8.24,24.23,28.28,34.65,0,10.42,-0.22
ny_cut_3_0_opt_disp_struct_11.xyz,Nucleus 17H :,-2.999153,1.080834,0.461842,29.66,34.79,27.84,26.36,-1.18,14.81,37.95,28.15,13.13,-3.88,26.36,27.84,34.79,0,8.43,-0.65
ny_cut_3_0_opt_disp_struct_11.xyz,Nucleus 18H :,-2.333376,0.541148,1.55732,29.88,25.69,33.59,30.35,41.63,25.73,9.29,-9.13,4.99,17.12,25.69,30.35,33.59,0,7.9,0.18
ny_cut_3_0_opt_disp_struct_11.xyz,Nucleus 22H :,-2.87247,0.325383,2.476331,27.36,32.9,26.71,22.46,52.24,39.79,29.4,-26.03,-13.25,-0.08,22.46,26.71,32.9,0,10.44,-0.19
ny_cut_3_0_opt_disp_struct_11.xyz,Nucleus 23H :,-0.960708,0.294763,1.474288,27.54,34.87,24.14,23.61,33.79,43.6,50.3,-26.18,-11.8,-7.09,23.61,24.14,34.87,0,11.26,-0.91
ny_cut_3_0_opt_disp_struct_11.xyz,Nucleus 24H :,-0.435582,-0.117065,2.330331,29.58,34.11,27.08,27.56,38.05,15.93,5.43,-5.13,11.25,23.23,27.08,27.56,34.11,0,7.03,-0.86
ny_cut_3_0_opt_disp_struct_11.xyz,Nucleus 0C :,-4.337877,1.337775,0.500071,162.09,189.14,140.34,156.78,254.5,238.29,241.74,-64.37,-102.18,-81.71,140.34,156.78,189.14,0,48.8,-0.33
ny_cut_3_0_opt_disp_struct_11.xyz,Nucleus 3C :,-4.692616,1.0495,1.348451,44.21,174.98,-58.81,16.45,238.89,262.59,270.82,-64.03,-321.45,-254.2,-58.81,16.45,174.98,0,233.79,-0.36
ny_cut_3_0_opt_disp_struct_11.xyz,Nucleus 4C :,1.459394,-0.661423,0.641266,42.76,-66.34,38.64,155.99,271.57,260.55,243.24,-327.53,-232.2,-87.33,-66.34,38.64,155.99,0,222.33,-0.06
ny_cut_3_0_opt_disp_struct_11.xyz,Nucleus 6C :,-1.574177,7.922651,3.153783,62.08,-27.13,47.39,165.97,226.33,271.51,260.9,-60.57,-223.62,-288.31,-27.13,47.39,165.97,0,193.1,-0.23
ny_cut_3_0_opt_disp_struct_11.xyz,Nucleus 8C :,-1.375647,8.496188,4.061141,20.06,-70.98,118.59,12.56,234.29,261.73,267.8,-115.7,-333.39,-254.55,-70.98,12.56,118.59,0,189.57,-0.12
ny_cut_3_0_opt_disp_struct_11.xyz,Nucleus 9C :,-2.48331,7.329398,3.286237,62.88,-26.65,60.86,154.42,236.42,263.78,274.49,-291.85,-212.07,-82.14,-26.65,60.86,154.42,0,181.07,-0.03
ny_cut_3_0_opt_disp_struct_11.xyz,Nucleus 11C :,-0.369482,7.09353,2.811887,44.1,-64.29,35.39,161.21,271.64,259.84,242.84,-323.94,-236.24,-81.83,-64.29,35.39,161.21,0,225.5,-0.12
ny_cut_3_0_opt_disp_struct_11.xyz,Nucleus 16C :,0.781248,7.490959,2.947279,163.33,191.31,155.67,143.02,260.37,229.05,216.6,-65.64,-71.43,-78.95,143.02,155.67,191.31,0,48.29,-0.48
ny_cut_3_0_opt_disp_struct_11.xyz,Nucleus 19C :,-0.636662,5.853585,2.316687,2.21,-92.71,4.95,94.38,270.56,255.41,204.12,-350.56,-262.46,-110.45,-92.71,4.95,94.38,0,187.09,0.04
ny_cut_3_0_opt_disp_struct_11.xyz,Nucleus 21N :,-1.540939,5.708287,1.915943,145.71,47.96,146.9,242.28,341.76,320.07,302.55,-272.27,-174.75,-80.21,47.96,146.9,242.28,0,194.32,0.02
ny_cut_3_0_opt_disp_struct_11.xyz,Nucleus 13O :,0.140115,5.420852,1.854706,211.19,258.28,211.63,163.66,334.61,407.13,390.35,-145.58,-123.02,-229.91,163.66,211.63,258.28,0,94.62,0.01
ny_cut_3_0_opt_disp_struct_11.xyz,Nucleus 20O :,-1.742753,8.641165,2.344349,-115.92,-419.49,-243.72,315.44,427.26,384.7,379.49,-845.9,-629.09,-64.23,-419.49,-243.72,315.44,0,734.93,-0.52
ny_cut_3_0_opt_disp_struct_12.xyz,Nucleus 1H :,1.215353,0.309458,0.200166,28.85,34.55,26.65,25.35,44.54,26.48,25.8,-11.03,1.08,-0.33,25.35,26.65,34.55,0,9.2,-0.72
ny_cut_3_0_opt_disp_struct_12.xyz,Nucleus 2H :,1.811719,1.063099,0.731106,29.36,34.52,29.07,24.48,40.58,31.7,28.61,-0.01,-6.73,-6.08,24.48,29.07,34.52,0,10.04,-0.09
ny_cut_3_0_opt_disp_struct_12.xyz,Nucleus 5H :,1.545731,0.303011,-0.841072,23.96,28.22,22.53,21.14,46.91,31.83,29.83,-24.55,-3.59,-8.53,21.14,22.53,28.22,0,7.08,-0.61
ny_cut_3_0_opt_disp_struct_12.xyz,Nucleus 7H :,-0.253096,0.597295,0.303224,24.37,27.7,23.95,21.45,46.71,31.3,16.43,-22.8,-3.64,5.1,21.45,23.95,27.7,0,6.25,-0.2
ny_cut_3_0_opt_disp_struct_12.xyz,Nucleus 10H :,-0.944755,1.127923,-0.793726,24.7,28.15,24.02,21.92,47.57,32.95,23.92,-23.62,-4.96,-1.76,21.92,24.02,28.15,0,6.23,-0.33
ny_cut_3_0_opt_disp_struct_12.xyz,Nucleus 12H :,-0.412584,1.353563,-1.712296,24.0,28.47,22.56,20.96,47.56,31.72,28.62,-25.19,-3.24,-7.48,20.96,22.56,28.47,0,7.51,-0.58
ny_cut_3_0_opt_disp_struct_12.xyz,Nucleus 14H :,-2.316425,1.372658,-0.712213,27.45,36.36,26.33,19.65,47.33,30.73,11.27,8.52,-4.38,-11.13,19.65,26.33,36.36,0,16.71,-0.2
ny_cut_3_0_opt_disp_struct_12.xyz,Nucleus 15H :,-2.865496,1.783522,-1.553102,29.06,34.64,28.29,24.24,41.25,31.96,27.91,-0.5,-5.22,-8.23,24.24,28.29,34.64,0,10.4,-0.22
ny_cut_3_0_opt_disp_struct_12.xyz,Nucleus 17H :,-2.999153,1.080834,0.461842,29.66,34.76,27.85,26.36,-1.91,14.61,37.91,28.89,13.33,-3.87,26.36,27.85,34.76,0,8.4,-0.65
ny_cut_3_0_opt_disp_struct_12.xyz,Nucleus 18H :,-2.333376,0.541148,1.55732,29.87,25.71,33.61,30.29,41.88,25.72,9.03,-9.39,4.94,17.42,25.71,30.29,33.61,0,7.9,0.16
ny_cut_3_0_opt_disp_struct_12.xyz,Nucleus 22H :,-2.87247,0.325383,2.476331,27.31,32.75,26.69,22.5,52.98,40.23,29.31,-26.81,-13.75,-0.01,22.5,26.69,32.75,0,10.25,-0.18
ny_cut_3_0_opt_disp_struct_12.xyz,Nucleus 23H :,-0.960708,0.294763,1.474288,27.49,34.79,24.06,23.63,33.87,43.58,51.21,-27.07,-12.13,-6.99,23.63,24.06,34.79,0,11.16,-0.92
ny_cut_3_0_opt_disp_struct_12.xyz,Nucleus 24H :,-0.435582,-0.117065,2.330331,29.58,34.1,27.09,27.54,38.04,15.81,4.81,-5.17,11.38,23.86,27.09,27.54,34.1,0,7.01,-0.87
ny_cut_3_0_opt_disp_struct_12.xyz,Nucleus 0C :,-4.337877,1.337775,0.500071,162.09,189.14,140.32,156.8,254.47,238.15,241.72,-64.32,-102.19,-81.56,140.32,156.8,189.14,0,48.82,-0.33
ny_cut_3_0_opt_disp_struct_12.xyz,Nucleus 3C :,-4.692616,1.0495,1.348451,44.24,174.93,-58.78,16.56,238.83,262.59,270.56,-64.0,-321.42,-253.83,-58.78,16.56,174.93,0,233.71,-0.36
ny_cut_3_0_opt_disp_struct_12.xyz,Nucleus 4C :,1.459394,-0.661423,0.641266,42.74,-66.36,38.65,155.94,271.43,260.47,243.21,-327.43,-232.11,-87.35,-66.36,38.65,155.94,0,222.3,-0.06
ny_cut_3_0_opt_disp_struct_12.xyz,Nucleus 6C :,-1.528641,8.153967,3.236966,62.04,-27.17,47.35,165.93,226.26,271.41,260.78,-60.55,-223.59,-288.21,-27.17,47.35,165.93,0,193.1,-0.23
ny_cut_3_0_opt_disp_struct_12.xyz,Nucleus 8C :,-1.330111,8.727504,4.144324,20.04,-70.99,118.55,12.56,234.25,261.65,267.65,-115.7,-333.34,-254.38,-70.99,12.56,118.55,0,189.54,-0.12
ny_cut_3_0_opt_disp_struct_12.xyz,Nucleus 9C :,-2.437773,7.560714,3.369419,62.9,-26.61,60.95,154.36,236.4,263.7,274.35,-291.65,-211.92,-82.17,-26.61,60.95,154.36,0,180.97,-0.03
ny_cut_3_0_opt_disp_struct_12.xyz,Nucleus 11C :,-0.323946,7.324846,2.89507,44.15,-64.22,35.53,161.14,271.56,259.67,242.81,-323.69,-236.02,-81.87,-64.22,35.53,161.14,0,225.36,-0.11
ny_cut_3_0_opt_disp_struct_12.xyz,Nucleus 16C :,0.826784,7.722275,3.030462,163.32,191.3,155.63,143.04,260.63,228.85,216.14,-65.57,-71.33,-78.75,143.04,155.63,191.3,0,48.26,-0.48
ny_cut_3_0_opt_disp_struct_12.xyz,Nucleus 19C :,-0.591125,6.084901,2.399869,2.2,-92.82,5.02,94.4,270.76,255.26,203.33,-350.45,-262.64,-109.66,-92.82,5.02,94.4,0,187.22,0.05
ny_cut_3_0_opt_disp_struct_12.xyz,Nucleus 21N :,-1.495403,5.939603,1.999126,145.77,48.17,146.96,242.18,342.35,320.11,302.12,-272.07,-175.58,-79.61,48.17,146.96,242.18,0,194.01,0.02
ny_cut_3_0_opt_disp_struct_12.xyz,Nucleus 13O :,0.185651,5.652168,1.937889,211.15,258.27,211.58,163.61,334.6,407.1,390.32,-145.52,-123.09,-229.94,163.61,211.58,258.27,0,94.66,0.01
ny_cut_3_0_opt_disp_struct_12.xyz,Nucleus 20O :,-1.697217,8.872481,2.427532,-116.13,-419.9,-243.97,315.48,427.4,384.42,378.85,-846.46,-629.08,-63.53,-419.9,-243.97,315.48,0,735.38,-0.52
ny_cut_3_0_opt_disp_struct_13.xyz,Nucleus 1H :,1.215353,0.309458,0.200166,28.85,34.57,26.65,25.34,44.51,26.42,25.73,-10.99,1.08,-0.2,25.34,26.65,34.57,0,9.23,-0.72
ny_cut_3_0_opt_disp_struct_13.xyz,Nucleus 2H :,1.811719,1.063099,0.731106,29.36,34.52,29.08,24.48,40.53,31.69,28.56,0.03,-6.7,-6.04,24.48,29.08,34.52,0,10.04,-0.08
ny_cut_3_0_opt_disp_struct_13.xyz,Nucleus 5H :,1.545731,0.303011,-0.841072,23.96,28.23,22.52,21.13,46.79,31.78,29.79,-24.43,-3.53,-8.52,21.13,22.52,28.23,0,7.1,-0.61
ny_cut_3_0_opt_disp_struct_13.xyz,Nucleus 7H :,-0.253096,0.597295,0.303224,24.36,27.71,23.95,21.43,46.59,31.27,16.39,-22.67,-3.6,5.12,21.43,23.95,27.71,0,6.28,-0.2
ny_cut_3_0_opt_disp_struct_13.xyz,Nucleus 10H :,-0.944755,1.127923,-0.793726,24.7,28.17,24.03,21.9,47.45,32.93,23.91,-23.49,-4.92,-1.78,21.9,24.03,28.17,0,6.27,-0.32
ny_cut_3_0_opt_disp_struct_13.xyz,Nucleus 12H :,-0.412584,1.353563,-1.712296,24.0,28.49,22.56,20.95,47.44,31.68,28.61,-25.05,-3.2,-7.49,20.95,22.56,28.49,0,7.54,-0.57
ny_cut_3_0_opt_disp_struct_13.xyz,Nucleus 14H :,-2.316425,1.372658,-0.712213,27.45,36.36,26.35,19.64,47.28,30.71,11.26,8.52,-4.35,-11.08,19.64,26.35,36.36,0,16.72,-0.2
ny_cut_3_0_opt_disp_struct_13.xyz,Nucleus 15H :,-2.865496,1.783522,-1.553102,29.06,34.63,28.3,24.24,41.21,31.95,27.85,-0.45,-5.17,-8.22,24.24,28.3,34.63,0,10.39,-0.22
ny_cut_3_0_opt_disp_struct_13.xyz,Nucleus 17H :,-2.999153,1.080834,0.461842,29.64,34.73,27.85,26.35,-2.64,14.4,37.87,29.63,13.54,-3.87,26.35,27.85,34.73,0,8.38,-0.64
ny_cut_3_0_opt_disp_struct_13.xyz,Nucleus 18H :,-2.333376,0.541148,1.55732,29.86,25.72,33.63,30.22,42.13,25.71,8.78,-9.65,4.9,17.72,25.72,30.22,33.63,0,7.91,0.14
ny_cut_3_0_opt_disp_struct_13.xyz,Nucleus 22H :,-2.87247,0.325383,2.476331,27.28,32.63,26.68,22.54,53.7,40.69,29.22,-27.57,-14.24,0.04,22.54,26.68,32.63,0,10.09,-0.18
ny_cut_3_0_opt_disp_struct_13.xyz,Nucleus 23H :,-0.960708,0.294763,1.474288,27.45,34.73,24.0,23.63,33.94,43.58,52.1,-27.93,-12.44,-6.89,23.63,24.0,34.73,0,11.1,-0.93
ny_cut_3_0_opt_disp_struct_13.xyz,Nucleus 24H :,-0.435582,-0.117065,2.330331,29.57,34.09,27.09,27.52,38.04,15.68,4.18,-5.22,11.52,24.5,27.09,27.52,34.09,0,7.0,-0.88
ny_cut_3_0_opt_disp_struct_13.xyz,Nucleus 0C :,-4.337877,1.337775,0.500071,162.09,189.15,140.29,156.82,254.44,238.02,241.7,-64.28,-102.21,-81.42,140.29,156.82,189.15,0,48.86,-0.32
ny_cut_3_0_opt_disp_struct_13.xyz,Nucleus 3C :,-4.692616,1.0495,1.348451,44.26,174.89,-58.76,16.66,238.77,262.58,270.31,-63.98,-321.39,-253.49,-58.76,16.66,174.89,0,233.65,-0.35
ny_cut_3_0_opt_disp_struct_13.xyz,Nucleus 4C :,1.459394,-0.661423,0.641266,42.73,-66.38,38.66,155.9,271.3,260.39,243.19,-327.32,-232.02,-87.37,-66.38,38.66,155.9,0,222.28,-0.05
ny_cut_3_0_opt_disp_struct_13.xyz,Nucleus 6C :,-1.483104,8.385283,3.320148,62.0,-27.21,47.32,165.89,226.2,271.31,260.66,-60.52,-223.55,-288.1,-27.21,47.32,165.89,0,193.1,-0.23
ny_cut_3_0_opt_disp_struct_13.xyz,Nucleus 8C :,-1.284575,8.95882,4.227506,20.03,-70.99,118.51,12.56,234.21,261.58,267.5,-115.7,-333.3,-254.22,-70.99,12.56,118.51,0,189.5,-0.12
ny_cut_3_0_opt_disp_struct_13.xyz,Nucleus 9C :,-2.392237,7.79203,3.452602,62.92,-26.58,61.02,154.31,236.37,263.62,274.21,-291.47,-211.78,-82.2,-26.58,61.02,154.31,0,180.89,-0.03
ny_cut_3_0_opt_disp_struct_13.xyz,Nucleus 11C :,-0.27841,7.556162,2.978252,44.19,-64.16,35.65,161.09,271.48,259.51,242.79,-323.47,-235.83,-81.89,-64.16,35.65,161.09,0,225.25,-0.11
ny_cut_3_0_opt_disp_struct_13.xyz,Nucleus 16C :,0.87232,7.953591,3.113645,163.31,191.29,155.59,143.05,260.89,228.66,215.7,-65.49,-71.25,-78.59,143.05,155.59,191.29,0,48.24,-0.48
ny_cut_3_0_opt_disp_struct_13.xyz,Nucleus 19C :,-0.545589,6.316217,2.483052,2.19,-92.91,5.07,94.41,270.96,255.11,202.53,-350.34,-262.81,-108.88,-92.91,5.07,94.41,0,187.32,0.05
ny_cut_3_0_opt_disp_struct_13.xyz,Nucleus 21N :,-1.449867,6.170919,2.082309,145.81,48.34,147.0,242.09,320.11,342.97,301.56,-271.86,-176.36,-79.0,48.34,147.0,242.09,0,193.75,0.02
ny_cut_3_0_opt_disp_struct_13.xyz,Nucleus 13O :,0.231187,5.883484,2.021072,211.13,258.27,211.54,163.57,334.61,407.07,390.27,-145.47,-123.15,-229.95,163.57,211.54,258.27,0,94.7,0.01
ny_cut_3_0_opt_disp_struct_13.xyz,Nucleus 20O :,-1.651681,9.103797,2.510714,-116.31,-420.27,-244.19,315.52,427.56,384.14,378.13,-846.97,-629.05,-62.76,-420.27,-244.19,315.52,0,735.79,-0.52
ny_cut_3_0_opt_disp_struct_14.xyz,Nucleus 1H :,1.215353,0.309458,0.200166,28.86,34.59,26.65,25.33,44.47,26.36,25.66,-10.95,1.08,-0.06,25.33,26.65,34.59,0,9.26,-0.72
ny_cut_3_0_opt_disp_struct_14.xyz,Nucleus 2H :,1.811719,1.063099,0.731106,29.36,34.51,29.08,24.48,40.48,31.67,28.51,0.08,-6.67,-5.99,24.48,29.08,34.51,0,10.03,-0.08
ny_cut_3_0_opt_disp_struct_14.xyz,Nucleus 5H :,1.545731,0.303011,-0.841072,23.96,28.24,22.52,21.12,46.68,31.73,29.76,-24.31,-3.47,-8.51,21.12,22.52,28.24,0,7.12,-0.61
ny_cut_3_0_opt_disp_struct_14.xyz,Nucleus 7H :,-0.253096,0.597295,0.303224,24.37,27.72,23.96,21.42,46.48,31.24,16.35,-22.55,-3.55,5.14,21.42,23.96,27.72,0,6.3,-0.2
ny_cut_3_0_opt_disp_struct_14.xyz,Nucleus 10H :,-0.944755,1.127923,-0.793726,24.7,28.18,24.03,21.89,47.33,32.9,23.9,-23.36,-4.87,-1.79,21.89,24.03,28.18,0,6.29,-0.32
ny_cut_3_0_opt_disp_struct_14.xyz,Nucleus 12H :,-0.412584,1.353563,-1.712296,24.0,28.5,22.56,20.95,47.31,31.64,28.6,-24.91,-3.15,-7.49,20.95,22.56,28.5,0,7.55,-0.57
ny_cut_3_0_opt_disp_struct_14.xyz,Nucleus 14H :,-2.316425,1.372658,-0.712213,27.45,36.37,26.36,19.63,47.23,30.69,11.26,8.51,-4.32,-11.02,19.63,26.36,36.37,0,16.74,-0.2
ny_cut_3_0_opt_disp_struct_14.xyz,Nucleus 15H :,-2.865496,1.783522,-1.553102,29.06,34.62,28.31,24.25,41.18,31.94,27.8,-0.41,-5.12,-8.21,24.25,28.31,34.62,0,10.37,-0.22
ny_cut_3_0_opt_disp_struct_14.xyz,Nucleus 17H :,-2.999153,1.080834,0.461842,29.64,34.7,27.86,26.35,-3.36,14.19,37.83,30.38,13.75,-3.87,26.35,27.86,34.7,0,8.35,-0.64
ny_cut_3_0_opt_disp_struct_14.xyz,Nucleus 18H :,-2.333376,0.541148,1.55732,29.85,33.64,25.74,30.17,42.37,25.7,8.51,-9.91,4.86,18.02,25.74,30.17,33.64,0,7.9,0.12
ny_cut_3_0_opt_disp_struct_14.xyz,Nucleus 22H :,-2.87247,0.325383,2.476331,27.25,32.52,26.66,22.57,54.39,41.15,29.13,-28.33,-14.7,0.1,22.57,26.66,32.52,0,9.95,-0.18
ny_cut_3_0_opt_disp_struct_14.xyz,Nucleus 23H :,-0.960708,0.294763,1.474288,27.42,34.67,23.97,23.62,34.01,43.59,52.99,-28.79,-12.75,-6.78,23.62,23.97,34.67,0,11.05,-0.94
ny_cut_3_0_opt_disp_struct_14.xyz,Nucleus 24H :,-0.435582,-0.117065,2.330331,29.56,34.08,27.1,27.5,38.04,15.54,3.56,-5.26,11.66,25.13,27.1,27.5,34.08,0,6.98,-0.89
ny_cut_3_0_opt_disp_struct_14.xyz,Nucleus 0C :,-4.337877,1.337775,0.500071,162.08,189.15,140.27,156.83,254.41,237.9,241.68,-64.24,-102.22,-81.28,140.27,156.83,189.15,0,48.88,-0.32
ny_cut_3_0_opt_disp_struct_14.xyz,Nucleus 3C :,-4.692616,1.0495,1.348451,44.29,174.86,-58.74,16.75,238.71,262.57,270.08,-63.96,-321.36,-253.18,-58.74,16.75,174.86,0,233.6,-0.35
ny_cut_3_0_opt_disp_struct_14.xyz,Nucleus 4C :,1.459394,-0.661423,0.641266,42.71,-66.39,38.66,155.86,271.19,260.3,243.16,-327.21,-231.93,-87.38,-66.39,38.66,155.86,0,222.25,-0.05
ny_cut_3_0_opt_disp_struct_14.xyz,Nucleus 6C :,-1.437568,8.616599,3.403331,61.97,-27.24,47.28,165.86,226.14,271.22,260.55,-60.5,-223.52,-287.99,-27.24,47.28,165.86,0,193.1,-0.23
ny_cut_3_0_opt_disp_struct_14.xyz,Nucleus 8C :,-1.239039,9.190136,4.310689,20.01,-70.99,118.48,12.55,234.18,261.51,267.36,-115.7,-333.25,-254.07,-70.99,12.55,118.48,0,189.47,-0.12
ny_cut_3_0_opt_disp_struct_14.xyz,Nucleus 9C :,-2.346701,8.023346,3.535785,62.93,-26.55,61.08,154.27,236.35,263.54,274.08,-291.31,-211.66,-82.22,-26.55,61.08,154.27,0,180.82,-0.03
ny_cut_3_0_opt_disp_struct_14.xyz,Nucleus 11C :,-0.232874,7.787478,3.061435,44.23,-64.11,35.75,161.04,271.4,259.36,242.76,-323.27,-235.65,-81.92,-64.11,35.75,161.04,0,225.15,-0.11
ny_cut_3_0_opt_disp_struct_14.xyz,Nucleus 16C :,0.917856,8.184907,3.196827,163.3,191.28,155.56,143.06,261.15,228.47,215.26,-65.37,-71.18,-78.43,143.06,155.56,191.28,0,48.22,-0.48
ny_cut_3_0_opt_disp_struct_14.xyz,Nucleus 19C :,-0.500053,6.547533,2.566235,2.19,-92.99,5.12,94.43,271.17,254.96,201.73,-350.22,-262.99,-108.1,-92.99,5.12,94.43,0,187.42,0.05
ny_cut_3_0_opt_disp_struct_14.xyz,Nucleus 21N :,-1.404331,6.402235,2.165491,145.85,48.51,147.04,242.01,320.11,343.65,301.01,-271.64,-177.19,-78.39,48.51,147.04,242.01,0,193.5,0.02
ny_cut_3_0_opt_disp_struct_14.xyz,Nucleus 13O :,0.276723,6.1148,2.104254,211.1,258.26,211.51,163.53,334.61,407.03,390.22,-145.43,-123.2,-229.93,163.53,211.51,258.26,0,94.73,0.01
ny_cut_3_0_opt_disp_struct_14.xyz,Nucleus 20O :,-1.606145,9.335113,2.593897,-116.48,-420.6,-244.39,315.54,427.71,383.87,377.43,-847.45,-629.0,-62.01,-420.6,-244.39,315.54,0,736.14,-0.52
ny_cut_3_0_opt_disp_struct_15.xyz,Nucleus 1H :,1.215353,0.309458,0.200166,28.85,34.6,26.64,25.32,44.44,26.31,25.58,-10.91,1.09,0.07,25.32,26.64,34.6,0,9.28,-0.71
ny_cut_3_0_opt_disp_struct_15.xyz,Nucleus 2H :,1.811719,1.063099,0.731106,29.36,34.51,29.09,24.48,40.43,31.66,28.46,0.12,-6.64,-5.95,24.48,29.09,34.51,0,10.03,-0.08
ny_cut_3_0_opt_disp_struct_15.xyz,Nucleus 5H :,1.545731,0.303011,-0.841072,23.96,28.25,22.52,21.11,46.58,31.68,29.73,-24.19,-3.41,-8.51,21.11,22.52,28.25,0,7.14,-0.61
ny_cut_3_0_opt_disp_struct_15.xyz,Nucleus 7H :,-0.253096,0.597295,0.303224,24.36,27.73,23.96,21.4,46.36,31.21,16.31,-22.43,-3.51,5.15,21.4,23.96,27.73,0,6.33,-0.19
ny_cut_3_0_opt_disp_struct_15.xyz,Nucleus 10H :,-0.944755,1.127923,-0.793726,24.7,28.19,24.04,21.88,47.23,32.87,23.89,-23.25,-4.82,-1.81,21.88,24.04,28.19,0,6.31,-0.31
ny_cut_3_0_opt_disp_struct_15.xyz,Nucleus 12H :,-0.412584,1.353563,-1.712296,24.01,28.51,22.57,20.94,47.2,31.61,28.59,-24.79,-3.1,-7.5,20.94,22.57,28.51,0,7.57,-0.57
ny_cut_3_0_opt_disp_struct_15.xyz,Nucleus 14H :,-2.316425,1.372658,-0.712213,27.45,36.37,26.37,19.62,47.18,30.66,11.25,8.51,-4.29,-10.96,19.62,26.37,36.37,0,16.75,-0.19
ny_cut_3_0_opt_disp_struct_15.xyz,Nucleus 15H :,-2.865496,1.783522,-1.553102,29.06,34.61,28.32,24.25,41.15,31.92,27.75,-0.37,-5.08,-8.19,24.25,28.32,34.61,0,10.36,-0.21
ny_cut_3_0_opt_disp_struct_15.xyz,Nucleus 17H :,-2.999153,1.080834,0.461842,29.63,34.68,27.86,26.35,-4.09,13.97,37.79,31.12,13.97,-3.87,26.35,27.86,34.68,0,8.33,-0.64
ny_cut_3_0_opt_disp_struct_15.xyz,Nucleus 18H :,-2.333376,0.541148,1.55732,29.84,33.65,25.75,30.12,42.62,25.69,8.24,-10.18,4.83,18.33,25.75,30.12,33.65,0,7.9,0.11
ny_cut_3_0_opt_disp_struct_15.xyz,Nucleus 22H :,-2.87247,0.325383,2.476331,27.22,32.43,26.64,22.6,55.08,41.6,29.05,-29.07,-15.14,0.16,22.6,26.64,32.43,0,9.83,-0.18
ny_cut_3_0_opt_disp_struct_15.xyz,Nucleus 23H :,-0.960708,0.294763,1.474288,27.39,34.63,23.96,23.59,34.07,43.61,53.86,-29.63,-13.05,-6.68,23.59,23.96,34.63,0,11.04,-0.93
ny_cut_3_0_opt_disp_struct_15.xyz,Nucleus 24H :,-0.435582,-0.117065,2.330331,29.55,34.07,27.11,27.48,38.05,15.4,2.93,-5.31,11.82,25.77,27.11,27.48,34.07,0,6.96,-0.89
ny_cut_3_0_opt_disp_struct_15.xyz,Nucleus 0C :,-4.337877,1.337775,0.500071,162.08,189.15,140.25,156.84,254.38,237.78,241.67,-64.21,-102.23,-81.14,140.25,156.84,189.15,0,48.9,-0.32
ny_cut_3_0_opt_disp_struct_15.xyz,Nucleus 3C :,-4.692616,1.0495,1.348451,44.31,174.82,-58.71,16.83,238.67,262.57,269.87,-63.95,-321.33,-252.89,-58.71,16.83,174.82,0,233.53,-0.35
ny_cut_3_0_opt_disp_struct_15.xyz,Nucleus 4C :,1.459394,-0.661423,0.641266,42.7,-66.4,38.67,155.82,271.08,260.22,243.14,-327.11,-231.85,-87.39,-66.4,38.67,155.82,0,222.22,-0.05
ny_cut_3_0_opt_disp_struct_15.xyz,Nucleus 6C :,-1.392032,8.847915,3.486514,61.94,-27.26,47.26,165.83,226.1,271.15,260.44,-60.48,-223.49,-287.89,-27.26,47.26,165.83,0,193.09,-0.23
ny_cut_3_0_opt_disp_struct_15.xyz,Nucleus 8C :,-1.193503,9.421452,4.393872,20.0,-70.99,118.45,12.55,234.15,261.46,267.23,-115.7,-333.21,-253.92,-70.99,12.55,118.45,0,189.44,-0.12
ny_cut_3_0_opt_disp_struct_15.xyz,Nucleus 9C :,-2.301165,8.254662,3.618968,62.94,-26.53,61.12,154.23,236.32,263.47,273.97,-291.15,-211.55,-82.23,-26.53,61.12,154.23,0,180.76,-0.03
ny_cut_3_0_opt_disp_struct_15.xyz,Nucleus 11C :,-0.187338,8.018794,3.144618,44.26,-64.07,35.84,161.0,271.34,259.22,242.74,-323.08,-235.49,-81.95,-64.07,35.84,161.0,0,225.07,-0.11
ny_cut_3_0_opt_disp_struct_15.xyz,Nucleus 16C :,0.963392,8.416223,3.28001,163.29,191.27,155.53,143.07,261.41,228.27,214.8,-65.21,-71.1,-78.29,143.07,155.53,191.27,0,48.2,-0.48
ny_cut_3_0_opt_disp_struct_15.xyz,Nucleus 19C :,-0.454517,6.778849,2.649418,2.18,-93.07,5.17,94.44,271.38,254.82,200.93,-350.1,-263.17,-107.32,-93.07,5.17,94.44,0,187.51,0.05
ny_cut_3_0_opt_disp_struct_15.xyz,Nucleus 21N :,-1.358795,6.633551,2.248674,145.89,48.67,147.07,241.93,320.09,344.38,300.43,-271.41,-178.04,-77.79,48.67,147.07,241.93,0,193.26,0.02
ny_cut_3_0_opt_disp_struct_15.xyz,Nucleus 13O :,0.322259,6.346116,2.187437,211.08,258.25,211.48,163.51,334.62,406.98,390.17,-145.39,-123.24,-229.9,163.51,211.48,258.25,0,94.74,0.01
ny_cut_3_0_opt_disp_struct_15.xyz,Nucleus 20O :,-1.560609,9.566429,2.67708,-116.66,-420.93,-244.59,315.55,427.86,383.59,376.74,-847.93,-628.94,-61.3,-420.93,-244.59,315.55,0,736.48,-0.52
ny_cut_3_0_opt_disp_struct_16.xyz,Nucleus 1H :,1.215353,0.309458,0.200166,28.86,34.61,26.65,25.31,44.41,26.26,25.5,-10.88,1.09,0.2,25.31,26.65,34.61,0,9.3,-0.71
ny_cut_3_0_opt_disp_struct_16.xyz,Nucleus 2H :,1.811719,1.063099,0.731106,29.36,34.51,29.09,24.48,40.38,31.65,28.41,0.16,-6.61,-5.91,24.48,29.09,34.51,0,10.03,-0.08
ny_cut_3_0_opt_disp_struct_16.xyz,Nucleus 5H :,1.545731,0.303011,-0.841072,23.96,28.26,22.52,21.1,46.47,31.64,29.7,-24.08,-3.35,-8.5,21.1,22.52,28.26,0,7.16,-0.6
ny_cut_3_0_opt_disp_struct_16.xyz,Nucleus 7H :,-0.253096,0.597295,0.303224,24.36,27.74,23.96,21.39,46.26,31.18,16.28,-22.32,-3.48,5.16,21.39,23.96,27.74,0,6.35,-0.19
ny_cut_3_0_opt_disp_struct_16.xyz,Nucleus 10H :,-0.944755,1.127923,-0.793726,24.71,28.2,24.05,21.87,47.12,32.84,23.88,-23.13,-4.78,-1.82,21.87,24.05,28.2,0,6.33,-0.31
ny_cut_3_0_opt_disp_struct_16.xyz,Nucleus 12H :,-0.412584,1.353563,-1.712296,24.01,28.52,22.57,20.93,47.09,31.57,28.58,-24.66,-3.05,-7.5,20.93,22.57,28.52,0,7.59,-0.57
ny_cut_3_0_opt_disp_struct_16.xyz,Nucleus 14H :,-2.316425,1.372658,-0.712213,27.45,36.38,26.37,19.61,47.13,30.64,11.24,8.5,-4.25,-10.9,19.61,26.37,36.38,0,16.77,-0.19
ny_cut_3_0_opt_disp_struct_16.xyz,Nucleus 15H :,-2.865496,1.783522,-1.553102,29.06,34.61,28.32,24.25,41.11,31.91,27.7,-0.33,-5.04,-8.18,24.25,28.32,34.61,0,10.36,-0.21
ny_cut_3_0_opt_disp_struct_16.xyz,Nucleus 17H :,-2.999153,1.080834,0.461842,29.62,34.66,27.87,26.34,-4.81,13.74,37.76,31.86,14.19,-3.87,26.34,27.87,34.66,0,8.32,-0.63
ny_cut_3_0_opt_disp_struct_16.xyz,Nucleus 18H :,-2.333376,0.541148,1.55732,29.83,33.67,25.76,30.07,42.86,25.68,7.96,-10.44,4.8,18.64,25.76,30.07,33.67,0,7.91,0.09
ny_cut_3_0_opt_disp_struct_16.xyz,Nucleus 22H :,-2.87247,0.325383,2.476331,27.2,32.35,26.63,22.63,55.75,42.05,28.97,-29.81,-15.57,0.22,22.63,26.63,32.35,0,9.72,-0.18
ny_cut_3_0_opt_disp_struct_16.xyz,Nucleus 23H :,-0.960708,0.294763,1.474288,27.37,34.59,23.96,23.55,34.12,43.65,54.71,-30.47,-13.34,-6.58,23.55,23.96,34.59,0,11.04,-0.93
ny_cut_3_0_opt_disp_struct_16.xyz,Nucleus 24H :,-0.435582,-0.117065,2.330331,29.54,34.06,27.11,27.46,38.06,15.25,2.3,-5.36,11.97,26.41,27.11,27.46,34.06,0,6.95,-0.9
ny_cut_3_0_opt_disp_struct_16.xyz,Nucleus 0C :,-4.337877,1.337775,0.500071,162.08,189.16,140.23,156.86,254.36,237.66,241.65,-64.18,-102.24,-81.01,140.23,156.86,189.16,0,48.93,-0.32
ny_cut_3_0_opt_disp_struct_16.xyz,Nucleus 3C :,-4.692616,1.0495,1.348451,44.34,174.8,-58.69,16.91,238.63,262.56,269.68,-63.93,-321.3,-252.63,-58.69,16.91,174.8,0,233.49,-0.35
ny_cut_3_0_opt_disp_struct_16.xyz,Nucleus 4C :,1.459394,-0.661423,0.641266,42.69,-66.41,38.67,155.8,270.98,260.14,243.12,-327.01,-231.78,-87.39,-66.41,38.67,155.8,0,222.21,-0.05
ny_cut_3_0_opt_disp_struct_16.xyz,Nucleus 6C :,-1.346496,9.079231,3.569697,61.91,-27.29,47.23,165.8,226.05,271.08,260.33,-60.46,-223.47,-287.78,-27.29,47.23,165.8,0,193.09,-0.23
ny_cut_3_0_opt_disp_struct_16.xyz,Nucleus 8C :,-1.147967,9.652768,4.477055,19.99,-70.99,118.43,12.54,234.12,261.4,267.11,-115.7,-333.17,-253.79,-70.99,12.54,118.43,0,189.42,-0.12
ny_cut_3_0_opt_disp_struct_16.xyz,Nucleus 9C :,-2.255629,8.485978,3.70215,62.95,-26.51,61.16,154.2,236.3,263.39,273.86,-291.01,-211.45,-82.24,-26.51,61.16,154.2,0,180.71,-0.03
ny_cut_3_0_opt_disp_struct_16.xyz,Nucleus 11C :,-0.141802,8.25011,3.227801,44.28,-64.04,35.92,160.96,271.27,259.09,242.72,-322.92,-235.35,-81.97,-64.04,35.92,160.96,0,225.0,-0.11
ny_cut_3_0_opt_disp_struct_16.xyz,Nucleus 16C :,1.008928,8.647539,3.363193,163.28,191.26,155.51,143.07,261.67,228.07,214.34,-65.03,-71.04,-78.17,143.07,155.51,191.26,0,48.19,-0.48
ny_cut_3_0_opt_disp_struct_16.xyz,Nucleus 19C :,-0.408981,7.010165,2.7326,2.18,-93.13,5.21,94.45,271.6,254.67,200.13,-349.98,-263.36,-106.54,-93.13,5.21,94.45,0,187.58,0.05
ny_cut_3_0_opt_disp_struct_16.xyz,Nucleus 21N :,-1.313259,6.864867,2.331857,145.93,48.81,147.11,241.87,320.06,299.81,345.14,-271.17,-178.87,-77.18,48.81,147.11,241.87,0,193.06,0.02
ny_cut_3_0_opt_disp_struct_16.xyz,Nucleus 13O :,0.367795,6.577432,2.27062,211.06,258.24,211.45,163.48,334.63,406.94,390.11,-145.36,-123.28,-229.86,163.48,211.45,258.24,0,94.76,0.01
ny_cut_3_0_opt_disp_struct_16.xyz,Nucleus 20O :,-1.515073,9.797745,2.760263,-116.78,-421.18,-244.74,315.57,428.01,383.33,376.03,-848.32,-628.85,-60.54,-421.18,-244.74,315.57,0,736.75,-0.52
ny_cut_3_0_opt_disp_struct_17.xyz,Nucleus 1H :,1.215353,0.309458,0.200166,28.86,34.62,26.65,25.3,44.38,26.22,25.41,-10.85,1.1,0.33,25.3,26.65,34.62,0,9.32,-0.71
ny_cut_3_0_opt_disp_struct_17.xyz,Nucleus 2H :,1.811719,1.063099,0.731106,29.36,34.51,29.1,24.47,40.34,31.63,28.37,0.2,-6.59,-5.86,24.47,29.1,34.51,0,10.04,-0.08
ny_cut_3_0_opt_disp_struct_17.xyz,Nucleus 5H :,1.545731,0.303011,-0.841072,23.96,28.27,22.52,21.1,46.38,31.59,29.68,-23.98,-3.3,-8.49,21.1,22.52,28.27,0,7.17,-0.6
ny_cut_3_0_opt_disp_struct_17.xyz,Nucleus 7H :,-0.253096,0.597295,0.303224,24.36,27.75,23.97,21.37,46.16,31.15,16.25,-22.21,-3.44,5.17,21.37,23.97,27.75,0,6.38,-0.18
ny_cut_3_0_opt_disp_struct_17.xyz,Nucleus 10H :,-0.944755,1.127923,-0.793726,24.7,28.21,24.05,21.85,47.03,32.81,23.87,-23.03,-4.73,-1.83,21.85,24.05,28.21,0,6.36,-0.31
ny_cut_3_0_opt_disp_struct_17.xyz,Nucleus 12H :,-0.412584,1.353563,-1.712296,24.01,28.53,22.57,20.93,46.98,31.53,28.57,-24.55,-3.0,-7.5,20.93,22.57,28.53,0,7.6,-0.57
ny_cut_3_0_opt_disp_struct_17.xyz,Nucleus 14H :,-2.316425,1.372658,-0.712213,27.45,36.38,26.38,19.6,47.08,30.61,11.24,8.5,-4.22,-10.84,19.6,26.38,36.38,0,16.78,-0.19
ny_cut_3_0_opt_disp_struct_17.xyz,Nucleus 15H :,-2.865496,1.783522,-1.553102,29.06,34.6,28.33,24.25,41.08,31.9,27.66,-0.29,-4.99,-8.17,24.25,28.33,34.6,0,10.35,-0.21
ny_cut_3_0_opt_disp_struct_17.xyz,Nucleus 17H :,-2.999153,1.080834,0.461842,29.62,34.64,27.87,26.34,-5.54,13.52,37.74,32.6,14.42,-3.87,26.34,27.87,34.64,0,8.3,-0.63
ny_cut_3_0_opt_disp_struct_17.xyz,Nucleus 18H :,-2.333376,0.541148,1.55732,29.83,33.68,25.77,30.03,43.1,25.67,7.69,-10.7,4.78,18.94,25.77,30.03,33.68,0,7.91,0.08
ny_cut_3_0_opt_disp_struct_17.xyz,Nucleus 22H :,-2.87247,0.325383,2.476331,27.18,32.29,26.61,22.65,56.41,42.49,28.89,-30.54,-15.98,0.27,22.65,26.61,32.29,0,9.64,-0.18
ny_cut_3_0_opt_disp_struct_17.xyz,Nucleus 23H :,-0.960708,0.294763,1.474288,27.35,34.56,23.97,23.51,34.18,43.7,55.56,-31.29,-13.62,-6.49,23.51,23.97,34.56,0,11.05,-0.92
ny_cut_3_0_opt_disp_struct_17.xyz,Nucleus 24H :,-0.435582,-0.117065,2.330331,29.54,34.06,27.11,27.45,38.08,15.1,1.67,-5.42,12.14,27.05,27.11,27.45,34.06,0,6.95,-0.9
ny_cut_3_0_opt_disp_struct_17.xyz,Nucleus 0C :,-4.337877,1.337775,0.500071,162.08,189.16,140.21,156.87,254.33,237.55,241.64,-64.15,-102.24,-80.89,140.21,156.87,189.16,0,48.95,-0.32
ny_cut_3_0_opt_disp_struct_17.xyz,Nucleus 3C :,-4.692616,1.0495,1.348451,44.35,174.77,-58.68,16.97,238.6,262.55,269.5,-63.92,-321.27,-252.39,-58.68,16.97,174.77,0,233.45,-0.35
ny_cut_3_0_opt_disp_struct_17.xyz,Nucleus 4C :,1.459394,-0.661423,0.641266,42.68,-66.41,38.68,155.77,270.89,260.07,243.11,-326.91,-231.71,-87.4,-66.41,38.68,155.77,0,222.18,-0.05
ny_cut_3_0_opt_disp_struct_17.xyz,Nucleus 6C :,-1.30096,9.310547,3.652879,61.89,-27.31,47.21,165.78,226.01,271.01,260.23,-60.44,-223.45,-287.69,-27.31,47.21,165.78,0,193.09,-0.23
ny_cut_3_0_opt_disp_struct_17.xyz,Nucleus 8C :,-1.10243,9.884084,4.560237,19.99,-70.99,118.41,12.54,234.1,261.35,267.0,-115.69,-333.14,-253.66,-70.99,12.54,118.41,0,189.4,-0.12
ny_cut_3_0_opt_disp_struct_17.xyz,Nucleus 9C :,-2.210093,8.717294,3.785333,62.96,-26.5,61.2,154.17,236.27,263.32,273.76,-290.88,-211.36,-82.24,-26.5,61.2,154.17,0,180.67,-0.03
ny_cut_3_0_opt_disp_struct_17.xyz,Nucleus 11C :,-0.096266,8.481426,3.310983,44.3,-64.01,35.98,160.93,271.21,258.97,242.7,-322.76,-235.22,-81.99,-64.01,35.98,160.93,0,224.94,-0.11
ny_cut_3_0_opt_disp_struct_17.xyz,Nucleus 16C :,1.054464,8.878855,3.446376,163.27,191.25,155.48,143.08,261.93,227.88,213.89,-64.83,-70.98,-78.08,143.08,155.48,191.25,0,48.17,-0.49
ny_cut_3_0_opt_disp_struct_17.xyz,Nucleus 19C :,-0.363445,7.241481,2.815783,2.17,-93.19,5.24,94.46,271.81,254.53,199.33,-349.86,-263.55,-105.75,-93.19,5.24,94.46,0,187.65,0.05
ny_cut_3_0_opt_disp_struct_17.xyz,Nucleus 21N :,-1.267723,7.096183,2.41504,145.96,48.92,147.14,241.81,320.02,299.13,345.91,-270.94,-179.67,-76.58,48.92,147.14,241.81,0,192.89,0.02
ny_cut_3_0_opt_disp_struct_17.xyz,Nucleus 13O :,0.413331,6.808748,2.353803,211.04,258.23,211.43,163.46,334.63,406.9,390.06,-145.33,-123.32,-229.81,163.46,211.43,258.23,0,94.77,0.01
ny_cut_3_0_opt_disp_struct_17.xyz,Nucleus 20O :,-1.469537,10.029061,2.843445,-116.89,-421.4,-244.87,315.59,428.17,383.06,375.27,-848.7,-628.74,-59.75,-421.4,-244.87,315.59,0,736.99,-0.52
ny_cut_3_0_opt_disp_struct_18.xyz,Nucleus 1H :,1.215353,0.309458,0.200166,28.86,34.63,26.65,25.3,44.35,26.18,25.31,-10.82,1.11,0.45,25.3,26.65,34.63,0,9.33,-0.71
ny_cut_3_0_opt_disp_struct_18.xyz,Nucleus 2H :,1.811719,1.063099,0.731106,29.36,34.51,29.1,24.47,40.29,31.62,28.32,0.23,-6.56,-5.82,24.47,29.1,34.51,0,10.04,-0.08
ny_cut_3_0_opt_disp_struct_18.xyz,Nucleus 5H :,1.545731,0.303011,-0.841072,23.96,28.27,22.52,21.09,46.28,31.55,29.66,-23.88,-3.25,-8.49,21.09,22.52,28.27,0,7.18,-0.6
ny_cut_3_0_opt_disp_struct_18.xyz,Nucleus 7H :,-0.253096,0.597295,0.303224,24.36,27.75,23.97,21.36,46.06,31.12,16.23,-22.11,-3.4,5.18,21.36,23.97,27.75,0,6.39,-0.18
ny_cut_3_0_opt_disp_struct_18.xyz,Nucleus 10H :,-0.944755,1.127923,-0.793726,24.71,28.22,24.06,21.84,46.93,32.78,23.86,-22.92,-4.69,-1.84,21.84,24.06,28.22,0,6.38,-0.31
ny_cut_3_0_opt_disp_struct_18.xyz,Nucleus 12H :,-0.412584,1.353563,-1.712296,24.01,28.54,22.58,20.92,46.88,31.5,28.56,-24.44,-2.96,-7.51,20.92,22.58,28.54,0,7.62,-0.56
ny_cut_3_0_opt_disp_struct_18.xyz,Nucleus 14H :,-2.316425,1.372658,-0.712213,27.46,36.39,26.39,19.6,47.03,30.59,11.23,8.5,-4.19,-10.78,19.6,26.39,36.39,0,16.79,-0.19
ny_cut_3_0_opt_disp_struct_18.xyz,Nucleus 15H :,-2.865496,1.783522,-1.553102,29.07,34.6,28.34,24.26,41.06,31.89,27.61,-0.25,-4.95,-8.16,24.26,28.34,34.6,0,10.34,-0.21
ny_cut_3_0_opt_disp_struct_18.xyz,Nucleus 17H :,-2.999153,1.080834,0.461842,29.61,34.62,27.88,26.34,-6.27,13.29,37.72,33.34,14.64,-3.88,26.34,27.88,34.62,0,8.28,-0.63
ny_cut_3_0_opt_disp_struct_18.xyz,Nucleus 18H :,-2.333376,0.541148,1.55732,29.82,33.69,25.78,30.0,43.35,25.66,7.41,-10.96,4.76,19.25,25.78,30.0,33.69,0,7.91,0.07
ny_cut_3_0_opt_disp_struct_18.xyz,Nucleus 22H :,-2.87247,0.325383,2.476331,27.17,32.23,26.6,22.67,57.08,42.92,28.82,-31.27,-16.38,0.33,22.67,26.6,32.23,0,9.56,-0.18
ny_cut_3_0_opt_disp_struct_18.xyz,Nucleus 23H :,-0.960708,0.294763,1.474288,27.33,34.53,23.98,23.47,34.22,43.76,56.4,-32.11,-13.89,-6.39,23.47,23.98,34.53,0,11.06,-0.91
ny_cut_3_0_opt_disp_struct_18.xyz,Nucleus 24H :,-0.435582,-0.117065,2.330331,29.54,34.05,27.12,27.44,38.1,14.94,1.04,-5.48,12.31,27.69,27.12,27.44,34.05,0,6.93,-0.91
ny_cut_3_0_opt_disp_struct_18.xyz,Nucleus 0C :,-4.337877,1.337775,0.500071,162.08,189.16,140.2,156.88,254.31,237.44,241.63,-64.12,-102.24,-80.78,140.2,156.88,189.16,0,48.96,-0.32
ny_cut_3_0_opt_disp_struct_18.xyz,Nucleus 3C :,-4.692616,1.0495,1.348451,44.37,174.75,-58.66,17.03,238.56,262.54,269.33,-63.91,-321.24,-252.16,-58.66,17.03,174.75,0,233.41,-0.35
ny_cut_3_0_opt_disp_struct_18.xyz,Nucleus 4C :,1.459394,-0.661423,0.641266,42.67,-66.42,38.68,155.75,270.8,259.99,243.09,-326.82,-231.65,-87.4,-66.42,38.68,155.75,0,222.17,-0.05
ny_cut_3_0_opt_disp_struct_18.xyz,Nucleus 6C :,-1.255424,9.541863,3.736062,61.88,-27.32,47.19,165.76,225.98,270.95,260.13,-60.42,-223.43,-287.59,-27.32,47.19,165.76,0,193.08,-0.23
ny_cut_3_0_opt_disp_struct_18.xyz,Nucleus 8C :,-1.056894,10.1154,4.64342,19.98,-70.99,118.39,12.53,234.08,261.31,266.89,-115.69,-333.11,-253.55,-70.99,12.53,118.39,0,189.38,-0.12
ny_cut_3_0_opt_disp_struct_18.xyz,Nucleus 9C :,-2.164557,8.94861,3.868516,62.96,-26.49,61.23,154.14,236.25,263.25,273.66,-290.76,-211.28,-82.25,-26.49,61.23,154.14,0,180.63,-0.03
ny_cut_3_0_opt_disp_struct_18.xyz,Nucleus 11C :,-0.05073,8.712742,3.394166,44.32,-63.98,36.04,160.9,271.15,258.86,242.68,-322.62,-235.1,-82.0,-63.98,36.04,160.9,0,224.88,-0.11
ny_cut_3_0_opt_disp_struct_18.xyz,Nucleus 16C :,1.1,9.110171,3.529558,163.27,191.25,155.46,143.09,262.2,227.68,213.44,-64.6,-70.91,-78.0,143.09,155.46,191.25,0,48.16,-0.49
ny_cut_3_0_opt_disp_struct_18.xyz,Nucleus 19C :,-0.317909,7.472797,2.898966,2.17,-93.24,5.27,94.47,272.03,254.39,198.52,-349.74,-263.73,-104.97,-93.24,5.27,94.47,0,187.71,0.05
ny_cut_3_0_opt_disp_struct_18.xyz,Nucleus 21N :,-1.222187,7.327499,2.498222,145.98,49.02,147.16,241.77,319.98,298.45,346.71,-270.72,-180.49,-75.97,49.02,147.16,241.77,0,192.75,0.02
ny_cut_3_0_opt_disp_struct_18.xyz,Nucleus 13O :,0.458867,7.040064,2.436985,211.02,258.22,211.4,163.45,334.64,406.85,390.0,-145.3,-123.35,-229.77,163.45,211.4,258.22,0,94.77,0.01
ny_cut_3_0_opt_disp_struct_18.xyz,Nucleus 20O :,-1.424001,10.260377,2.926628,-116.99,-421.59,-244.99,315.6,428.33,382.81,374.5,-849.05,-628.62,-58.95,-421.59,-244.99,315.6,0,737.19,-0.52
ny_cut_3_0_opt_disp_struct_19.xyz,Nucleus 1H :,1.215353,0.309458,0.200166,28.86,34.64,26.65,25.29,44.32,26.15,25.22,-10.8,1.12,0.57,25.29,26.65,34.64,0,9.35,-0.71
ny_cut_3_0_opt_disp_struct_19.xyz,Nucleus 2H :,1.811719,1.063099,0.731106,29.36,34.51,29.11,24.47,40.25,31.6,28.28,0.27,-6.54,-5.77,24.47,29.11,34.51,0,10.04,-0.07
ny_cut_3_0_opt_disp_struct_19.xyz,Nucleus 5H :,1.545731,0.303011,-0.841072,23.96,28.28,22.52,21.08,46.19,31.51,29.64,-23.78,-3.2,-8.48,21.08,22.52,28.28,0,7.2,-0.6
ny_cut_3_0_opt_disp_struct_19.xyz,Nucleus 7H :,-0.253096,0.597295,0.303224,24.36,27.76,23.97,21.35,45.96,31.1,16.21,-22.01,-3.37,5.18,21.35,23.97,27.76,0,6.41,-0.18
ny_cut_3_0_opt_disp_struct_19.xyz,Nucleus 10H :,-0.944755,1.127923,-0.793726,24.71,28.23,24.07,21.83,46.84,32.75,23.85,-22.83,-4.65,-1.84,21.83,24.07,28.23,0,6.4,-0.3
ny_cut_3_0_opt_disp_struct_19.xyz,Nucleus 12H :,-0.412584,1.353563,-1.712296,24.01,28.55,22.58,20.91,46.79,31.46,28.55,-24.34,-2.91,-7.51,20.91,22.58,28.55,0,7.64,-0.56
ny_cut_3_0_opt_disp_struct_19.xyz,Nucleus 14H :,-2.316425,1.372658,-0.712213,27.46,36.39,26.39,19.59,46.98,30.56,11.23,8.49,-4.16,-10.73,19.59,26.39,36.39,0,16.8,-0.19
ny_cut_3_0_opt_disp_struct_19.xyz,Nucleus 15H :,-2.865496,1.783522,-1.553102,29.07,34.6,28.34,24.26,41.03,31.88,27.56,-0.21,-4.91,-8.15,24.26,28.34,34.6,0,10.34,-0.21
ny_cut_3_0_opt_disp_struct_19.xyz,Nucleus 17H :,-2.999153,1.080834,0.461842,29.61,34.61,27.88,26.34,-7.0,13.05,37.7,34.08,14.88,-3.88,26.34,27.88,34.61,0,8.27,-0.63
ny_cut_3_0_opt_disp_struct_19.xyz,Nucleus 18H :,-2.333376,0.541148,1.55732,29.81,33.7,25.78,29.96,43.59,25.64,7.13,-11.22,4.75,19.57,25.78,29.96,33.7,0,7.92,0.06
ny_cut_3_0_opt_disp_struct_19.xyz,Nucleus 22H :,-2.87247,0.325383,2.476331,27.15,32.18,26.58,22.69,57.74,43.34,28.76,-32.01,-16.76,0.38,22.69,26.58,32.18,0,9.49,-0.18
ny_cut_3_0_opt_disp_struct_19.xyz,Nucleus 23H :,-0.960708,0.294763,1.474288,27.31,34.51,23.43,24.0,34.27,43.82,57.23,-32.92,-14.16,-6.3,23.43,24.0,34.51,0,11.08,-0.9
ny_cut_3_0_opt_disp_struct_19.xyz,Nucleus 24H :,-0.435582,-0.117065,2.330331,29.53,34.04,27.12,27.43,38.12,14.78,0.41,-5.54,12.48,28.33,27.12,27.43,34.04,0,6.92,-0.91
ny_cut_3_0_opt_disp_struct_19.xyz,Nucleus 0C :,-4.337877,1.337775,0.500071,162.08,189.16,140.18,156.89,254.28,237.34,241.62,-64.09,-102.25,-80.66,140.18,156.89,189.16,0,48.98,-0.32
ny_cut_3_0_opt_disp_struct_19.xyz,Nucleus 3C :,-4.692616,1.0495,1.348451,44.39,174.73,-58.64,17.08,238.54,262.53,269.17,-63.9,-321.21,-251.95,-58.64,17.08,174.73,0,233.37,-0.35
ny_cut_3_0_opt_disp_struct_19.xyz,Nucleus 4C :,1.459394,-0.661423,0.641266,42.66,-66.42,38.68,155.72,270.72,259.92,243.08,-326.73,-231.59,-87.41,-66.42,38.68,155.72,0,222.14,-0.05
ny_cut_3_0_opt_disp_struct_19.xyz,Nucleus 6C :,-1.209888,9.773179,3.819245,61.86,-27.34,47.17,165.74,225.95,270.89,260.04,-60.41,-223.4,-287.5,-27.34,47.17,165.74,0,193.08,-0.23
ny_cut_3_0_opt_disp_struct_19.xyz,Nucleus 8C :,-1.011358,10.346717,4.726603,19.97,-70.99,118.37,12.53,234.06,261.26,266.79,-115.69,-333.08,-253.43,-70.99,12.53,118.37,0,189.36,-0.12
ny_cut_3_0_opt_disp_struct_19.xyz,Nucleus 9C :,-2.119021,9.179926,3.951699,62.97,-26.47,61.25,154.12,236.23,263.18,273.58,-290.64,-211.2,-82.25,-26.47,61.25,154.12,0,180.59,-0.03
ny_cut_3_0_opt_disp_struct_19.xyz,Nucleus 11C :,-0.005194,8.944058,3.477349,44.34,-63.96,36.09,160.88,271.1,258.75,242.67,-322.49,-234.99,-82.01,-63.96,36.09,160.88,0,224.84,-0.11
ny_cut_3_0_opt_disp_struct_19.xyz,Nucleus 16C :,1.145536,9.341487,3.612741,163.26,191.24,155.45,143.09,262.46,227.48,212.98,-64.35,-70.84,-77.94,143.09,155.45,191.24,0,48.15,-0.49
ny_cut_3_0_opt_disp_struct_19.xyz,Nucleus 19C :,-0.272373,7.704113,2.982149,2.16,-93.29,5.29,94.47,272.25,254.24,197.71,-349.61,-263.92,-104.19,-93.29,5.29,94.47,0,187.76,0.05
ny_cut_3_0_opt_disp_struct_19.xyz,Nucleus 21N :,-1.176651,7.558815,2.581405,146.01,49.12,147.19,241.72,319.92,297.75,347.53,-270.5,-181.3,-75.37,49.12,147.19,241.72,0,192.6,0.02
ny_cut_3_0_opt_disp_struct_19.xyz,Nucleus 13O :,0.504403,7.27138,2.520168,211.01,258.21,211.38,163.43,334.65,406.81,389.94,-145.27,-123.38,-229.71,163.43,211.38,258.21,0,94.78,0.01
ny_cut_3_0_opt_disp_struct_19.xyz,Nucleus 20O :,-1.378465,10.491693,3.009811,-117.08,-421.76,-245.1,315.62,428.48,382.56,373.74,-849.37,-628.48,-58.16,-421.76,-245.1,315.62,0,737.38,-0.52
ny_cut_3_0_opt_disp_struct_2.xyz,Nucleus 1H :,1.215353,0.309458,0.200166,28.74,34.19,26.77,25.26,44.76,26.76,26.22,-11.67,1.11,-0.96,25.26,26.77,34.19,0,8.93,-0.66
ny_cut_3_0_opt_disp_struct_2.xyz,Nucleus 2H :,1.811719,1.063099,0.731106,29.31,34.65,28.92,24.37,41.11,31.6,29.35,-0.46,-7.26,-6.4,24.37,28.92,34.65,0,10.28,-0.11
ny_cut_3_0_opt_disp_struct_2.xyz,Nucleus 5H :,1.545731,0.303011,-0.841072,23.95,27.94,22.98,20.94,48.15,32.18,30.35,-25.89,-4.18,-8.74,20.94,22.98,27.94,0,7.0,-0.42
ny_cut_3_0_opt_disp_struct_2.xyz,Nucleus 7H :,-0.253096,0.597295,0.303224,24.38,27.39,24.23,21.51,48.13,31.4,17.43,-24.21,-4.12,4.5,21.51,24.23,27.39,0,5.88,-0.08
ny_cut_3_0_opt_disp_struct_2.xyz,Nucleus 10H :,-0.944755,1.127923,-0.793726,24.62,27.85,24.06,21.95,49.16,32.99,23.58,-25.45,-5.57,-0.85,21.95,24.06,27.85,0,5.9,-0.28
ny_cut_3_0_opt_disp_struct_2.xyz,Nucleus 12H :,-0.412584,1.353563,-1.712296,23.9,28.18,22.74,20.79,49.05,32.0,28.74,-26.93,-3.77,-7.39,20.79,22.74,28.18,0,7.39,-0.47
ny_cut_3_0_opt_disp_struct_2.xyz,Nucleus 14H :,-2.316425,1.372658,-0.712213,27.35,36.32,26.04,19.7,47.56,30.54,11.35,8.65,-4.51,-11.52,19.7,26.04,36.32,0,16.62,-0.24
ny_cut_3_0_opt_disp_struct_2.xyz,Nucleus 15H :,-2.865496,1.783522,-1.553102,29.02,34.86,28.11,24.09,41.86,31.93,28.47,-0.95,-5.71,-8.54,24.09,28.11,34.86,0,10.77,-0.25
ny_cut_3_0_opt_disp_struct_2.xyz,Nucleus 17H :,-2.999153,1.080834,0.461842,29.87,35.35,27.81,26.45,38.81,16.34,5.4,-4.06,11.68,21.44,26.45,27.81,35.35,0,8.9,-0.69
ny_cut_3_0_opt_disp_struct_2.xyz,Nucleus 18H :,-2.333376,0.541148,1.55732,30.08,25.46,33.23,31.54,39.32,25.87,11.09,-6.74,5.9,14.8,25.46,31.54,33.23,0,7.77,0.56
ny_cut_3_0_opt_disp_struct_2.xyz,Nucleus 22H :,-2.87247,0.325383,2.476331,28.14,37.39,26.1,20.93,27.58,42.63,39.74,-17.52,-7.23,-0.78,20.93,26.1,37.39,0,16.46,-0.37
ny_cut_3_0_opt_disp_struct_2.xyz,Nucleus 23H :,-0.960708,0.294763,1.474288,28.45,37.68,25.64,22.03,30.91,47.39,39.72,-4.93,-10.23,-17.5,22.03,25.64,37.68,0,15.65,-0.54
ny_cut_3_0_opt_disp_struct_2.xyz,Nucleus 24H :,-0.435582,-0.117065,2.330331,29.76,34.36,26.97,27.94,38.45,16.55,11.05,-4.88,10.56,17.54,26.97,27.94,34.36,0,7.39,-0.74
ny_cut_3_0_opt_disp_struct_2.xyz,Nucleus 0C :,-4.337877,1.337775,0.500071,162.18,189.14,140.72,156.67,254.85,242.89,240.27,-65.07,-102.52,-83.9,140.72,156.67,189.14,0,48.42,-0.34
ny_cut_3_0_opt_disp_struct_2.xyz,Nucleus 3C :,-4.692616,1.0495,1.348451,43.71,176.04,-58.86,13.95,240.18,261.34,274.27,-64.4,-320.22,-260.03,-58.86,13.95,176.04,0,234.9,-0.38
ny_cut_3_0_opt_disp_struct_2.xyz,Nucleus 4C :,1.459394,-0.661423,0.641266,42.61,-66.29,36.96,157.15,273.35,260.8,243.39,-328.57,-234.76,-86.39,-66.29,36.96,157.15,0,223.44,-0.08
ny_cut_3_0_opt_disp_struct_2.xyz,Nucleus 6C :,-1.984001,5.840807,2.405138,62.49,-26.18,46.64,167.02,227.33,262.39,272.71,-60.46,-224.94,-289.54,-26.18,46.64,167.02,0,193.2,-0.25
ny_cut_3_0_opt_disp_struct_2.xyz,Nucleus 8C :,-1.785471,6.414344,3.312496,20.44,-70.41,119.5,12.22,235.62,262.08,269.7,-116.17,-332.78,-257.15,-70.41,12.22,119.5,0,189.91,-0.13
ny_cut_3_0_opt_disp_struct_2.xyz,Nucleus 9C :,-2.893134,5.247554,2.537592,60.98,-29.15,56.56,155.54,237.53,265.38,276.61,-297.5,-217.08,-82.0,-29.15,56.56,155.54,0,184.69,-0.07
ny_cut_3_0_opt_disp_struct_2.xyz,Nucleus 11C :,-0.779306,5.011685,2.063242,41.84,-67.24,30.38,162.38,273.31,262.42,243.98,-329.97,-242.51,-81.71,-67.24,30.38,162.38,0,229.62,-0.15
ny_cut_3_0_opt_disp_struct_2.xyz,Nucleus 16C :,0.371423,5.409115,2.198634,163.63,191.5,156.55,142.83,258.04,230.86,220.75,-65.2,-72.75,-80.82,142.83,156.55,191.5,0,48.67,-0.44
ny_cut_3_0_opt_disp_struct_2.xyz,Nucleus 19C :,-1.046486,3.771741,1.568042,2.32,-90.08,2.7,94.33,269.14,256.83,211.64,-350.42,-262.48,-117.76,-90.08,2.7,94.33,0,184.41,0.01
ny_cut_3_0_opt_disp_struct_2.xyz,Nucleus 21N :,-1.950764,3.626443,1.167298,144.09,39.26,149.55,243.46,317.61,303.5,339.64,-278.37,-163.03,-87.08,39.26,149.55,243.46,0,204.2,0.08
ny_cut_3_0_opt_disp_struct_2.xyz,Nucleus 13O :,-0.26971,3.339008,1.106061,211.47,257.76,212.32,164.32,334.71,407.46,390.82,-121.93,-147.01,-229.65,164.32,212.32,257.76,0,93.44,0.03
ny_cut_3_0_opt_disp_struct_2.xyz,Nucleus 20O :,-2.152578,6.559321,1.595704,-108.81,-406.17,-235.64,315.39,425.52,387.71,388.06,-831.03,-624.04,-72.63,-406.17,-235.64,315.39,0,721.56,-0.53
ny_cut_3_0_opt_disp_struct_3.xyz,Nucleus 1H :,1.215353,0.309458,0.200166,28.77,34.24,26.77,25.3,44.8,26.78,26.26,-11.62,1.13,-1.04,25.3,26.77,34.24,0,8.94,-0.67
ny_cut_3_0_opt_disp_struct_3.xyz,Nucleus 2H :,1.811719,1.063099,0.731106,29.33,34.62,28.95,24.41,41.06,31.67,29.28,-0.44,-7.21,-6.39,24.41,28.95,34.62,0,10.21,-0.11
ny_cut_3_0_opt_disp_struct_3.xyz,Nucleus 5H :,1.545731,0.303011,-0.841072,23.96,27.97,22.9,21.01,48.06,32.21,30.34,-25.79,-4.24,-8.71,21.01,22.9,27.97,0,6.96,-0.46
ny_cut_3_0_opt_disp_struct_3.xyz,Nucleus 7H :,-0.253096,0.597295,0.303224,24.38,27.42,24.17,21.54,48.0,31.5,17.17,-24.09,-4.18,4.73,21.54,24.17,27.42,0,5.88,-0.11
ny_cut_3_0_opt_disp_struct_3.xyz,Nucleus 10H :,-0.944755,1.127923,-0.793726,24.64,27.88,24.05,21.98,48.98,33.04,23.71,-25.23,-5.54,-1.06,21.98,24.05,27.88,0,5.9,-0.3
ny_cut_3_0_opt_disp_struct_3.xyz,Nucleus 12H :,-0.412584,1.353563,-1.712296,23.92,28.21,22.7,20.85,48.92,32.05,28.77,-26.75,-3.78,-7.45,20.85,22.7,28.21,0,7.36,-0.5
ny_cut_3_0_opt_disp_struct_3.xyz,Nucleus 14H :,-2.316425,1.372658,-0.712213,27.38,36.31,26.11,19.71,47.57,30.61,11.38,8.6,-4.51,-11.52,19.71,26.11,36.31,0,16.6,-0.23
ny_cut_3_0_opt_disp_struct_3.xyz,Nucleus 15H :,-2.865496,1.783522,-1.553102,29.03,34.83,28.14,24.12,41.77,31.99,28.44,-0.92,-5.69,-8.5,24.12,28.14,34.83,0,10.71,-0.25
ny_cut_3_0_opt_disp_struct_3.xyz,Nucleus 17H :,-2.999153,1.080834,0.461842,29.83,35.25,27.8,26.43,38.65,16.16,4.65,-4.02,11.83,22.2,26.43,27.8,35.25,0,8.82,-0.69
ny_cut_3_0_opt_disp_struct_3.xyz,Nucleus 18H :,-2.333376,0.541148,1.55732,30.04,25.49,33.29,31.34,39.55,25.82,10.92,-6.98,5.77,15.05,25.49,31.34,33.29,0,7.8,0.5
ny_cut_3_0_opt_disp_struct_3.xyz,Nucleus 22H :,-2.87247,0.325383,2.476331,28.09,36.34,26.47,21.45,28.36,44.02,38.77,-18.42,-7.82,-0.65,21.45,26.47,36.34,0,14.89,-0.33
ny_cut_3_0_opt_disp_struct_3.xyz,Nucleus 23H :,-0.960708,0.294763,1.474288,28.36,36.92,25.61,22.56,31.79,46.48,41.1,-5.91,-9.99,-18.38,22.56,25.61,36.92,0,14.36,-0.57
ny_cut_3_0_opt_disp_struct_3.xyz,Nucleus 24H :,-0.435582,-0.117065,2.330331,29.72,34.31,26.98,27.87,38.37,16.49,10.4,-4.9,10.62,18.19,26.98,27.87,34.31,0,7.33,-0.76
ny_cut_3_0_opt_disp_struct_3.xyz,Nucleus 0C :,-4.337877,1.337775,0.500071,162.16,189.16,140.67,156.65,254.83,242.64,240.02,-64.98,-102.39,-83.64,140.67,156.65,189.16,0,48.49,-0.34
ny_cut_3_0_opt_disp_struct_3.xyz,Nucleus 3C :,-4.692616,1.0495,1.348451,43.89,175.83,-58.78,14.62,240.0,261.77,273.85,-64.42,-320.56,-258.97,-58.78,14.62,175.83,0,234.61,-0.37
ny_cut_3_0_opt_disp_struct_3.xyz,Nucleus 4C :,1.459394,-0.661423,0.641266,42.86,-66.04,37.67,156.94,273.19,260.97,243.39,-328.34,-234.08,-86.56,-66.04,37.67,156.94,0,222.98,-0.07
ny_cut_3_0_opt_disp_struct_3.xyz,Nucleus 6C :,-1.938465,6.072123,2.488321,62.61,-26.18,47.19,166.82,227.07,272.62,262.25,-60.39,-224.49,-289.23,-26.18,47.19,166.82,0,193.0,-0.24
ny_cut_3_0_opt_disp_struct_3.xyz,Nucleus 8C :,-1.739935,6.64566,3.395679,20.41,-70.47,119.33,12.37,235.35,262.24,269.34,-116.04,-333.09,-256.58,-70.47,12.37,119.33,0,189.8,-0.13
ny_cut_3_0_opt_disp_struct_3.xyz,Nucleus 9C :,-2.847598,5.47887,2.620775,61.7,-28.2,57.96,155.34,237.16,265.16,276.28,-296.0,-215.67,-81.83,-28.2,57.96,155.34,0,183.54,-0.06
ny_cut_3_0_opt_disp_struct_3.xyz,Nucleus 11C :,-0.73377,5.243001,2.146425,42.59,-66.22,31.84,162.16,273.14,262.07,243.73,-328.51,-241.0,-81.65,-66.22,31.84,162.16,0,228.38,-0.14
ny_cut_3_0_opt_disp_struct_3.xyz,Nucleus 16C :,0.416959,5.640431,2.281817,163.57,191.47,156.35,142.88,258.3,230.6,220.28,-65.27,-72.61,-80.6,142.88,156.35,191.47,0,48.59,-0.45
ny_cut_3_0_opt_disp_struct_3.xyz,Nucleus 19C :,-1.00095,4.003057,1.651225,2.26,-90.73,3.24,94.28,269.25,256.74,210.67,-350.76,-262.22,-116.87,-90.73,3.24,94.28,0,185.01,0.02
ny_cut_3_0_opt_disp_struct_3.xyz,Nucleus 21N :,-1.905228,3.857759,1.250481,144.71,42.53,148.02,243.59,317.53,303.3,339.55,-275.06,-165.47,-85.71,42.53,148.02,243.59,0,201.06,0.05
ny_cut_3_0_opt_disp_struct_3.xyz,Nucleus 13O :,-0.224174,3.570324,1.189244,211.49,257.99,212.22,164.27,334.75,407.41,390.67,-122.07,-146.78,-229.5,164.27,212.22,257.99,0,93.72,0.02
ny_cut_3_0_opt_disp_struct_3.xyz,Nucleus 20O :,-2.107042,6.790637,1.678887,-110.93,-410.08,-238.0,315.29,425.73,387.26,386.67,-835.13,-625.92,-71.4,-410.08,-238.0,315.29,0,725.37,-0.53
ny_cut_3_0_opt_disp_struct_4.xyz,Nucleus 1H :,1.215353,0.309458,0.200166,28.79,34.29,26.75,25.33,44.79,26.23,26.79,-11.53,1.13,-1.04,25.33,26.75,34.29,0,8.96,-0.68
ny_cut_3_0_opt_disp_struct_4.xyz,Nucleus 2H :,1.811719,1.063099,0.731106,29.33,34.59,28.97,24.43,41.0,31.7,29.19,-0.4,-7.14,-6.35,24.43,28.97,34.59,0,10.16,-0.11
ny_cut_3_0_opt_disp_struct_4.xyz,Nucleus 5H :,1.545731,0.303011,-0.841072,23.96,28.01,22.81,21.06,47.95,32.2,30.29,-25.67,-4.2,-8.69,21.06,22.81,28.01,0,6.95,-0.5
ny_cut_3_0_opt_disp_struct_4.xyz,Nucleus 7H :,-0.253096,0.597295,0.303224,24.37,27.47,24.1,21.55,47.84,31.52,16.98,-23.95,-4.15,4.87,21.55,24.1,27.47,0,5.92,-0.14
ny_cut_3_0_opt_disp_struct_4.xyz,Nucleus 10H :,-0.944755,1.127923,-0.793726,24.65,27.92,24.03,21.99,48.8,33.07,23.8,-25.01,-5.47,-1.24,21.99,24.03,27.92,0,5.93,-0.31
ny_cut_3_0_opt_disp_struct_4.xyz,Nucleus 12H :,-0.412584,1.353563,-1.712296,23.93,28.25,22.66,20.89,48.77,32.03,28.78,-26.57,-3.74,-7.47,20.89,22.66,28.25,0,7.36,-0.52
ny_cut_3_0_opt_disp_struct_4.xyz,Nucleus 14H :,-2.316425,1.372658,-0.712213,27.39,36.31,26.16,19.71,47.57,30.67,11.41,8.55,-4.52,-11.5,19.71,26.16,36.31,0,16.6,-0.22
ny_cut_3_0_opt_disp_struct_4.xyz,Nucleus 15H :,-2.865496,1.783522,-1.553102,29.03,34.79,28.16,24.14,41.67,32.01,28.38,-0.87,-5.64,-8.44,24.14,28.16,34.79,0,10.65,-0.25
ny_cut_3_0_opt_disp_struct_4.xyz,Nucleus 17H :,-2.999153,1.080834,0.461842,29.79,35.16,27.8,26.41,38.52,16.01,3.93,-3.98,11.97,22.94,26.41,27.8,35.16,0,8.75,-0.68
ny_cut_3_0_opt_disp_struct_4.xyz,Nucleus 18H :,-2.333376,0.541148,1.55732,30.01,25.52,33.35,31.16,39.81,25.8,10.77,-7.24,5.63,15.26,25.52,31.16,33.35,0,7.83,0.44
ny_cut_3_0_opt_disp_struct_4.xyz,Nucleus 22H :,-2.87247,0.325383,2.476331,27.97,35.51,26.64,21.75,28.99,45.34,38.21,-19.46,-8.59,-0.57,21.75,26.64,35.51,0,13.76,-0.29
ny_cut_3_0_opt_disp_struct_4.xyz,Nucleus 23H :,-0.960708,0.294763,1.474288,28.22,36.37,25.42,22.88,32.41,45.82,42.3,-6.62,-9.89,-19.36,22.88,25.42,36.37,0,13.49,-0.62
ny_cut_3_0_opt_disp_struct_4.xyz,Nucleus 24H :,-0.435582,-0.117065,2.330331,29.69,34.27,26.99,27.82,38.3,16.45,9.78,-4.92,10.66,18.81,26.99,27.82,34.27,0,7.28,-0.77
ny_cut_3_0_opt_disp_struct_4.xyz,Nucleus 0C :,-4.337877,1.337775,0.500071,162.14,189.16,140.62,156.65,254.79,242.36,239.68,-64.9,-102.22,-83.28,140.62,156.65,189.16,0,48.54,-0.34
ny_cut_3_0_opt_disp_struct_4.xyz,Nucleus 3C :,-4.692616,1.0495,1.348451,43.97,175.64,-58.79,15.06,239.81,262.09,273.46,-64.39,-320.91,-258.15,-58.79,15.06,175.64,0,234.43,-0.37
ny_cut_3_0_opt_disp_struct_4.xyz,Nucleus 4C :,1.459394,-0.661423,0.641266,42.94,-66.0,38.09,156.74,272.96,261.02,243.38,-328.22,-233.58,-86.72,-66.0,38.09,156.74,0,222.74,-0.07
ny_cut_3_0_opt_disp_struct_4.xyz,Nucleus 6C :,-1.892929,6.303439,2.571504,62.6,-26.32,47.47,166.65,226.94,272.54,262.0,-60.44,-224.23,-289.0,-26.32,47.47,166.65,0,192.97,-0.24
ny_cut_3_0_opt_disp_struct_4.xyz,Nucleus 8C :,-1.694399,6.876976,3.478862,20.34,-70.59,119.17,12.45,235.09,262.33,269.11,-115.92,-333.36,-256.21,-70.59,12.45,119.17,0,189.76,-0.12
ny_cut_3_0_opt_disp_struct_4.xyz,Nucleus 9C :,-2.802062,5.710186,2.703957,62.13,-27.64,58.88,155.16,236.97,264.86,276.02,-294.88,-214.74,-81.84,-27.64,58.88,155.16,0,182.8,-0.05
ny_cut_3_0_opt_disp_struct_4.xyz,Nucleus 11C :,-0.688234,5.474317,2.229608,43.07,-65.62,32.84,161.98,272.89,261.7,243.55,-327.45,-239.84,-81.64,-65.62,32.84,161.98,0,227.6,-0.13
ny_cut_3_0_opt_disp_struct_4.xyz,Nucleus 16C :,0.462496,5.871747,2.365,163.52,191.45,156.2,142.91,258.57,230.39,219.84,-65.35,-72.47,-80.41,142.91,156.2,191.45,0,48.54,-0.45
ny_cut_3_0_opt_disp_struct_4.xyz,Nucleus 19C :,-0.955414,4.234373,1.734407,2.25,-91.19,3.67,94.28,269.36,256.52,209.71,-350.89,-262.0,-115.94,-91.19,3.67,94.28,0,185.47,0.02
ny_cut_3_0_opt_disp_struct_4.xyz,Nucleus 21N :,-1.859692,4.089075,1.333664,145.02,44.33,147.24,243.48,317.89,303.28,339.63,-273.65,-167.41,-84.71,44.33,147.24,243.48,0,199.15,0.03
ny_cut_3_0_opt_disp_struct_4.xyz,Nucleus 13O :,-0.178638,3.80164,1.272427,211.46,258.1,212.12,164.15,334.77,407.35,390.57,-122.23,-146.58,-229.49,164.15,212.12,258.1,0,93.95,0.02
ny_cut_3_0_opt_disp_struct_4.xyz,Nucleus 20O :,-2.061505,7.021953,1.76207,-112.31,-412.63,-239.54,315.24,425.95,386.81,385.43,-837.89,-627.03,-70.21,-412.63,-239.54,315.24,0,727.87,-0.52
ny_cut_3_0_opt_disp_struct_5.xyz,Nucleus 1H :,1.215353,0.309458,0.200166,28.81,34.34,26.74,25.35,44.76,26.18,26.8,-11.44,1.13,-1.01,25.35,26.74,34.34,0,8.99,-0.69
ny_cut_3_0_opt_disp_struct_5.xyz,Nucleus 2H :,1.811719,1.063099,0.731106,29.34,34.57,28.99,24.45,40.93,31.71,29.09,-0.35,-7.07,-6.31,24.45,28.99,34.57,0,10.12,-0.1
ny_cut_3_0_opt_disp_struct_5.xyz,Nucleus 5H :,1.545731,0.303011,-0.841072,23.96,28.04,22.73,21.1,47.82,32.16,30.22,-25.54,-4.12,-8.66,21.1,22.73,28.04,0,6.94,-0.53
ny_cut_3_0_opt_disp_struct_5.xyz,Nucleus 7H :,-0.253096,0.597295,0.303224,24.37,27.51,24.05,21.56,47.69,31.5,16.86,-23.81,-4.07,4.95,21.56,24.05,27.51,0,5.95,-0.16
ny_cut_3_0_opt_disp_struct_5.xyz,Nucleus 10H :,-0.944755,1.127923,-0.793726,24.66,27.96,24.01,22.0,48.62,33.08,23.86,-24.81,-5.4,-1.38,22.0,24.01,27.96,0,5.96,-0.33
ny_cut_3_0_opt_disp_struct_5.xyz,Nucleus 12H :,-0.412584,1.353563,-1.712296,23.95,28.29,22.62,20.93,48.62,32.0,28.77,-26.39,-3.68,-7.48,20.93,22.62,28.29,0,7.36,-0.54
ny_cut_3_0_opt_disp_struct_5.xyz,Nucleus 14H :,-2.316425,1.372658,-0.712213,27.41,36.31,26.2,19.71,47.56,30.72,11.42,8.52,-4.52,-11.47,19.71,26.2,36.31,0,16.6,-0.22
ny_cut_3_0_opt_disp_struct_5.xyz,Nucleus 15H :,-2.865496,1.783522,-1.553102,29.04,34.76,28.19,24.16,41.58,32.02,28.31,-0.82,-5.59,-8.39,24.16,28.19,34.76,0,10.6,-0.24
ny_cut_3_0_opt_disp_struct_5.xyz,Nucleus 17H :,-2.999153,1.080834,0.461842,29.76,35.09,27.8,26.4,38.4,15.86,3.21,-3.95,12.11,23.67,26.4,27.8,35.09,0,8.69,-0.68
ny_cut_3_0_opt_disp_struct_5.xyz,Nucleus 18H :,-2.333376,0.541148,1.55732,29.99,25.56,33.4,31.0,40.08,25.78,10.61,-7.51,5.51,15.49,25.56,31.0,33.4,0,7.84,0.39
ny_cut_3_0_opt_disp_struct_5.xyz,Nucleus 22H :,-2.87247,0.325383,2.476331,27.84,34.86,26.72,21.95,29.39,46.58,37.98,-20.52,-9.39,-0.51,21.95,26.72,34.86,0,12.91,-0.26
ny_cut_3_0_opt_disp_struct_5.xyz,Nucleus 23H :,-0.960708,0.294763,1.474288,28.08,35.96,25.19,23.09,32.85,45.52,43.28,-7.07,-9.96,-20.39,23.09,25.19,35.96,0,12.87,-0.67
ny_cut_3_0_opt_disp_struct_5.xyz,Nucleus 24H :,-0.435582,-0.117065,2.330331,29.67,34.23,27.01,27.77,38.24,16.4,9.16,-4.94,10.71,19.44,27.01,27.77,34.23,0,7.22,-0.79
ny_cut_3_0_opt_disp_struct_5.xyz,Nucleus 0C :,-4.337877,1.337775,0.500071,162.13,189.15,140.57,156.66,254.74,242.13,239.36,-64.81,-102.1,-82.94,140.57,156.66,189.15,0,48.58,-0.34
ny_cut_3_0_opt_disp_struct_5.xyz,Nucleus 3C :,-4.692616,1.0495,1.348451,44.01,175.49,-58.83,15.38,239.63,262.32,273.06,-64.33,-321.18,-257.45,-58.83,15.38,175.49,0,234.32,-0.37
ny_cut_3_0_opt_disp_struct_5.xyz,Nucleus 4C :,1.459394,-0.661423,0.641266,42.96,-66.04,38.33,156.58,272.71,261.0,243.36,-328.14,-233.19,-86.87,-66.04,38.33,156.58,0,222.62,-0.06
ny_cut_3_0_opt_disp_struct_5.xyz,Nucleus 6C :,-1.847393,6.534755,2.654686,62.53,-26.48,47.58,166.49,226.85,272.41,261.77,-60.52,-224.06,-288.85,-26.48,47.58,166.49,0,192.97,-0.23
ny_cut_3_0_opt_disp_struct_5.xyz,Nucleus 8C :,-1.648863,7.108292,3.562044,20.28,-70.71,119.04,12.5,234.88,262.33,268.93,-115.84,-333.53,-255.93,-70.71,12.5,119.04,0,189.75,-0.12
ny_cut_3_0_opt_disp_struct_5.xyz,Nucleus 9C :,-2.756526,5.941502,2.78714,62.4,-27.3,59.5,155.0,236.82,264.6,275.79,-294.08,-214.07,-81.88,-27.3,59.5,155.0,0,182.3,-0.05
ny_cut_3_0_opt_disp_struct_5.xyz,Nucleus 11C :,-0.642698,5.705633,2.31279,43.38,-65.22,33.55,161.82,272.63,261.36,243.39,-326.65,-238.94,-81.64,-65.22,33.55,161.82,0,227.04,-0.13
ny_cut_3_0_opt_disp_struct_5.xyz,Nucleus 16C :,0.508032,6.103063,2.448183,163.48,191.43,156.07,142.93,258.84,230.19,219.37,-65.44,-72.31,-80.22,142.93,156.07,191.43,0,48.5,-0.46
ny_cut_3_0_opt_disp_struct_5.xyz,Nucleus 19C :,-0.909878,4.465689,1.81759,2.25,-91.55,4.01,94.28,269.49,256.3,208.82,-350.93,-261.86,-115.08,-91.55,4.01,94.28,0,185.83,0.03
ny_cut_3_0_opt_disp_struct_5.xyz,Nucleus 21N :,-1.814156,4.320391,1.416847,145.2,45.44,146.88,243.27,318.41,303.35,339.8,-273.08,-169.0,-83.89,45.44,146.88,243.27,0,197.83,0.03
ny_cut_3_0_opt_disp_struct_5.xyz,Nucleus 13O :,-0.133102,4.032956,1.35561,211.41,258.16,212.03,164.05,334.76,407.29,390.52,-122.4,-146.38,-229.54,164.05,212.03,258.16,0,94.11,0.02
ny_cut_3_0_opt_disp_struct_5.xyz,Nucleus 20O :,-2.015969,7.253269,1.845252,-113.32,-414.51,-240.68,315.22,426.18,386.42,384.3,-839.97,-627.79,-69.1,-414.51,-240.68,315.22,0,729.73,-0.52
ny_cut_3_0_opt_disp_struct_6.xyz,Nucleus 1H :,1.215353,0.309458,0.200166,28.82,34.38,26.72,25.36,44.73,26.13,26.79,-11.35,1.12,-0.96,25.36,26.72,34.38,0,9.02,-0.7
ny_cut_3_0_opt_disp_struct_6.xyz,Nucleus 2H :,1.811719,1.063099,0.731106,29.34,34.56,29.01,24.46,40.87,31.72,29.01,-0.3,-7.0,-6.28,24.46,29.01,34.56,0,10.1,-0.1
ny_cut_3_0_opt_disp_struct_6.xyz,Nucleus 5H :,1.545731,0.303011,-0.841072,23.96,28.08,22.67,21.13,47.69,32.11,30.14,-25.41,-4.03,-8.64,21.13,22.67,28.08,0,6.95,-0.56
ny_cut_3_0_opt_disp_struct_6.xyz,Nucleus 7H :,-0.253096,0.597295,0.303224,24.37,27.55,24.02,21.55,47.54,31.47,16.77,-23.66,-3.99,4.99,21.55,24.02,27.55,0,6.0,-0.18
ny_cut_3_0_opt_disp_struct_6.xyz,Nucleus 10H :,-0.944755,1.127923,-0.793726,24.67,28.0,24.0,22.0,48.44,33.07,23.9,-24.61,-5.32,-1.49,22.0,24.0,28.0,0,6.0,-0.34
ny_cut_3_0_opt_disp_struct_6.xyz,Nucleus 12H :,-0.412584,1.353563,-1.712296,23.95,28.32,22.59,20.95,48.46,31.95,28.75,-26.21,-3.61,-7.47,20.95,22.59,28.32,0,7.37,-0.55
ny_cut_3_0_opt_disp_struct_6.xyz,Nucleus 14H :,-2.316425,1.372658,-0.712213,27.42,36.32,26.23,19.71,47.54,30.75,11.4,8.51,-4.52,-11.43,19.71,26.23,36.32,0,16.61,-0.21
ny_cut_3_0_opt_disp_struct_6.xyz,Nucleus 15H :,-2.865496,1.783522,-1.553102,29.04,34.73,28.21,24.18,41.51,32.01,28.24,-0.77,-5.53,-8.34,24.18,28.21,34.73,0,10.55,-0.24
ny_cut_3_0_opt_disp_struct_6.xyz,Nucleus 17H :,-2.999153,1.080834,0.461842,29.74,35.02,27.81,26.39,38.3,15.71,2.48,-3.93,12.25,24.41,26.39,27.81,35.02,0,8.63,-0.67
ny_cut_3_0_opt_disp_struct_6.xyz,Nucleus 18H :,-2.333376,0.541148,1.55732,29.96,25.58,33.44,30.85,40.34,25.77,10.43,-7.79,5.39,15.73,25.58,30.85,33.44,0,7.86,0.34
ny_cut_3_0_opt_disp_struct_6.xyz,Nucleus 22H :,-2.87247,0.325383,2.476331,27.73,34.33,26.76,22.09,47.72,29.62,38.0,-21.56,-10.16,-0.44,22.09,26.76,34.33,0,12.24,-0.24
ny_cut_3_0_opt_disp_struct_6.xyz,Nucleus 23H :,-0.960708,0.294763,1.474288,27.95,35.65,24.95,23.24,33.16,43.79,45.76,-21.41,-10.17,-7.29,23.24,24.95,35.65,0,12.41,-0.73
ny_cut_3_0_opt_disp_struct_6.xyz,Nucleus 24H :,-0.435582,-0.117065,2.330331,29.65,34.2,27.02,27.72,38.19,16.35,8.54,-4.97,10.77,20.07,27.02,27.72,34.2,0,7.18,-0.81
ny_cut_3_0_opt_disp_struct_6.xyz,Nucleus 0C :,-4.337877,1.337775,0.500071,162.12,189.14,140.53,156.68,254.69,239.11,241.97,-64.72,-102.05,-82.65,140.53,156.68,189.14,0,48.61,-0.34
ny_cut_3_0_opt_disp_struct_6.xyz,Nucleus 3C :,-4.692616,1.0495,1.348451,44.05,175.37,-58.85,15.63,239.46,262.44,272.66,-64.27,-321.34,-256.81,-58.85,15.63,175.37,0,234.22,-0.36
ny_cut_3_0_opt_disp_struct_6.xyz,Nucleus 4C :,1.459394,-0.661423,0.641266,42.93,-66.11,38.47,156.44,272.47,260.95,243.33,-328.05,-232.9,-86.99,-66.11,38.47,156.44,0,222.55,-0.06
ny_cut_3_0_opt_disp_struct_6.xyz,Nucleus 6C :,-1.801857,6.766071,2.737869,62.44,-26.64,47.6,166.36,226.77,272.24,261.58,-60.6,-223.93,-288.74,-26.64,47.6,166.36,0,193.0,-0.23
ny_cut_3_0_opt_disp_struct_6.xyz,Nucleus 8C :,-1.603327,7.339608,3.645227,20.22,-70.8,118.93,12.53,234.71,262.26,268.74,-115.79,-333.6,-255.67,-70.8,12.53,118.93,0,189.73,-0.12
ny_cut_3_0_opt_disp_struct_6.xyz,Nucleus 9C :,-2.71099,6.172818,2.870323,62.57,-27.08,59.93,154.86,236.7,264.38,275.55,-293.47,-213.53,-81.92,-27.08,59.93,154.86,0,181.94,-0.04
ny_cut_3_0_opt_disp_struct_6.xyz,Nucleus 11C :,-0.597162,5.936949,2.395973,43.61,-64.94,34.08,161.68,272.38,261.04,243.23,-326.0,-238.22,-81.64,-64.94,34.08,161.68,0,226.62,-0.13
ny_cut_3_0_opt_disp_struct_6.xyz,Nucleus 16C :,0.553568,6.334379,2.531365,163.44,191.4,155.97,142.95,259.1,230.0,218.9,-65.52,-72.13,-80.01,142.95,155.97,191.4,0,48.45,-0.46
ny_cut_3_0_opt_disp_struct_6.xyz,Nucleus 19C :,-0.864342,4.697005,1.900773,2.24,-91.83,4.27,94.29,269.65,256.13,208.01,-350.93,-261.85,-114.28,-91.83,4.27,94.29,0,186.12,0.03
ny_cut_3_0_opt_disp_struct_6.xyz,Nucleus 21N :,-1.768619,4.551707,1.500029,145.31,46.15,146.73,243.06,318.87,303.38,340.01,-272.85,-170.28,-83.2,46.15,146.73,243.06,0,196.91,0.02
ny_cut_3_0_opt_disp_struct_6.xyz,Nucleus 13O :,-0.087566,4.264272,1.438792,211.36,258.2,211.94,163.95,334.73,407.24,390.49,-122.54,-146.21,-229.62,163.95,211.94,258.2,0,94.25,0.02
ny_cut_3_0_opt_disp_struct_6.xyz,Nucleus 20O :,-1.970433,7.484585,1.928435,-114.06,-415.9,-241.53,315.24,426.39,386.08,383.25,-841.54,-628.3,-68.08,-415.9,-241.53,315.24,0,731.14,-0.52
ny_cut_3_0_opt_disp_struct_7.xyz,Nucleus 1H :,1.215353,0.309458,0.200166,28.83,34.42,26.7,25.37,44.69,26.08,26.77,-11.27,1.11,-0.89,25.37,26.7,34.42,0,9.05,-0.71
ny_cut_3_0_opt_disp_struct_7.xyz,Nucleus 2H :,1.811719,1.063099,0.731106,29.35,34.55,29.02,24.47,40.82,31.73,28.93,-0.24,-6.95,-6.24,24.47,29.02,34.55,0,10.08,-0.1
ny_cut_3_0_opt_disp_struct_7.xyz,Nucleus 5H :,1.545731,0.303011,-0.841072,23.96,28.11,22.62,21.14,47.56,32.06,30.08,-25.26,-3.94,-8.61,21.14,22.62,28.11,0,6.97,-0.58
ny_cut_3_0_opt_disp_struct_7.xyz,Nucleus 7H :,-0.253096,0.597295,0.303224,24.37,27.59,23.99,21.54,47.39,31.44,16.7,-23.51,-3.91,5.01,21.54,23.99,27.59,0,6.05,-0.19
ny_cut_3_0_opt_disp_struct_7.xyz,Nucleus 10H :,-0.944755,1.127923,-0.793726,24.67,28.03,23.99,21.99,48.27,33.05,23.92,-24.42,-5.24,-1.57,21.99,23.99,28.03,0,6.04,-0.34
ny_cut_3_0_opt_disp_struct_7.xyz,Nucleus 12H :,-0.412584,1.353563,-1.712296,23.97,28.36,22.58,20.96,48.3,31.91,28.71,-26.03,-3.54,-7.45,20.96,22.58,28.36,0,7.4,-0.56
ny_cut_3_0_opt_disp_struct_7.xyz,Nucleus 14H :,-2.316425,1.372658,-0.712213,27.42,36.32,26.25,19.7,47.51,30.76,11.38,8.51,-4.5,-11.39,19.7,26.25,36.32,0,16.62,-0.21
ny_cut_3_0_opt_disp_struct_7.xyz,Nucleus 15H :,-2.865496,1.783522,-1.553102,29.04,34.71,28.22,24.19,41.46,32.0,28.18,-0.72,-5.48,-8.31,24.19,28.22,34.71,0,10.52,-0.23
ny_cut_3_0_opt_disp_struct_7.xyz,Nucleus 17H :,-2.999153,1.080834,0.461842,29.72,34.96,27.82,26.38,38.21,15.55,1.75,-3.91,12.41,25.15,26.38,27.82,34.96,0,8.58,-0.66
ny_cut_3_0_opt_disp_struct_7.xyz,Nucleus 18H :,-2.333376,0.541148,1.55732,29.94,25.61,33.48,30.73,40.61,25.76,10.22,-8.06,5.29,15.99,25.61,30.73,33.48,0,7.87,0.3
ny_cut_3_0_opt_disp_struct_7.xyz,Nucleus 22H :,-2.87247,0.325383,2.476331,27.63,33.92,26.76,22.2,48.76,29.7,38.21,-22.54,-10.88,-0.36,22.2,26.76,33.92,0,11.72,-0.22
ny_cut_3_0_opt_disp_struct_7.xyz,Nucleus 23H :,-0.960708,0.294763,1.474288,27.83,35.41,24.74,23.35,33.36,43.86,46.52,-22.42,-10.46,-7.36,23.35,24.74,35.41,0,12.06,-0.77
ny_cut_3_0_opt_disp_struct_7.xyz,Nucleus 24H :,-0.435582,-0.117065,2.330331,29.63,34.18,27.03,27.68,38.15,16.29,7.92,-4.99,10.83,20.7,27.03,27.68,34.18,0,7.15,-0.82
ny_cut_3_0_opt_disp_struct_7.xyz,Nucleus 0C :,-4.337877,1.337775,0.500071,162.11,189.14,140.48,156.7,254.64,238.9,241.87,-64.63,-102.04,-82.41,140.48,156.7,189.14,0,48.66,-0.33
ny_cut_3_0_opt_disp_struct_7.xyz,Nucleus 3C :,-4.692616,1.0495,1.348451,44.08,175.26,-58.86,15.85,239.31,262.53,272.25,-64.2,-321.44,-256.2,-58.86,15.85,175.26,0,234.12,-0.36
ny_cut_3_0_opt_disp_struct_7.xyz,Nucleus 4C :,1.459394,-0.661423,0.641266,42.9,-66.17,38.55,156.32,272.25,260.87,243.32,-327.95,-232.69,-87.1,-66.17,38.55,156.32,0,222.49,-0.06
ny_cut_3_0_opt_disp_struct_7.xyz,Nucleus 6C :,-1.756321,6.997387,2.821052,62.35,-26.78,47.58,166.26,226.69,272.07,261.42,-60.64,-223.83,-288.65,-26.78,47.58,166.26,0,193.04,-0.23
ny_cut_3_0_opt_disp_struct_7.xyz,Nucleus 8C :,-1.557791,7.570924,3.72841,20.17,-70.87,118.84,12.55,234.59,262.16,268.55,-115.75,-333.6,-255.42,-70.87,12.55,118.84,0,189.71,-0.12
ny_cut_3_0_opt_disp_struct_7.xyz,Nucleus 9C :,-2.665454,6.404134,2.953506,62.68,-26.94,60.23,154.75,236.59,264.21,275.3,-293.01,-213.11,-81.95,-26.94,60.23,154.75,0,181.69,-0.04
ny_cut_3_0_opt_disp_struct_7.xyz,Nucleus 11C :,-0.551626,6.168266,2.479156,43.76,-64.74,34.47,161.56,272.18,260.75,243.1,-325.44,-237.65,-81.65,-64.74,34.47,161.56,0,226.3,-0.12
ny_cut_3_0_opt_disp_struct_7.xyz,Nucleus 16C :,0.599104,6.565695,2.614548,163.41,191.38,155.89,142.97,259.36,229.81,218.42,-65.59,-71.97,-79.8,142.97,155.89,191.38,0,48.41,-0.47
ny_cut_3_0_opt_disp_struct_7.xyz,Nucleus 19C :,-0.818806,4.928321,1.983956,2.24,-92.07,4.48,94.31,269.82,255.98,207.24,-350.89,-261.91,-113.52,-92.07,4.48,94.31,0,186.38,0.04
ny_cut_3_0_opt_disp_struct_7.xyz,Nucleus 21N :,-1.723083,4.783023,1.583212,145.42,46.69,146.7,242.86,319.27,303.35,340.22,-272.73,-171.31,-82.55,46.69,146.7,242.86,0,196.17,0.02
ny_cut_3_0_opt_disp_struct_7.xyz,Nucleus 13O :,-0.04203,4.495588,1.521975,211.32,258.22,211.86,163.88,334.69,407.21,390.46,-146.05,-122.66,-229.69,163.88,211.86,258.22,0,94.34,0.02
ny_cut_3_0_opt_disp_struct_7.xyz,Nucleus 20O :,-1.924897,7.715901,2.011618,-114.63,-416.97,-242.19,315.26,426.59,385.78,382.36,-842.79,-628.65,-67.2,-416.97,-242.19,315.26,0,732.23,-0.52
ny_cut_3_0_opt_disp_struct_8.xyz,Nucleus 1H :,1.215353,0.309458,0.200166,28.83,34.45,26.68,25.37,44.66,26.02,26.73,-11.21,1.1,-0.8,25.37,26.68,34.45,0,9.08,-0.71
ny_cut_3_0_opt_disp_struct_8.xyz,Nucleus 2H :,1.811719,1.063099,0.731106,29.35,34.54,29.03,24.48,40.77,31.73,28.86,-0.19,-6.9,-6.22,24.48,29.03,34.54,0,10.06,-0.1
ny_cut_3_0_opt_disp_struct_8.xyz,Nucleus 5H :,1.545731,0.303011,-0.841072,23.96,28.14,22.59,21.15,47.42,32.02,30.01,-25.11,-3.86,-8.59,21.15,22.59,28.14,0,6.99,-0.59
ny_cut_3_0_opt_disp_struct_8.xyz,Nucleus 7H :,-0.253096,0.597295,0.303224,24.37,27.61,23.97,21.52,47.25,31.41,16.64,-23.36,-3.85,5.02,21.52,23.97,27.61,0,6.09,-0.2
ny_cut_3_0_opt_disp_struct_8.xyz,Nucleus 10H :,-0.944755,1.127923,-0.793726,24.68,28.07,24.0,21.98,48.12,33.03,23.93,-24.24,-5.17,-1.63,21.98,24.0,28.07,0,6.09,-0.33
ny_cut_3_0_opt_disp_struct_8.xyz,Nucleus 12H :,-0.412584,1.353563,-1.712296,23.97,28.39,22.56,20.97,48.14,31.86,28.68,-25.85,-3.47,-7.45,20.97,22.56,28.39,0,7.42,-0.57
ny_cut_3_0_opt_disp_struct_8.xyz,Nucleus 14H :,-2.316425,1.372658,-0.712213,27.43,36.33,26.27,19.69,47.48,30.76,11.35,8.52,-4.48,-11.34,19.69,26.27,36.33,0,16.64,-0.21
ny_cut_3_0_opt_disp_struct_8.xyz,Nucleus 15H :,-2.865496,1.783522,-1.553102,29.04,34.69,28.24,24.2,41.41,31.99,28.12,-0.67,-5.42,-8.29,24.2,28.24,34.69,0,10.49,-0.23
ny_cut_3_0_opt_disp_struct_8.xyz,Nucleus 17H :,-2.999153,1.080834,0.461842,29.7,34.91,27.82,26.38,38.13,15.38,1.02,-3.9,12.58,25.9,26.38,27.82,34.91,0,8.53,-0.66
ny_cut_3_0_opt_disp_struct_8.xyz,Nucleus 18H :,-2.333376,0.541148,1.55732,29.92,25.64,33.51,30.62,40.87,25.76,10.01,-8.33,5.2,16.26,25.64,30.62,33.51,0,7.87,0.27
ny_cut_3_0_opt_disp_struct_8.xyz,Nucleus 22H :,-2.87247,0.325383,2.476331,27.54,33.58,26.76,22.28,49.72,38.54,29.68,-23.47,-11.55,-0.29,22.28,26.76,33.58,0,11.3,-0.21
ny_cut_3_0_opt_disp_struct_8.xyz,Nucleus 23H :,-0.960708,0.294763,1.474288,27.74,35.22,24.55,23.44,33.51,43.79,47.44,-23.39,-10.79,-7.34,23.44,24.55,35.22,0,11.78,-0.81
ny_cut_3_0_opt_disp_struct_8.xyz,Nucleus 24H :,-0.435582,-0.117065,2.330331,29.62,34.16,27.05,27.65,38.11,16.22,7.3,-5.03,10.92,21.33,27.05,27.65,34.16,0,7.11,-0.83
ny_cut_3_0_opt_disp_struct_8.xyz,Nucleus 0C :,-4.337877,1.337775,0.500071,162.1,189.14,140.44,156.72,254.6,238.72,241.82,-64.55,-102.07,-82.21,140.44,156.72,189.14,0,48.7,-0.33
ny_cut_3_0_opt_disp_struct_8.xyz,Nucleus 3C :,-4.692616,1.0495,1.348451,44.11,175.17,-58.86,16.03,239.19,262.56,271.85,-64.15,-321.48,-255.63,-58.86,16.03,175.17,0,234.03,-0.36
ny_cut_3_0_opt_disp_struct_8.xyz,Nucleus 4C :,1.459394,-0.661423,0.641266,42.86,-66.23,38.59,156.21,272.05,260.79,243.3,-327.86,-232.53,-87.18,-66.23,38.59,156.21,0,222.44,-0.06
ny_cut_3_0_opt_disp_struct_8.xyz,Nucleus 6C :,-1.710785,7.228703,2.904235,62.27,-26.9,47.53,166.17,226.6,271.91,261.27,-60.65,-223.76,-288.57,-26.9,47.53,166.17,0,193.07,-0.23
ny_cut_3_0_opt_disp_struct_8.xyz,Nucleus 8C :,-1.512255,7.80224,3.811593,20.14,-70.91,118.76,12.56,234.49,262.05,268.34,-115.73,-333.56,-255.18,-70.91,12.56,118.76,0,189.67,-0.12
ny_cut_3_0_opt_disp_struct_8.xyz,Nucleus 9C :,-2.619918,6.63545,3.036688,62.76,-26.83,60.46,154.64,236.52,264.07,275.07,-292.63,-212.76,-82.0,-26.83,60.46,154.64,0,181.47,-0.04
ny_cut_3_0_opt_disp_struct_8.xyz,Nucleus 11C :,-0.50609,6.399582,2.562339,43.88,-64.58,34.78,161.45,272.0,260.48,243.0,-324.97,-237.18,-81.68,-64.58,34.78,161.45,0,226.03,-0.12
ny_cut_3_0_opt_disp_struct_8.xyz,Nucleus 16C :,0.64464,6.797011,2.697731,163.39,191.36,155.82,142.99,259.62,229.63,217.97,-65.64,-71.81,-79.58,142.99,155.82,191.36,0,48.37,-0.47
ny_cut_3_0_opt_disp_struct_8.xyz,Nucleus 19C :,-0.77327,5.159637,2.067138,2.23,-92.27,4.63,94.33,270.0,255.84,206.47,-350.84,-262.03,-112.76,-92.27,4.63,94.33,0,186.6,0.04
ny_cut_3_0_opt_disp_struct_8.xyz,Nucleus 21N :,-1.677547,5.014339,1.666395,145.49,47.07,146.72,242.68,319.55,303.22,340.5,-272.65,-172.21,-81.95,47.07,146.72,242.68,0,195.61,0.02
ny_cut_3_0_opt_disp_struct_8.xyz,Nucleus 13O :,0.003507,4.726904,1.605158,211.29,258.24,211.8,163.82,334.66,407.18,390.44,-145.9,-122.77,-229.75,163.82,211.8,258.24,0,94.42,0.02
ny_cut_3_0_opt_disp_struct_8.xyz,Nucleus 20O :,-1.879361,7.947217,2.094801,-115.06,-417.79,-242.69,315.3,426.78,385.5,381.54,-843.78,-628.86,-66.36,-417.79,-242.69,315.3,0,733.09,-0.52
ny_cut_3_0_opt_disp_struct_9.xyz,Nucleus 1H :,1.215353,0.309458,0.200166,28.84,34.48,26.67,25.37,44.63,25.97,26.68,-11.16,1.1,-0.69,25.37,26.67,34.48,0,9.11,-0.71
ny_cut_3_0_opt_disp_struct_9.xyz,Nucleus 2H :,1.811719,1.063099,0.731106,29.35,34.53,29.04,24.48,40.72,31.73,28.79,-0.14,-6.86,-6.19,24.48,29.04,34.53,0,10.05,-0.09
ny_cut_3_0_opt_disp_struct_9.xyz,Nucleus 5H :,1.545731,0.303011,-0.841072,23.96,28.16,22.57,21.15,47.29,31.97,29.96,-24.96,-3.79,-8.58,21.15,22.57,28.16,0,7.01,-0.59
ny_cut_3_0_opt_disp_struct_9.xyz,Nucleus 7H :,-0.253096,0.597295,0.303224,24.37,27.64,23.96,21.51,47.11,31.38,16.59,-23.21,-3.79,5.04,21.51,23.96,27.64,0,6.13,-0.2
ny_cut_3_0_opt_disp_struct_9.xyz,Nucleus 10H :,-0.944755,1.127923,-0.793726,24.68,28.09,24.0,21.96,47.97,33.01,23.93,-24.07,-5.11,-1.67,21.96,24.0,28.09,0,6.13,-0.33
ny_cut_3_0_opt_disp_struct_9.xyz,Nucleus 12H :,-0.412584,1.353563,-1.712296,23.98,28.41,22.56,20.97,47.99,31.82,28.66,-25.67,-3.41,-7.45,20.97,22.56,28.41,0,7.44,-0.57
ny_cut_3_0_opt_disp_struct_9.xyz,Nucleus 14H :,-2.316425,1.372658,-0.712213,27.44,36.34,26.29,19.68,47.45,30.76,11.33,8.52,-4.46,-11.29,19.68,26.29,36.34,0,16.66,-0.21
ny_cut_3_0_opt_disp_struct_9.xyz,Nucleus 15H :,-2.865496,1.783522,-1.553102,29.05,34.67,28.26,24.21,41.36,31.98,28.07,-0.63,-5.37,-8.27,24.21,28.26,34.67,0,10.46,-0.23
ny_cut_3_0_opt_disp_struct_9.xyz,Nucleus 17H :,-2.999153,1.080834,0.461842,29.69,34.87,27.83,26.37,0.29,15.2,38.07,-3.89,12.75,26.65,26.37,27.83,34.87,0,8.5,-0.66
ny_cut_3_0_opt_disp_struct_9.xyz,Nucleus 18H :,-2.333376,0.541148,1.55732,29.91,25.66,33.54,30.52,41.13,25.75,9.78,-8.6,5.12,16.54,25.66,30.52,33.54,0,7.88,0.23
ny_cut_3_0_opt_disp_struct_9.xyz,Nucleus 22H :,-2.87247,0.325383,2.476331,27.47,33.31,26.75,22.35,50.62,38.92,29.6,-24.37,-12.15,-0.22,22.35,26.75,33.31,0,10.96,-0.2
ny_cut_3_0_opt_disp_struct_9.xyz,Nucleus 23H :,-0.960708,0.294763,1.474288,27.66,35.08,24.39,23.51,33.62,43.71,48.41,-24.35,-11.13,-7.27,23.51,24.39,35.08,0,11.57,-0.85
ny_cut_3_0_opt_disp_struct_9.xyz,Nucleus 24H :,-0.435582,-0.117065,2.330331,29.61,34.14,27.06,27.62,38.09,16.14,6.67,-5.06,11.01,21.96,27.06,27.62,34.14,0,7.08,-0.84
ny_cut_3_0_opt_disp_struct_9.xyz,Nucleus 0C :,-4.337877,1.337775,0.500071,162.1,189.14,140.41,156.74,254.56,238.57,241.78,-64.49,-102.11,-82.04,140.41,156.74,189.14,0,48.73,-0.33
ny_cut_3_0_opt_disp_struct_9.xyz,Nucleus 3C :,-4.692616,1.0495,1.348451,44.15,175.1,-58.85,16.19,239.07,262.59,271.47,-64.1,-321.5,-255.1,-58.85,16.19,175.1,0,233.95,-0.36
ny_cut_3_0_opt_disp_struct_9.xyz,Nucleus 4C :,1.459394,-0.661423,0.641266,42.82,-66.28,38.62,156.13,271.88,260.72,243.29,-327.75,-232.41,-87.25,-66.28,38.62,156.13,0,222.41,-0.06
ny_cut_3_0_opt_disp_struct_9.xyz,Nucleus 6C :,-1.665249,7.460019,2.987417,62.19,-26.99,47.48,166.09,226.51,271.77,261.14,-60.63,-223.71,-288.49,-26.99,47.48,166.09,0,193.08,-0.23
ny_cut_3_0_opt_disp_struct_9.xyz,Nucleus 8C :,-1.466719,8.033556,3.894775,20.1,-70.95,118.69,12.56,234.41,261.94,268.15,-115.72,-333.52,-254.95,-70.95,12.56,118.69,0,189.64,-0.12
ny_cut_3_0_opt_disp_struct_9.xyz,Nucleus 9C :,-2.574382,6.866766,3.119871,62.81,-26.75,60.63,154.56,236.48,263.96,274.85,-292.33,-212.48,-82.05,-26.75,60.63,154.56,0,181.31,-0.04
ny_cut_3_0_opt_disp_struct_9.xyz,Nucleus 11C :,-0.460554,6.630898,2.645521,43.98,-64.46,35.03,161.36,271.86,260.24,242.93,-324.57,-236.81,-81.73,-64.46,35.03,161.36,0,225.82,-0.12
ny_cut_3_0_opt_disp_struct_9.xyz,Nucleus 16C :,0.690176,7.028327,2.780914,163.37,191.34,155.76,143.0,259.87,229.43,217.5,-65.66,-71.67,-79.36,143.0,155.76,191.34,0,48.34,-0.47
ny_cut_3_0_opt_disp_struct_9.xyz,Nucleus 19C :,-0.727734,5.390953,2.150321,2.22,-92.44,4.76,94.34,270.18,255.7,205.7,-350.76,-262.15,-112.0,-92.44,4.76,94.34,0,186.78,0.04
ny_cut_3_0_opt_disp_struct_9.xyz,Nucleus 21N :,-1.632011,5.245655,1.749578,145.59,47.44,146.79,242.53,319.81,303.15,340.84,-272.55,-173.11,-81.39,47.44,146.79,242.53,0,195.09,0.02
ny_cut_3_0_opt_disp_struct_9.xyz,Nucleus 13O :,0.049043,4.95822,1.688341,211.25,258.26,211.73,163.76,334.63,407.17,390.41,-145.78,-122.86,-229.82,163.76,211.73,258.26,0,94.5,0.02
ny_cut_3_0_opt_disp_struct_9.xyz,Nucleus 20O :,-1.833825,8.178533,2.177983,-115.41,-418.47,-243.1,315.34,426.95,385.23,380.85,-844.6,-629.0,-65.66,-418.47,-243.1,315.34,0,733.81,-0.52
r_cut_0_p1_opt.xyz,Nucleus 1H :,-0.818346,0.717717,0.605427,28.45,35.07,24.13,26.16,49.61,29.84,23.42,-19.03,1.79,-0.28,24.13,26.16,35.07,0,10.94,-0.63
r_cut_0_p1_opt.xyz,Nucleus 2H :,0.050792,1.239857,1.022004,28.42,34.24,26.58,24.43,50.22,29.76,24.45,-19.79,-1.12,1.73,24.43,26.58,34.24,0,9.81,-0.56
r_cut_0_p1_opt.xyz,Nucleus 4H :,-1.15753,-0.063276,1.292919,26.66,18.74,27.55,33.7,44.88,27.56,30.78,-0.36,-14.85,-8.02,18.74,27.55,33.7,0,14.96,0.18
r_cut_0_p1_opt.xyz,Nucleus 7H :,-1.910792,1.64061,0.300643,26.66,34.93,20.74,24.32,-5.42,43.34,25.21,26.25,-8.9,-0.49,20.74,24.32,34.93,0,14.19,-0.49
r_cut_0_p1_opt.xyz,Nucleus 9H :,-2.010405,1.942328,-0.656117,26.44,33.74,25.57,20.01,40.56,32.11,26.93,-12.45,-7.32,-0.51,20.01,25.57,33.74,0,13.73,-0.19
r_cut_0_p1_opt.xyz,Nucleus 10H :,-2.650449,2.282606,1.216924,26.43,34.39,24.29,20.62,4.61,25.0,43.72,16.09,-9.58,-0.54,20.62,24.29,34.39,0,13.77,-0.47
r_cut_0_p1_opt.xyz,Nucleus 11H :,-3.643845,3.081467,0.815123,28.07,34.61,23.59,26.0,26.28,35.55,39.42,-13.1,0.42,-4.37,23.59,26.0,34.61,0,11.02,-0.56
r_cut_0_p1_opt.xyz,Nucleus 12H :,-4.135237,3.672963,1.463954,26.76,34.81,24.62,20.86,10.48,26.23,42.2,10.56,-1.23,-7.95,20.86,24.62,34.81,0,13.95,-0.46
r_cut_0_p1_opt.xyz,Nucleus 0C :,-2.424698,2.15338,2.526085,154.68,187.94,146.2,129.91,236.93,253.66,257.43,-65.87,-112.08,-106.01,129.91,146.2,187.94,0,58.03,-0.44
r_cut_0_p1_opt.xyz,Nucleus 5C :,-1.61634,1.663178,2.8711,20.81,114.77,-36.47,-15.88,225.71,261.43,258.5,-110.95,-296.56,-275.72,-36.47,-15.88,114.77,0,151.24,-0.73
r_cut_0_p1_opt.xyz,Nucleus 3N :,-3.084938,2.495806,3.203893,164.63,94.99,181.43,217.48,307.6,334.27,322.68,-227.73,-128.72,-114.21,94.99,181.43,217.48,0,122.49,0.41
r_cut_0_p1_opt.xyz,Nucleus 6N :,-0.516071,0.232893,-0.322728,175.71,234.27,179.08,113.79,279.22,333.47,320.27,-206.48,-101.16,-98.18,113.79,179.08,234.27,0,120.48,0.08
r_cut_0_p1_opt.xyz,Nucleus 8N :,-3.968262,3.075893,-0.137528,175.14,115.0,196.35,214.07,299.9,322.67,332.68,-206.75,-100.93,-122.14,115.0,196.35,214.07,0,99.07,0.64
rf_cut_5_p1_opt.xyz,Nucleus 7H :,0.97919,0.455102,0.357986,28.19,34.81,24.51,25.24,44.04,24.72,24.45,-10.26,0.97,0.65,24.51,25.24,34.81,0,10.3,-0.86
rf_cut_5_p1_opt.xyz,Nucleus 8H :,-0.514845,0.586467,0.354219,29.09,34.24,28.15,24.88,44.1,32.39,29.27,-1.69,-5.95,-10.85,24.88,28.15,34.24,0,9.36,-0.3
rf_cut_5_p1_opt.xyz,Nucleus 9H :,-1.171614,1.096837,-0.772679,23.43,27.54,22.48,20.26,48.36,32.0,30.35,-26.08,-4.54,-9.81,20.26,22.48,27.54,0,7.28,-0.39
rf_cut_5_p1_opt.xyz,Nucleus 10H :,-2.563436,1.200529,-0.793859,23.37,26.09,23.54,20.48,47.74,29.23,17.27,-24.54,-3.19,3.59,20.48,23.54,26.09,0,5.61,0.09
rf_cut_5_p1_opt.xyz,Nucleus 11H :,-3.310627,0.788505,0.307991,23.51,21.08,23.86,25.59,44.08,10.02,30.13,-20.52,11.36,-4.55,21.08,23.86,25.59,0,4.51,0.23
rf_cut_5_p1_opt.xyz,Nucleus 12H :,-2.66679,0.269469,1.429705,23.37,26.13,23.6,20.39,47.42,28.79,15.34,-24.11,-2.68,5.36,20.39,23.6,26.13,0,5.74,0.12
rf_cut_5_p1_opt.xyz,Nucleus 13H :,-1.274824,0.164564,1.45188,23.44,27.44,22.57,20.3,48.08,31.52,28.9,-25.65,-4.16,-8.38,20.3,22.57,27.44,0,7.14,-0.37
rf_cut_5_p1_opt.xyz,Nucleus 14H :,1.443571,1.393784,0.681409,29.04,34.01,28.08,25.02,44.3,33.13,30.39,-2.9,-6.48,-11.33,25.02,28.08,34.01,0,8.99,-0.32
rf_cut_5_p1_opt.xyz,Nucleus 16H :,1.316674,-0.321948,1.049079,28.81,34.7,24.47,27.26,39.71,6.98,20.39,18.94,-5.47,5.88,24.47,27.26,34.7,0,10.23,-0.45
rf_cut_5_p1_opt.xyz,Nucleus 17H :,-0.59123,1.417251,-1.632677,28.82,35.43,24.3,26.72,40.06,19.42,8.01,18.37,-5.27,5.86,24.3,26.72,35.43,0,11.13,-0.57
rf_cut_5_p1_opt.xyz,Nucleus 19H :,-3.060711,1.610878,-1.666844,27.41,34.78,28.98,18.46,48.87,31.45,24.27,-14.12,-1.58,-6.66,18.46,28.98,34.78,0,16.32,0.29
rf_cut_5_p1_opt.xyz,Nucleus 22H :,-4.391453,0.899964,0.304938,27.03,47.18,19.29,14.61,21.77,55.71,43.19,0.68,-11.65,-28.61,14.61,19.29,47.18,0,32.57,-0.71
rf_cut_5_p1_opt.xyz,Nucleus 24H :,-3.245248,-0.046529,2.291846,27.16,33.55,27.87,20.07,52.68,25.51,7.64,-19.61,2.75,12.51,20.07,27.87,33.55,0,13.48,0.16
rf_cut_5_p1_opt.xyz,Nucleus 25H :,-0.775838,-0.240301,2.327118,26.14,46.37,18.25,13.8,50.16,22.39,27.8,-1.62,-6.31,-14.01,13.8,18.25,46.37,0,32.57,-0.73
rf_cut_5_p1_opt.xyz,Nucleus 26H :,1.368763,0.23882,-0.641114,28.42,35.57,26.1,23.59,38.67,18.8,-0.93,-3.13,7.23,24.62,23.59,26.1,35.57,0,11.98,-0.58
rf_cut_5_p1_opt.xyz,Nucleus 27H :,-3.409279,-4.597692,-2.081909,27.48,20.44,33.6,28.39,48.61,37.2,32.26,-4.0,-12.09,-19.55,20.44,28.39,33.6,0,13.16,0.21
rf_cut_5_p1_opt.xyz,Nucleus 0C :,-4.094617,-4.676593,-1.231749,161.53,189.2,139.44,155.95,260.42,241.1,246.79,-71.15,-101.73,-90.83,139.44,155.95,189.2,0,49.76,-0.34
rf_cut_5_p1_opt.xyz,Nucleus 1C :,-3.918076,-4.125318,-2.930757,32.41,178.08,-71.71,-9.13,258.73,276.56,238.52,-60.63,-330.27,-285.67,-71.71,-9.13,178.08,0,249.79,-0.5
rf_cut_5_p1_opt.xyz,Nucleus 2C :,-2.198069,-3.875503,-1.701226,40.63,-69.54,25.45,165.99,276.39,263.03,247.63,-334.15,-249.18,-81.81,-69.54,25.45,165.99,0,235.53,-0.19
rf_cut_5_p1_opt.xyz,Nucleus 3C :,-1.316757,-4.264027,-1.994545,41.36,-73.26,19.15,178.19,273.74,261.98,235.52,-335.47,-254.04,-57.65,-73.26,19.15,178.19,0,251.45,-0.26
rf_cut_5_p1_opt.xyz,Nucleus 4C :,-2.169754,-2.647061,-1.163165,50.59,-60.48,181.38,30.86,257.48,275.0,226.21,-45.13,-317.66,-244.13,-60.48,30.86,181.38,0,241.86,-0.24
rf_cut_5_p1_opt.xyz,Nucleus 5C :,-0.992087,-2.097611,-0.865234,41.69,-72.4,19.46,178.0,273.49,260.93,233.69,-333.68,-253.41,-55.96,-72.4,19.46,178.0,0,250.4,-0.27
rf_cut_5_p1_opt.xyz,Nucleus 6C :,-0.949376,-1.175689,-0.445619,40.95,-68.8,26.87,164.78,276.29,262.71,246.47,-333.21,-247.46,-81.96,-68.8,26.87,164.78,0,233.58,-0.18
rf_cut_5_p1_opt.xyz,Nucleus 15C :,-3.280395,-1.954336,-0.91033,155.39,188.76,131.21,146.19,263.92,217.94,210.64,-88.75,-73.6,-63.98,131.21,146.19,188.76,0,57.55,-0.48
rf_cut_5_p1_opt.xyz,Nucleus 20C :,-4.173422,-2.28125,-1.238189,23.14,121.21,-30.63,-21.16,236.52,267.23,266.64,-115.33,-297.52,-288.12,-30.63,-21.16,121.21,0,151.84,-0.88
rf_cut_5_p1_opt.xyz,Nucleus 18N :,-3.233253,-1.048466,-0.454081,173.64,111.42,179.48,230.01,344.38,332.12,303.11,-221.84,-124.79,-112.06,111.42,179.48,230.01,0,118.59,0.15
rf_cut_5_p1_opt.xyz,Nucleus 21N :,-3.125293,-5.608805,-2.373292,160.98,108.89,202.48,171.56,339.89,321.16,329.62,-217.44,-137.22,-153.07,108.89,171.56,202.48,0,93.59,0.34
rf_cut_5_p1_opt.xyz,Nucleus 23N :,-0.155034,-2.655551,-0.859643,159.13,107.26,180.73,189.41,295.5,339.8,325.57,-224.28,-152.58,-106.62,107.26,180.73,189.41,0,82.15,0.79
rf_cut_5_p1_opt_disp_struct_0.xyz,Nucleus 7H :,0.97919,0.455102,0.357986,28.24,34.83,24.57,25.33,43.82,24.77,25.0,-10.05,0.85,0.35,24.57,25.33,34.83,0,10.26,-0.85
rf_cut_5_p1_opt_disp_struct_0.xyz,Nucleus 8H :,-0.514845,0.586467,0.354219,29.12,34.19,28.27,24.9,44.22,32.26,29.44,-1.74,-5.87,-10.96,24.9,28.27,34.19,0,9.29,-0.27
rf_cut_5_p1_opt_disp_struct_0.xyz,Nucleus 9H :,-1.171614,1.096837,-0.772679,23.45,27.57,22.41,20.37,48.5,32.15,30.23,-26.25,-4.72,-9.58,20.37,22.41,27.57,0,7.2,-0.43
rf_cut_5_p1_opt_disp_struct_0.xyz,Nucleus 10H :,-2.563436,1.200529,-0.793859,23.41,26.15,23.51,20.56,47.81,29.34,17.49,-24.61,-3.22,3.41,20.56,23.51,26.15,0,5.59,0.05
rf_cut_5_p1_opt_disp_struct_0.xyz,Nucleus 11H :,-3.310627,0.788505,0.307991,23.6,21.11,23.95,25.73,44.17,10.71,30.45,-20.51,10.67,-4.72,21.11,23.95,25.73,0,4.62,0.23
rf_cut_5_p1_opt_disp_struct_0.xyz,Nucleus 12H :,-2.66679,0.269469,1.429705,23.4,26.18,23.55,20.48,47.54,28.85,15.78,-24.27,-2.68,4.99,20.48,23.55,26.18,0,5.7,0.08
rf_cut_5_p1_opt_disp_struct_0.xyz,Nucleus 13H :,-1.274824,0.164564,1.45188,23.47,27.48,22.52,20.41,48.23,31.61,28.93,-25.81,-4.27,-8.28,20.41,22.52,27.48,0,7.07,-0.4
rf_cut_5_p1_opt_disp_struct_0.xyz,Nucleus 14H :,1.443571,1.393784,0.681409,29.06,33.98,28.19,25.02,44.44,32.96,30.48,-11.43,-2.88,-6.38,25.02,28.19,33.98,0,8.96,-0.29
rf_cut_5_p1_opt_disp_struct_0.xyz,Nucleus 16H :,1.316674,-0.321948,1.049079,28.77,34.66,24.43,27.21,39.6,5.82,20.25,20.17,-5.44,5.9,24.43,27.21,34.66,0,10.23,-0.46
rf_cut_5_p1_opt_disp_struct_0.xyz,Nucleus 17H :,-0.59123,1.417251,-1.632677,28.78,35.38,24.26,26.69,39.99,19.29,6.81,19.64,-5.29,5.89,24.26,26.69,35.38,0,11.12,-0.56
rf_cut_5_p1_opt_disp_struct_0.xyz,Nucleus 19H :,-3.060711,1.610878,-1.666844,27.31,34.6,28.8,18.54,48.85,31.05,22.97,-14.29,-1.07,-5.57,18.54,28.8,34.6,0,16.06,0.28
rf_cut_5_p1_opt_disp_struct_0.xyz,Nucleus 22H :,-4.391453,0.899964,0.304938,27.7,44.98,21.44,16.67,24.32,54.02,47.26,-1.09,-10.76,-30.67,16.67,21.44,44.98,0,28.31,-0.66
rf_cut_5_p1_opt_disp_struct_0.xyz,Nucleus 24H :,-3.245248,-0.046529,2.291846,27.17,33.84,27.69,19.97,52.69,25.43,6.26,-19.13,2.46,13.8,19.97,27.69,33.84,0,13.87,0.11
rf_cut_5_p1_opt_disp_struct_0.xyz,Nucleus 25H :,-0.775838,-0.240301,2.327118,26.95,44.05,20.7,16.09,47.9,25.25,30.89,-2.4,-6.02,-14.78,16.09,20.7,44.05,0,27.96,-0.67
rf_cut_5_p1_opt_disp_struct_0.xyz,Nucleus 26H :,1.368763,0.23882,-0.641114,28.39,35.5,26.06,23.6,38.57,18.35,-2.47,-3.1,7.64,26.17,23.6,26.06,35.5,0,11.9,-0.59
rf_cut_5_p1_opt_disp_struct_0.xyz,Nucleus 27H :,-3.424356,-4.828195,-2.177517,27.51,20.52,34.07,27.95,48.62,37.38,31.54,-3.72,-11.41,-19.87,20.52,27.95,34.07,0,13.55,0.1
rf_cut_5_p1_opt_disp_struct_0.xyz,Nucleus 0C :,-4.109693,-4.907097,-1.327357,161.59,189.2,139.28,156.28,260.06,240.72,246.64,-70.79,-101.53,-90.34,139.28,156.28,189.2,0,49.92,-0.32
rf_cut_5_p1_opt_disp_struct_0.xyz,Nucleus 1C :,-3.933153,-4.355822,-3.026365,33.12,177.47,-71.5,-6.6,259.11,277.28,237.6,-60.26,-330.5,-283.86,-71.5,-6.6,177.47,0,248.97,-0.48
rf_cut_5_p1_opt_disp_struct_0.xyz,Nucleus 2C :,-2.213146,-4.106007,-1.796834,42.28,-68.07,29.24,165.66,276.76,262.81,246.2,-332.56,-245.63,-80.74,-68.07,29.24,165.66,0,233.73,-0.17
rf_cut_5_p1_opt_disp_struct_0.xyz,Nucleus 3C :,-1.331833,-4.49453,-2.090152,42.79,-72.5,22.94,177.93,273.76,261.73,233.96,-334.41,-250.34,-56.33,-72.5,22.94,177.93,0,250.43,-0.24
rf_cut_5_p1_opt_disp_struct_0.xyz,Nucleus 4C :,-2.18483,-2.877564,-1.258773,51.38,-60.11,180.67,33.59,226.43,257.92,275.72,-46.19,-317.6,-242.13,-60.11,33.59,180.67,0,240.78,-0.22
rf_cut_5_p1_opt_disp_struct_0.xyz,Nucleus 5C :,-1.007164,-2.328115,-0.960842,42.94,-71.92,22.98,177.76,273.43,261.01,232.44,-333.18,-249.94,-54.95,-71.92,22.98,177.76,0,249.68,-0.24
rf_cut_5_p1_opt_disp_struct_0.xyz,Nucleus 6C :,-0.964453,-1.406192,-0.541227,42.64,-67.25,30.67,164.5,276.61,262.41,245.41,-331.51,-243.77,-81.24,-67.25,30.67,164.5,0,231.75,-0.15
rf_cut_5_p1_opt_disp_struct_0.xyz,Nucleus 15C :,-3.295471,-2.18484,-1.005938,155.4,188.8,131.05,146.36,264.51,217.4,209.45,-88.61,-73.78,-62.75,131.05,146.36,188.8,0,57.75,-0.47
rf_cut_5_p1_opt_disp_struct_0.xyz,Nucleus 20C :,-4.188499,-2.511754,-1.333797,22.36,118.77,-32.13,-19.57,237.14,267.42,265.87,-118.39,-299.14,-285.82,-32.13,-19.57,118.77,0,150.9,-0.83
rf_cut_5_p1_opt_disp_struct_0.xyz,Nucleus 18N :,-3.24833,-1.27897,-0.549689,172.08,107.99,179.69,228.57,344.24,331.8,301.4,-225.17,-123.28,-112.74,107.99,179.69,228.57,0,120.58,0.19
rf_cut_5_p1_opt_disp_struct_0.xyz,Nucleus 21N :,-3.14037,-5.839308,-2.4689,167.66,112.39,216.39,174.19,338.86,320.87,329.63,-213.29,-122.4,-150.71,112.39,174.19,216.39,0,104.0,0.19
rf_cut_5_p1_opt_disp_struct_0.xyz,Nucleus 23N :,-0.170111,-2.886054,-0.955251,165.97,111.82,195.67,190.42,293.51,339.37,325.24,-217.18,-142.19,-100.85,111.82,190.42,195.67,0,83.85,0.87
rf_cut_5_p1_opt_disp_struct_1.xyz,Nucleus 7H :,0.97919,0.455102,0.357986,28.28,34.8,24.63,25.42,43.63,24.96,25.2,-9.92,0.76,0.21,24.63,25.42,34.8,0,10.17,-0.84
rf_cut_5_p1_opt_disp_struct_1.xyz,Nucleus 8H :,-0.514845,0.586467,0.354219,29.13,34.13,28.36,24.9,44.16,32.11,29.46,-1.68,-5.8,-10.85,24.9,28.36,34.13,0,9.23,-0.25
rf_cut_5_p1_opt_disp_struct_1.xyz,Nucleus 9H :,-1.171614,1.096837,-0.772679,23.47,27.65,22.3,20.47,48.53,32.18,30.12,-26.33,-4.7,-9.39,20.47,22.3,27.65,0,7.18,-0.49
rf_cut_5_p1_opt_disp_struct_1.xyz,Nucleus 10H :,-2.563436,1.200529,-0.793859,23.45,26.25,23.44,20.65,47.78,29.49,17.68,-24.6,-3.28,3.26,20.65,23.44,26.25,0,5.6,-0.01
rf_cut_5_p1_opt_disp_struct_1.xyz,Nucleus 11H :,-3.310627,0.788505,0.307991,23.65,21.14,23.91,25.89,44.26,11.24,30.96,-20.6,10.14,-5.07,21.14,23.91,25.89,0,4.75,0.16
rf_cut_5_p1_opt_disp_struct_1.xyz,Nucleus 12H :,-2.66679,0.269469,1.429705,23.44,26.28,23.47,20.58,47.55,28.95,16.09,-24.32,-2.7,4.75,20.58,23.47,26.28,0,5.7,0.02
rf_cut_5_p1_opt_disp_struct_1.xyz,Nucleus 13H :,-1.274824,0.164564,1.45188,23.5,27.56,22.42,20.51,48.25,31.6,28.91,-25.87,-4.23,-8.16,20.51,22.42,27.56,0,7.05,-0.46
rf_cut_5_p1_opt_disp_struct_1.xyz,Nucleus 14H :,1.443571,1.393784,0.681409,29.07,33.96,28.27,24.99,44.4,32.8,30.41,-11.32,-2.77,-6.29,24.99,28.27,33.96,0,8.97,-0.27
rf_cut_5_p1_opt_disp_struct_1.xyz,Nucleus 16H :,1.316674,-0.321948,1.049079,28.73,34.62,24.41,27.16,39.5,4.77,20.12,21.29,-5.42,5.92,24.41,27.16,34.62,0,10.21,-0.46
rf_cut_5_p1_opt_disp_struct_1.xyz,Nucleus 17H :,-0.59123,1.417251,-1.632677,28.74,35.33,24.23,26.65,39.94,19.18,5.72,20.79,-5.33,5.91,24.23,26.65,35.33,0,11.1,-0.56
rf_cut_5_p1_opt_disp_struct_1.xyz,Nucleus 19H :,-3.060711,1.610878,-1.666844,27.24,34.45,28.66,18.6,48.89,30.71,21.59,-14.48,-0.43,-4.57,18.6,28.66,34.45,0,15.85,0.27
rf_cut_5_p1_opt_disp_struct_1.xyz,Nucleus 22H :,-4.391453,0.899964,0.304938,27.91,43.19,22.63,17.9,26.01,52.75,50.2,-2.41,-10.33,-32.51,17.9,22.63,43.19,0,25.29,-0.63
rf_cut_5_p1_opt_disp_struct_1.xyz,Nucleus 24H :,-3.245248,-0.046529,2.291846,27.12,33.97,27.5,19.9,52.78,25.37,5.54,-18.99,2.23,14.44,19.9,27.5,33.97,0,14.07,0.08
rf_cut_5_p1_opt_disp_struct_1.xyz,Nucleus 25H :,-0.775838,-0.240301,2.327118,27.27,42.18,22.14,17.5,46.43,27.22,33.65,-3.23,-6.13,-16.13,17.5,22.14,42.18,0,24.68,-0.62
rf_cut_5_p1_opt_disp_struct_1.xyz,Nucleus 26H :,1.368763,0.23882,-0.641114,28.35,35.43,26.03,23.59,38.49,17.93,-3.98,-3.1,8.04,27.68,23.59,26.03,35.43,0,11.84,-0.59
rf_cut_5_p1_opt_disp_struct_1.xyz,Nucleus 27H :,-3.439432,-5.058699,-2.273125,27.49,34.34,20.57,27.56,48.7,37.4,30.88,-3.4,-11.05,-20.07,20.57,27.56,34.34,0,13.77,0.02
rf_cut_5_p1_opt_disp_struct_1.xyz,Nucleus 0C :,-4.12477,-5.1376,-1.422964,161.5,189.09,139.05,156.37,259.57,246.1,240.31,-70.38,-101.38,-89.72,139.05,156.37,189.09,0,50.04,-0.31
rf_cut_5_p1_opt_disp_struct_1.xyz,Nucleus 1C :,-3.94823,-4.586325,-3.121973,33.39,177.03,-71.94,-4.91,259.76,277.76,237.06,-60.12,-331.62,-282.66,-71.94,-4.91,177.03,0,248.97,-0.46
rf_cut_5_p1_opt_disp_struct_1.xyz,Nucleus 2C :,-2.228222,-4.33651,-1.892441,43.39,-67.16,32.06,165.26,276.81,262.42,244.98,-331.33,-242.83,-79.9,-67.16,32.06,165.26,0,232.42,-0.15
rf_cut_5_p1_opt_disp_struct_1.xyz,Nucleus 3C :,-1.34691,-4.725034,-2.18576,43.79,-71.94,25.77,177.55,273.66,261.23,232.62,-333.38,-247.44,-55.3,-71.94,25.77,177.55,0,249.49,-0.22
rf_cut_5_p1_opt_disp_struct_1.xyz,Nucleus 4C :,-2.199907,-3.108068,-1.354381,51.59,-60.47,180.08,35.15,226.89,258.8,276.38,-47.55,-318.54,-241.23,-60.47,35.15,180.08,0,240.55,-0.21
rf_cut_5_p1_opt_disp_struct_1.xyz,Nucleus 5C :,-1.02224,-2.558618,-1.05645,43.84,-71.53,25.64,177.41,273.27,260.73,231.28,-332.5,-247.16,-54.1,-71.53,25.64,177.41,0,248.94,-0.22
rf_cut_5_p1_opt_disp_struct_1.xyz,Nucleus 6C :,-0.97953,-1.636695,-0.636834,43.79,-66.26,33.49,164.13,276.67,261.87,244.37,-330.14,-240.88,-80.54,-66.26,33.49,164.13,0,230.39,-0.13
rf_cut_5_p1_opt_disp_struct_1.xyz,Nucleus 15C :,-3.310548,-2.415343,-1.101546,155.39,188.8,130.93,146.45,265.1,216.87,208.36,-88.44,-74.06,-61.65,130.93,146.45,188.8,0,57.87,-0.46
rf_cut_5_p1_opt_disp_struct_1.xyz,Nucleus 20C :,-4.203575,-2.742257,-1.429405,21.91,117.38,-33.11,-18.53,237.47,267.74,265.31,-120.11,-300.32,-284.36,-33.11,-18.53,117.38,0,150.49,-0.81
rf_cut_5_p1_opt_disp_struct_1.xyz,Nucleus 18N :,-3.263406,-1.509473,-0.645297,170.96,105.69,179.92,227.26,344.23,331.55,299.61,-227.45,-121.94,-113.12,105.69,179.92,227.26,0,121.57,0.22
rf_cut_5_p1_opt_disp_struct_1.xyz,Nucleus 21N :,-3.155446,-6.069811,-2.564507,171.26,113.77,224.64,175.37,321.12,338.14,330.27,-211.74,-113.36,-150.66,113.77,175.37,224.64,0,110.87,0.11
rf_cut_5_p1_opt_disp_struct_1.xyz,Nucleus 23N :,-0.185187,-3.116558,-1.050859,169.83,113.64,202.34,193.52,292.96,339.1,325.0,-213.95,-135.34,-98.27,113.64,193.52,202.34,0,88.7,0.8
rf_cut_5_p1_opt_disp_struct_10.xyz,Nucleus 7H :,0.97919,0.455102,0.357986,28.47,34.47,25.05,25.89,43.31,25.64,24.9,-10.14,0.68,1.01,25.05,25.89,34.47,0,9.42,-0.82
rf_cut_5_p1_opt_disp_struct_10.xyz,Nucleus 8H :,-0.514845,0.586467,0.354219,29.19,34.22,28.75,24.6,42.69,31.48,29.29,-1.07,-5.87,-8.96,24.6,28.75,34.22,0,9.62,-0.14
rf_cut_5_p1_opt_disp_struct_10.xyz,Nucleus 9H :,-1.171614,1.096837,-0.772679,23.71,28.33,21.99,20.82,47.86,31.79,30.11,-25.77,-3.55,-9.3,20.82,21.99,28.33,0,7.51,-0.69
rf_cut_5_p1_opt_disp_struct_10.xyz,Nucleus 10H :,-2.563436,1.200529,-0.793859,23.7,26.93,23.23,20.93,47.28,30.36,17.13,-24.07,-3.47,3.85,20.93,23.23,26.93,0,6.0,-0.23
rf_cut_5_p1_opt_disp_struct_10.xyz,Nucleus 11H :,-3.310627,0.788505,0.307991,23.84,21.11,23.65,26.76,9.32,44.19,32.62,-20.54,11.79,-5.86,21.11,23.65,26.76,0,5.65,-0.1
rf_cut_5_p1_opt_disp_struct_10.xyz,Nucleus 12H :,-2.66679,0.269469,1.429705,23.7,26.94,23.25,20.92,47.32,29.88,15.75,-24.09,-2.96,5.21,20.92,23.25,26.94,0,6.02,-0.22
rf_cut_5_p1_opt_disp_struct_10.xyz,Nucleus 13H :,-1.274824,0.164564,1.45188,23.75,28.23,22.15,20.87,47.52,31.52,29.02,-25.24,-3.39,-8.17,20.87,22.15,28.23,0,7.36,-0.65
rf_cut_5_p1_opt_disp_struct_10.xyz,Nucleus 14H :,1.443571,1.393784,0.681409,29.11,34.15,28.6,24.58,43.08,31.97,29.84,-1.83,-6.18,-9.56,24.58,28.6,34.15,0,9.57,-0.16
rf_cut_5_p1_opt_disp_struct_10.xyz,Nucleus 16H :,1.316674,-0.321948,1.049079,28.55,34.45,24.39,26.82,39.34,19.1,-3.45,-5.79,6.43,30.04,24.39,26.82,34.45,0,10.06,-0.52
rf_cut_5_p1_opt_disp_struct_10.xyz,Nucleus 17H :,-0.59123,1.417251,-1.632677,28.56,35.13,24.17,26.39,40.15,18.32,-2.99,29.94,-6.14,6.41,24.17,26.39,35.13,0,10.96,-0.59
rf_cut_5_p1_opt_disp_struct_10.xyz,Nucleus 19H :,-3.060711,1.610878,-1.666844,26.89,33.91,28.06,18.7,50.01,28.78,9.41,-16.23,-1.23,9.93,18.7,28.06,33.91,0,15.21,0.23
rf_cut_5_p1_opt_disp_struct_10.xyz,Nucleus 22H :,-4.391453,0.899964,0.304938,26.92,36.62,24.12,20.03,29.87,46.39,67.57,-47.52,-5.57,-9.97,20.03,24.12,36.62,0,16.59,-0.51
rf_cut_5_p1_opt_disp_struct_10.xyz,Nucleus 24H :,-3.245248,-0.046529,2.291846,26.67,33.75,19.86,26.41,55.7,25.32,3.12,-22.0,1.05,16.82,19.86,26.41,33.75,0,13.89,-0.06
rf_cut_5_p1_opt_disp_struct_10.xyz,Nucleus 25H :,-0.775838,-0.240301,2.327118,26.57,35.75,24.07,19.88,31.52,50.33,43.16,-30.29,-7.37,-7.66,19.88,24.07,35.75,0,15.87,-0.47
rf_cut_5_p1_opt_disp_struct_10.xyz,Nucleus 26H :,1.368763,0.23882,-0.641114,28.17,34.99,25.96,23.55,38.16,14.59,-16.89,11.32,-3.2,40.54,23.55,25.96,34.99,0,11.44,-0.58
rf_cut_5_p1_opt_disp_struct_10.xyz,Nucleus 27H :,-3.575122,-7.13323,-3.133596,27.04,34.57,20.76,25.8,50.52,37.74,27.96,-1.84,-11.01,-22.25,20.76,25.8,34.57,0,13.81,-0.27
rf_cut_5_p1_opt_disp_struct_10.xyz,Nucleus 0C :,-4.260459,-7.212131,-2.283435,161.01,188.57,137.77,156.7,255.79,241.79,240.21,-66.95,-102.79,-85.01,137.77,156.7,188.57,0,50.8,-0.25
rf_cut_5_p1_opt_disp_struct_10.xyz,Nucleus 1C :,-4.083919,-6.660856,-3.982444,33.98,175.39,-74.08,0.62,260.82,273.76,236.39,-61.05,-334.87,-273.12,-74.08,0.62,175.39,0,249.47,-0.4
rf_cut_5_p1_opt_disp_struct_10.xyz,Nucleus 2C :,-2.363911,-6.411041,-2.752912,45.29,-65.84,38.71,162.99,273.83,261.99,243.55,-328.89,-234.05,-80.57,-65.84,38.71,162.99,0,228.83,-0.09
rf_cut_5_p1_opt_disp_struct_10.xyz,Nucleus 3C :,-1.482599,-6.799564,-3.046231,45.85,-70.44,32.7,175.29,272.1,260.49,231.67,-331.25,-239.06,-56.39,-70.44,32.7,175.29,0,245.73,-0.16
rf_cut_5_p1_opt_disp_struct_10.xyz,Nucleus 4C :,-2.335596,-5.182599,-2.214852,50.23,-63.33,177.67,36.35,227.83,258.05,274.96,-50.16,-321.38,-238.61,-63.33,36.35,177.67,0,241.0,-0.17
rf_cut_5_p1_opt_disp_struct_10.xyz,Nucleus 5C :,-1.157929,-4.633149,-1.916921,45.78,-70.28,32.47,175.16,271.64,260.5,230.59,-331.07,-238.87,-55.44,-70.28,32.47,175.16,0,245.44,-0.16
rf_cut_5_p1_opt_disp_struct_10.xyz,Nucleus 6C :,-1.115219,-3.711226,-1.497305,45.74,-64.84,40.14,161.93,274.03,261.34,243.19,-327.58,-232.44,-81.31,-64.84,40.14,161.93,0,226.77,-0.07
rf_cut_5_p1_opt_disp_struct_10.xyz,Nucleus 15C :,-3.446237,-4.489874,-1.962017,155.22,188.62,130.44,146.59,270.27,212.22,198.91,-86.82,-76.57,-52.34,130.44,146.59,188.62,0,58.18,-0.44
rf_cut_5_p1_opt_disp_struct_10.xyz,Nucleus 20C :,-4.339264,-4.816788,-2.289876,21.05,115.75,-35.51,-17.1,271.21,262.92,240.04,-124.32,-305.52,-281.2,-35.51,-17.1,115.75,0,151.26,-0.76
rf_cut_5_p1_opt_disp_struct_10.xyz,Nucleus 18N :,-3.399095,-3.584004,-1.505768,167.54,99.7,180.97,221.94,346.55,330.65,284.03,-235.22,-101.74,-121.67,99.7,180.97,221.94,0,122.24,0.33
rf_cut_5_p1_opt_disp_struct_10.xyz,Nucleus 21N :,-3.291135,-8.144342,-3.424978,174.83,234.69,114.06,175.74,321.75,336.63,341.33,-101.94,-212.14,-161.15,114.06,175.74,234.69,0,120.63,0.02
rf_cut_5_p1_opt_disp_struct_10.xyz,Nucleus 23N :,-0.320876,-5.191089,-1.91133,174.43,114.95,213.09,195.24,341.57,324.29,298.91,-210.59,-127.95,-102.94,114.95,195.24,213.09,0,98.14,0.64
rf_cut_5_p1_opt_disp_struct_11.xyz,Nucleus 7H :,0.97919,0.455102,0.357986,28.49,34.46,25.08,25.92,43.32,25.66,24.83,-10.17,0.72,1.09,25.08,25.92,34.46,0,9.38,-0.82
rf_cut_5_p1_opt_disp_struct_11.xyz,Nucleus 8H :,-0.514845,0.586467,0.354219,29.19,34.24,28.76,24.58,42.55,31.45,29.25,-1.01,-5.86,-8.8,24.58,28.76,34.24,0,9.66,-0.13
rf_cut_5_p1_opt_disp_struct_11.xyz,Nucleus 9H :,-1.171614,1.096837,-0.772679,23.73,28.37,22.0,20.82,47.76,31.75,30.1,-25.67,-3.46,-9.29,20.82,22.0,28.37,0,7.55,-0.69
rf_cut_5_p1_opt_disp_struct_11.xyz,Nucleus 10H :,-2.563436,1.200529,-0.793859,23.71,26.96,23.24,20.92,47.21,30.39,17.05,-23.98,-3.46,3.9,20.92,23.24,26.96,0,6.04,-0.23
rf_cut_5_p1_opt_disp_struct_11.xyz,Nucleus 11H :,-3.310627,0.788505,0.307991,23.85,21.09,23.66,26.8,9.23,44.17,32.65,-20.5,11.86,-5.85,21.09,23.66,26.8,0,5.71,-0.1
rf_cut_5_p1_opt_disp_struct_11.xyz,Nucleus 12H :,-2.66679,0.269469,1.429705,23.72,26.98,23.26,20.91,47.26,29.92,15.68,-24.01,-2.96,5.26,20.91,23.26,26.98,0,6.07,-0.23
rf_cut_5_p1_opt_disp_struct_11.xyz,Nucleus 13H :,-1.274824,0.164564,1.45188,23.76,28.27,22.15,20.87,47.42,31.5,29.0,-25.14,-3.33,-8.16,20.87,22.15,28.27,0,7.4,-0.65
rf_cut_5_p1_opt_disp_struct_11.xyz,Nucleus 14H :,1.443571,1.393784,0.681409,29.11,34.17,28.61,24.55,42.96,31.93,29.76,-1.75,-6.15,-9.42,24.55,28.61,34.17,0,9.62,-0.16
rf_cut_5_p1_opt_disp_struct_11.xyz,Nucleus 16H :,1.316674,-0.321948,1.049079,28.54,34.44,24.39,26.8,39.36,19.01,-4.33,-5.86,6.49,30.96,24.39,26.8,34.44,0,10.05,-0.52
rf_cut_5_p1_opt_disp_struct_11.xyz,Nucleus 17H :,-0.59123,1.417251,-1.632677,28.56,35.12,24.17,26.38,40.21,18.25,-3.92,30.91,-6.24,6.46,24.17,26.38,35.12,0,10.95,-0.6
rf_cut_5_p1_opt_disp_struct_11.xyz,Nucleus 19H :,-3.060711,1.610878,-1.666844,26.88,33.9,28.03,18.7,50.17,28.62,8.11,-16.42,-1.06,11.21,18.7,28.03,33.9,0,15.2,0.23
rf_cut_5_p1_opt_disp_struct_11.xyz,Nucleus 22H :,-4.391453,0.899964,0.304938,26.87,36.36,24.15,20.1,30.06,46.04,69.24,-49.12,-5.66,-9.96,20.1,24.15,36.36,0,16.26,-0.5
rf_cut_5_p1_opt_disp_struct_11.xyz,Nucleus 24H :,-3.245248,-0.046529,2.291846,26.64,33.73,19.86,26.34,56.07,25.33,2.95,-22.39,0.97,16.99,19.86,26.34,33.73,0,13.87,-0.06
rf_cut_5_p1_opt_disp_struct_11.xyz,Nucleus 25H :,-0.775838,-0.240301,2.327118,26.51,35.52,24.08,19.94,31.68,51.88,43.13,-31.8,-7.6,-7.75,19.94,24.08,35.52,0,15.58,-0.47
rf_cut_5_p1_opt_disp_struct_11.xyz,Nucleus 26H :,1.368763,0.23882,-0.641114,28.16,34.96,25.96,23.57,38.13,14.26,-18.26,11.65,-3.21,41.92,23.57,25.96,34.96,0,11.39,-0.58
rf_cut_5_p1_opt_disp_struct_11.xyz,Nucleus 27H :,-3.590198,-7.363733,-3.229204,27.01,34.57,20.76,25.71,50.73,37.78,27.77,-1.71,-11.03,-22.5,20.76,25.71,34.57,0,13.81,-0.28
rf_cut_5_p1_opt_disp_struct_11.xyz,Nucleus 0C :,-4.275535,-7.442634,-2.379043,161.02,188.57,137.74,156.75,255.59,241.54,240.27,-66.73,-102.92,-84.68,137.74,156.75,188.57,0,50.83,-0.25
rf_cut_5_p1_opt_disp_struct_11.xyz,Nucleus 1C :,-4.098995,-6.891359,-4.078052,34.04,175.3,-74.06,0.89,260.81,273.31,236.34,-61.09,-334.84,-272.41,-74.06,0.89,175.3,0,249.36,-0.4
rf_cut_5_p1_opt_disp_struct_11.xyz,Nucleus 2C :,-2.378988,-6.641545,-2.84852,45.3,-65.83,38.85,162.88,273.54,261.95,243.52,-328.75,-233.7,-80.65,-65.83,38.85,162.88,0,228.71,-0.08
rf_cut_5_p1_opt_disp_struct_11.xyz,Nucleus 3C :,-1.497675,-7.030068,-3.141839,45.89,-70.38,32.87,175.19,271.98,260.4,231.67,-331.11,-238.79,-56.49,-70.38,32.87,175.19,0,245.57,-0.16
rf_cut_5_p1_opt_disp_struct_11.xyz,Nucleus 4C :,-2.350672,-5.413102,-2.31046,50.19,-63.36,177.58,36.36,227.71,257.99,274.74,-50.13,-321.35,-238.38,-63.36,36.36,177.58,0,240.94,-0.17
rf_cut_5_p1_opt_disp_struct_11.xyz,Nucleus 5C :,-1.173006,-4.863653,-2.012529,45.83,-70.23,32.64,175.07,271.52,260.42,230.6,-330.93,-238.59,-55.54,-70.23,32.64,175.07,0,245.3,-0.16
rf_cut_5_p1_opt_disp_struct_11.xyz,Nucleus 6C :,-1.130295,-3.94173,-1.592913,45.75,-64.84,40.26,161.82,273.75,261.3,243.18,-327.46,-232.13,-81.39,-64.84,40.26,161.82,0,226.66,-0.07
rf_cut_5_p1_opt_disp_struct_11.xyz,Nucleus 15C :,-3.461313,-4.720377,-2.057624,155.2,188.6,130.41,146.59,270.82,211.75,197.94,-51.39,-86.84,-76.67,130.41,146.59,188.6,0,58.19,-0.44
rf_cut_5_p1_opt_disp_struct_11.xyz,Nucleus 20C :,-4.354341,-5.047291,-2.385484,21.03,115.79,-35.58,-17.11,271.53,262.78,240.22,-124.46,-305.86,-281.12,-35.58,-17.11,115.79,0,151.37,-0.76
rf_cut_5_p1_opt_disp_struct_11.xyz,Nucleus 18N :,-3.414172,-3.814507,-1.601376,167.44,99.55,181.01,221.75,346.91,330.59,282.47,-235.67,-100.21,-121.78,99.55,181.01,221.75,0,122.2,0.33
rf_cut_5_p1_opt_disp_struct_11.xyz,Nucleus 21N :,-3.306212,-8.374846,-3.520586,174.8,234.72,113.98,175.71,321.63,336.62,342.29,-101.83,-212.25,-162.06,113.98,175.71,234.72,0,120.74,0.02
rf_cut_5_p1_opt_disp_struct_11.xyz,Nucleus 23N :,-0.335953,-5.421592,-2.006938,174.42,114.89,213.18,195.2,341.82,324.24,299.54,-210.57,-128.13,-103.63,114.89,195.2,213.18,0,98.29,0.63
rf_cut_5_p1_opt_disp_struct_12.xyz,Nucleus 7H :,0.97919,0.455102,0.357986,28.5,34.45,25.11,25.94,43.33,25.68,24.77,-10.2,0.75,1.17,25.11,25.94,34.45,0,9.34,-0.82
rf_cut_5_p1_opt_disp_struct_12.xyz,Nucleus 8H :,-0.514845,0.586467,0.354219,29.2,34.26,28.78,24.55,42.43,31.43,29.2,-0.95,-5.86,-8.65,24.55,28.78,34.26,0,9.71,-0.13
rf_cut_5_p1_opt_disp_struct_12.xyz,Nucleus 9H :,-1.171614,1.096837,-0.772679,23.75,28.4,22.02,20.82,47.67,31.71,30.08,-25.57,-3.38,-9.28,20.82,22.02,28.4,0,7.58,-0.68
rf_cut_5_p1_opt_disp_struct_12.xyz,Nucleus 10H :,-2.563436,1.200529,-0.793859,23.72,26.99,23.26,20.91,47.13,30.41,16.99,-23.88,-3.45,3.96,20.91,23.26,26.99,0,6.08,-0.23
rf_cut_5_p1_opt_disp_struct_12.xyz,Nucleus 11H :,-3.310627,0.788505,0.307991,23.86,21.07,23.68,26.83,9.15,44.14,32.66,-20.46,11.92,-5.83,21.07,23.68,26.83,0,5.76,-0.09
rf_cut_5_p1_opt_disp_struct_12.xyz,Nucleus 12H :,-2.66679,0.269469,1.429705,23.73,27.0,23.27,20.91,47.19,29.95,15.62,-23.93,-2.97,5.32,20.91,23.27,27.0,0,6.09,-0.23
rf_cut_5_p1_opt_disp_struct_12.xyz,Nucleus 13H :,-1.274824,0.164564,1.45188,23.78,28.29,22.17,20.87,47.32,31.48,28.99,-25.04,-3.28,-8.15,20.87,22.17,28.29,0,7.42,-0.65
rf_cut_5_p1_opt_disp_struct_12.xyz,Nucleus 14H :,1.443571,1.393784,0.681409,29.11,34.2,28.62,24.52,42.84,31.9,29.69,-1.67,-6.13,-9.29,24.52,28.62,34.2,0,9.68,-0.15
rf_cut_5_p1_opt_disp_struct_12.xyz,Nucleus 16H :,1.316674,-0.321948,1.049079,28.54,34.44,24.39,26.78,39.39,18.92,-5.21,-5.93,6.56,31.88,24.39,26.78,34.44,0,10.05,-0.53
rf_cut_5_p1_opt_disp_struct_12.xyz,Nucleus 17H :,-0.59123,1.417251,-1.632677,28.55,35.11,24.17,26.37,40.27,18.18,-4.83,31.86,-6.35,6.52,24.17,26.37,35.11,0,10.94,-0.6
rf_cut_5_p1_opt_disp_struct_12.xyz,Nucleus 19H :,-3.060711,1.610878,-1.666844,26.86,33.88,28.0,18.71,50.32,28.46,6.81,-16.6,-0.9,12.48,18.71,28.0,33.88,0,15.17,0.23
rf_cut_5_p1_opt_disp_struct_12.xyz,Nucleus 22H :,-4.391453,0.899964,0.304938,26.82,36.14,24.17,20.15,30.24,45.74,70.89,-50.72,-5.74,-9.95,20.15,24.17,36.14,0,15.99,-0.5
rf_cut_5_p1_opt_disp_struct_12.xyz,Nucleus 24H :,-3.245248,-0.046529,2.291846,26.62,33.71,19.86,26.28,56.45,2.77,25.34,-22.78,0.91,17.18,19.86,26.28,33.71,0,13.85,-0.07
rf_cut_5_p1_opt_disp_struct_12.xyz,Nucleus 25H :,-0.775838,-0.240301,2.327118,26.47,35.32,24.09,19.99,31.82,53.41,43.1,-33.29,-7.72,-7.91,19.99,24.09,35.32,0,15.33,-0.47
rf_cut_5_p1_opt_disp_struct_12.xyz,Nucleus 26H :,1.368763,0.23882,-0.641114,28.16,34.94,25.96,23.57,38.11,13.92,-19.62,11.98,-3.21,43.29,23.57,25.96,34.94,0,11.37,-0.58
rf_cut_5_p1_opt_disp_struct_12.xyz,Nucleus 27H :,-3.605275,-7.594237,-3.324811,26.99,34.57,20.77,25.63,50.95,37.82,27.59,-1.6,-11.05,-22.75,20.77,25.63,34.57,0,13.8,-0.3
rf_cut_5_p1_opt_disp_struct_12.xyz,Nucleus 0C :,-4.290612,-7.673138,-2.474651,161.02,188.56,137.71,156.78,255.41,241.33,240.3,-66.54,-103.06,-84.39,137.71,156.78,188.56,0,50.85,-0.25
rf_cut_5_p1_opt_disp_struct_12.xyz,Nucleus 1C :,-4.114072,-7.121863,-4.173659,34.12,175.23,-74.01,1.13,260.81,272.91,236.3,-61.12,-334.79,-271.76,-74.01,1.13,175.23,0,249.24,-0.4
rf_cut_5_p1_opt_disp_struct_12.xyz,Nucleus 2C :,-2.394065,-6.872048,-2.944128,45.32,-65.8,38.97,162.78,273.27,261.89,243.49,-328.61,-233.38,-80.72,-65.8,38.97,162.78,0,228.58,-0.08
rf_cut_5_p1_opt_disp_struct_12.xyz,Nucleus 3C :,-1.512752,-7.260571,-3.237447,45.92,-70.33,33.01,175.08,271.86,260.3,231.67,-330.95,-238.53,-56.6,-70.33,33.01,175.08,0,245.41,-0.16
rf_cut_5_p1_opt_disp_struct_12.xyz,Nucleus 4C :,-2.365749,-5.643605,-2.406068,50.17,-63.37,177.49,36.39,227.6,257.94,274.51,-50.12,-321.31,-238.12,-63.37,36.39,177.49,0,240.86,-0.17
rf_cut_5_p1_opt_disp_struct_12.xyz,Nucleus 5C :,-1.188083,-5.094156,-2.108137,45.86,-70.17,32.8,174.96,271.39,260.34,230.61,-330.78,-238.32,-55.65,-70.17,32.8,174.96,0,245.13,-0.16
rf_cut_5_p1_opt_disp_struct_12.xyz,Nucleus 6C :,-1.145372,-4.172233,-1.688521,45.76,-64.83,40.38,161.72,273.49,261.25,243.16,-327.32,-231.83,-81.47,-64.83,40.38,161.72,0,226.55,-0.07
rf_cut_5_p1_opt_disp_struct_12.xyz,Nucleus 15C :,-3.47639,-4.950881,-2.153232,155.19,188.59,130.39,146.59,271.37,211.29,196.99,-50.45,-86.91,-76.72,130.39,146.59,188.59,0,58.2,-0.44
rf_cut_5_p1_opt_disp_struct_12.xyz,Nucleus 20C :,-4.369417,-5.277795,-2.481092,21.01,115.8,-35.64,-17.13,271.85,262.64,240.4,-124.62,-306.18,-281.06,-35.64,-17.13,115.8,0,151.44,-0.76
rf_cut_5_p1_opt_disp_struct_12.xyz,Nucleus 18N :,-3.429249,-4.045011,-1.696984,167.34,99.4,181.05,221.57,347.28,330.53,280.95,-236.13,-98.71,-121.9,99.4,181.05,221.57,0,122.17,0.34
rf_cut_5_p1_opt_disp_struct_12.xyz,Nucleus 21N :,-3.321288,-8.605349,-3.616194,174.78,234.75,113.91,175.67,321.52,336.63,343.29,-101.74,-212.36,-163.0,113.91,175.67,234.75,0,120.84,0.02
rf_cut_5_p1_opt_disp_struct_12.xyz,Nucleus 23N :,-0.351029,-5.652096,-2.102545,174.42,114.85,213.25,195.15,342.09,324.2,300.12,-210.56,-128.33,-104.27,114.85,195.15,213.25,0,98.4,0.63
rf_cut_5_p1_opt_disp_struct_13.xyz,Nucleus 7H :,0.97919,0.455102,0.357986,28.52,34.44,25.14,25.97,43.34,25.7,24.7,-10.23,0.79,1.25,25.14,25.97,34.44,0,9.3,-0.82
rf_cut_5_p1_opt_disp_struct_13.xyz,Nucleus 8H :,-0.514845,0.586467,0.354219,29.2,34.27,28.79,24.53,42.3,31.41,29.15,-0.9,-5.86,-8.51,24.53,28.79,34.27,0,9.74,-0.13
rf_cut_5_p1_opt_disp_struct_13.xyz,Nucleus 9H :,-1.171614,1.096837,-0.772679,23.75,28.42,22.03,20.81,47.58,31.67,30.07,-25.47,-3.31,-9.27,20.81,22.03,28.42,0,7.61,-0.68
rf_cut_5_p1_opt_disp_struct_13.xyz,Nucleus 10H :,-2.563436,1.200529,-0.793859,23.73,27.01,23.27,20.91,47.05,30.43,16.93,-23.78,-3.44,4.01,20.91,23.27,27.01,0,6.1,-0.23
rf_cut_5_p1_opt_disp_struct_13.xyz,Nucleus 11H :,-3.310627,0.788505,0.307991,23.87,21.06,23.69,26.86,9.09,44.11,32.66,-20.42,11.97,-5.8,21.06,23.69,26.86,0,5.8,-0.09
rf_cut_5_p1_opt_disp_struct_13.xyz,Nucleus 12H :,-2.66679,0.269469,1.429705,23.74,27.03,23.28,20.91,47.12,29.98,15.56,-23.84,-2.97,5.37,20.91,23.28,27.03,0,6.12,-0.23
rf_cut_5_p1_opt_disp_struct_13.xyz,Nucleus 13H :,-1.274824,0.164564,1.45188,23.79,28.32,22.18,20.86,47.23,31.46,28.98,-24.94,-3.22,-8.14,20.86,22.18,28.32,0,7.46,-0.65
rf_cut_5_p1_opt_disp_struct_13.xyz,Nucleus 14H :,1.443571,1.393784,0.681409,29.11,34.21,28.63,24.49,42.72,31.88,29.61,-1.59,-6.1,-9.18,24.49,28.63,34.21,0,9.72,-0.15
rf_cut_5_p1_opt_disp_struct_13.xyz,Nucleus 16H :,1.316674,-0.321948,1.049079,28.53,34.43,24.39,26.76,39.42,18.84,-6.08,-6.0,6.62,32.79,24.39,26.76,34.43,0,10.04,-0.53
rf_cut_5_p1_opt_disp_struct_13.xyz,Nucleus 17H :,-0.59123,1.417251,-1.632677,28.54,35.1,24.17,26.35,40.34,18.1,-5.75,32.81,-6.46,6.58,24.17,26.35,35.1,0,10.93,-0.6
rf_cut_5_p1_opt_disp_struct_13.xyz,Nucleus 19H :,-3.060711,1.610878,-1.666844,26.85,33.86,27.97,18.71,50.48,28.32,5.53,-16.78,-0.75,13.75,18.71,27.97,33.86,0,15.15,0.22
rf_cut_5_p1_opt_disp_struct_13.xyz,Nucleus 22H :,-4.391453,0.899964,0.304938,26.78,35.96,24.19,20.2,30.41,45.48,72.54,-52.32,-5.8,-9.96,20.2,24.19,35.96,0,15.76,-0.49
rf_cut_5_p1_opt_disp_struct_13.xyz,Nucleus 24H :,-3.245248,-0.046529,2.291846,26.6,33.7,19.87,26.23,56.83,2.57,25.34,-23.18,0.85,17.38,19.87,26.23,33.7,0,13.83,-0.08
rf_cut_5_p1_opt_disp_struct_13.xyz,Nucleus 25H :,-0.775838,-0.240301,2.327118,26.43,35.16,24.1,20.04,31.96,54.93,43.09,-34.78,-7.78,-8.12,20.04,24.1,35.16,0,15.12,-0.46
rf_cut_5_p1_opt_disp_struct_13.xyz,Nucleus 26H :,1.368763,0.23882,-0.641114,28.15,34.91,25.97,23.57,38.09,13.59,-20.97,12.32,-3.22,44.64,23.57,25.97,34.91,0,11.34,-0.58
rf_cut_5_p1_opt_disp_struct_13.xyz,Nucleus 27H :,-3.620351,-7.82474,-3.420419,26.97,34.57,20.78,25.55,51.17,37.85,27.43,-1.49,-11.08,-22.99,20.78,25.55,34.57,0,13.79,-0.31
rf_cut_5_p1_opt_disp_struct_13.xyz,Nucleus 0C :,-4.305688,-7.903641,-2.570259,161.02,188.56,137.68,156.82,255.25,241.16,240.31,-66.37,-103.18,-84.12,137.68,156.82,188.56,0,50.88,-0.25
rf_cut_5_p1_opt_disp_struct_13.xyz,Nucleus 1C :,-4.129148,-7.352366,-4.269267,34.19,175.18,-73.96,1.35,260.81,272.54,236.27,-61.14,-334.74,-271.17,-73.96,1.35,175.18,0,249.14,-0.4
rf_cut_5_p1_opt_disp_struct_13.xyz,Nucleus 2C :,-2.409141,-7.102551,-3.039736,45.32,-65.79,39.07,162.69,273.02,261.83,243.45,-328.47,-233.09,-80.77,-65.79,39.07,162.69,0,228.48,-0.08
rf_cut_5_p1_opt_disp_struct_13.xyz,Nucleus 3C :,-1.527829,-7.491075,-3.333055,45.95,-70.28,33.14,174.99,271.74,260.21,231.67,-330.79,-238.29,-56.68,-70.28,33.14,174.99,0,245.27,-0.16
rf_cut_5_p1_opt_disp_struct_13.xyz,Nucleus 4C :,-2.380825,-5.874109,-2.501675,50.15,-63.37,177.4,36.42,227.5,257.9,274.3,-50.11,-321.26,-237.87,-63.37,36.42,177.4,0,240.77,-0.17
rf_cut_5_p1_opt_disp_struct_13.xyz,Nucleus 5C :,-1.203159,-5.324659,-2.203745,45.89,-70.12,32.92,174.87,271.27,260.26,230.61,-330.64,-238.08,-55.74,-70.12,32.92,174.87,0,244.99,-0.16
rf_cut_5_p1_opt_disp_struct_13.xyz,Nucleus 6C :,-1.160448,-4.402737,-1.784129,45.77,-64.81,40.48,161.63,273.25,261.19,243.13,-327.18,-231.56,-81.53,-64.81,40.48,161.63,0,226.44,-0.07
rf_cut_5_p1_opt_disp_struct_13.xyz,Nucleus 15C :,-3.491466,-5.181384,-2.24884,155.18,188.58,130.37,146.59,271.93,210.83,196.05,-49.52,-87.03,-76.72,130.37,146.59,188.58,0,58.21,-0.44
rf_cut_5_p1_opt_disp_struct_13.xyz,Nucleus 20C :,-4.384494,-5.508298,-2.5767,20.99,115.82,-35.68,-17.16,272.17,262.52,240.58,-124.79,-306.49,-281.0,-35.68,-17.16,115.82,0,151.5,-0.76
rf_cut_5_p1_opt_disp_struct_13.xyz,Nucleus 18N :,-3.444325,-4.275514,-1.792591,167.26,99.27,181.08,221.42,347.66,330.48,279.45,-236.59,-97.22,-122.0,99.27,181.08,221.42,0,122.15,0.34
rf_cut_5_p1_opt_disp_struct_13.xyz,Nucleus 21N :,-3.336365,-8.835853,-3.711802,174.76,234.77,113.86,175.65,321.43,336.67,344.31,-101.68,-212.5,-163.95,113.86,175.65,234.77,0,120.91,0.02
rf_cut_5_p1_opt_disp_struct_13.xyz,Nucleus 23N :,-0.366106,-5.882599,-2.198153,174.41,114.81,213.31,195.11,342.37,324.17,300.65,-210.57,-128.54,-104.85,114.81,195.11,213.31,0,98.5,0.63
rf_cut_5_p1_opt_disp_struct_14.xyz,Nucleus 7H :,0.97919,0.455102,0.357986,28.53,34.43,25.16,25.99,43.34,25.71,24.64,-10.26,0.81,1.33,25.16,25.99,34.43,0,9.27,-0.82
rf_cut_5_p1_opt_disp_struct_14.xyz,Nucleus 8H :,-0.514845,0.586467,0.354219,29.2,34.29,28.8,24.51,42.19,31.39,29.1,-0.84,-5.86,-8.38,24.51,28.8,34.29,0,9.78,-0.12
rf_cut_5_p1_opt_disp_struct_14.xyz,Nucleus 9H :,-1.171614,1.096837,-0.772679,23.77,28.45,22.05,20.8,47.49,31.63,30.05,-25.37,-3.25,-9.26,20.8,22.05,28.45,0,7.65,-0.67
rf_cut_5_p1_opt_disp_struct_14.xyz,Nucleus 10H :,-2.563436,1.200529,-0.793859,23.74,27.04,23.28,20.9,46.97,30.43,16.87,-23.69,-3.42,4.05,20.9,23.28,27.04,0,6.14,-0.22
rf_cut_5_p1_opt_disp_struct_14.xyz,Nucleus 11H :,-3.310627,0.788505,0.307991,23.88,21.04,23.71,26.88,9.04,44.09,32.64,-20.39,12.01,-5.76,21.04,23.71,26.88,0,5.84,-0.09
rf_cut_5_p1_opt_disp_struct_14.xyz,Nucleus 12H :,-2.66679,0.269469,1.429705,23.75,27.05,23.3,20.9,47.05,29.99,15.51,-23.76,-2.96,5.41,20.9,23.3,27.05,0,6.15,-0.22
rf_cut_5_p1_opt_disp_struct_14.xyz,Nucleus 13H :,-1.274824,0.164564,1.45188,23.79,28.34,22.19,20.85,47.14,31.44,28.96,-24.84,-3.18,-8.13,20.85,22.19,28.34,0,7.49,-0.64
rf_cut_5_p1_opt_disp_struct_14.xyz,Nucleus 14H :,1.443571,1.393784,0.681409,29.11,34.23,28.64,24.47,42.62,31.85,29.54,-1.52,-6.07,-9.08,24.47,28.64,34.23,0,9.76,-0.14
rf_cut_5_p1_opt_disp_struct_14.xyz,Nucleus 16H :,1.316674,-0.321948,1.049079,28.52,34.43,24.39,26.75,39.45,18.75,-6.95,-6.08,6.69,33.7,24.39,26.75,34.43,0,10.04,-0.53
rf_cut_5_p1_opt_disp_struct_14.xyz,Nucleus 17H :,-0.59123,1.417251,-1.632677,28.53,35.1,24.16,26.34,40.41,18.03,-6.66,33.75,-6.58,6.65,24.16,26.34,35.1,0,10.94,-0.6
rf_cut_5_p1_opt_disp_struct_14.xyz,Nucleus 19H :,-3.060711,1.610878,-1.666844,26.84,33.85,27.95,18.71,50.64,28.17,4.25,-16.96,-0.61,15.02,18.71,27.95,33.85,0,15.14,0.22
rf_cut_5_p1_opt_disp_struct_14.xyz,Nucleus 22H :,-4.391453,0.899964,0.304938,26.75,35.8,24.21,20.24,30.57,45.25,74.18,-53.92,-5.86,-9.97,20.24,24.21,35.8,0,15.56,-0.49
rf_cut_5_p1_opt_disp_struct_14.xyz,Nucleus 24H :,-3.245248,-0.046529,2.291846,26.58,33.69,19.87,26.18,57.23,2.37,25.34,-23.58,0.8,17.59,19.87,26.18,33.69,0,13.82,-0.09
rf_cut_5_p1_opt_disp_struct_14.xyz,Nucleus 25H :,-0.775838,-0.240301,2.327118,26.4,35.02,24.1,20.08,32.09,56.45,43.08,-36.27,-7.82,-8.33,20.08,24.1,35.02,0,14.94,-0.46
rf_cut_5_p1_opt_disp_struct_14.xyz,Nucleus 26H :,1.368763,0.23882,-0.641114,28.15,34.89,25.97,23.58,38.08,13.26,-22.32,12.65,-3.22,45.99,23.58,25.97,34.89,0,11.31,-0.58
rf_cut_5_p1_opt_disp_struct_14.xyz,Nucleus 27H :,-3.635428,-8.055244,-3.516027,26.95,34.58,20.78,25.49,51.39,37.88,27.29,-1.39,-11.11,-23.22,20.78,25.49,34.58,0,13.8,-0.32
rf_cut_5_p1_opt_disp_struct_14.xyz,Nucleus 0C :,-4.320765,-8.134145,-2.665867,161.02,188.56,137.66,156.84,255.11,241.05,240.28,-66.22,-103.29,-83.87,137.66,156.84,188.56,0,50.9,-0.25
rf_cut_5_p1_opt_disp_struct_14.xyz,Nucleus 1C :,-4.144225,-7.58287,-4.364875,34.25,175.13,-73.92,1.54,260.81,272.2,236.24,-61.16,-334.7,-270.64,-73.92,1.54,175.13,0,249.05,-0.39
rf_cut_5_p1_opt_disp_struct_14.xyz,Nucleus 2C :,-2.424218,-7.333055,-3.135344,45.33,-65.77,39.16,162.61,272.79,261.77,243.42,-328.34,-232.84,-80.81,-65.77,39.16,162.61,0,228.38,-0.08
rf_cut_5_p1_opt_disp_struct_14.xyz,Nucleus 3C :,-1.542905,-7.721578,-3.428663,45.97,-70.23,33.24,174.91,271.63,260.11,231.66,-330.65,-238.08,-56.76,-70.23,33.24,174.91,0,245.14,-0.16
rf_cut_5_p1_opt_disp_struct_14.xyz,Nucleus 4C :,-2.395902,-6.104612,-2.597283,50.13,-63.37,177.33,36.44,227.42,257.86,274.09,-50.11,-321.22,-237.64,-63.37,36.44,177.33,0,240.7,-0.17
rf_cut_5_p1_opt_disp_struct_14.xyz,Nucleus 5C :,-1.218236,-5.555163,-2.299352,45.92,-70.07,33.04,174.78,271.16,260.18,230.6,-330.5,-237.87,-55.82,-70.07,33.04,174.78,0,244.85,-0.16
rf_cut_5_p1_opt_disp_struct_14.xyz,Nucleus 6C :,-1.175525,-4.63324,-1.879737,45.77,-64.81,40.56,161.55,273.03,261.12,243.11,-327.05,-231.33,-81.57,-64.81,40.56,161.55,0,226.36,-0.07
rf_cut_5_p1_opt_disp_struct_14.xyz,Nucleus 15C :,-3.506543,-5.411888,-2.344448,155.17,188.57,130.36,146.59,272.48,210.37,195.13,-48.61,-87.19,-76.67,130.36,146.59,188.57,0,58.21,-0.44
rf_cut_5_p1_opt_disp_struct_14.xyz,Nucleus 20C :,-4.39957,-5.738802,-2.672308,20.98,115.84,-35.72,-17.18,272.48,262.4,240.77,-124.97,-306.79,-280.95,-35.72,-17.18,115.84,0,151.56,-0.76
rf_cut_5_p1_opt_disp_struct_14.xyz,Nucleus 18N :,-3.459402,-4.506018,-1.888199,167.18,99.16,181.1,221.29,348.05,330.42,277.97,-237.03,-95.75,-122.09,99.16,181.1,221.29,0,122.13,0.34
rf_cut_5_p1_opt_disp_struct_14.xyz,Nucleus 21N :,-3.351441,-9.066356,-3.80741,174.74,234.78,113.81,175.63,321.34,336.71,345.33,-101.64,-212.64,-164.88,113.81,175.63,234.78,0,120.97,0.02
rf_cut_5_p1_opt_disp_struct_14.xyz,Nucleus 23N :,-0.381182,-6.113102,-2.293761,174.4,114.77,213.36,195.07,342.65,324.14,301.15,-210.59,-128.75,-105.4,114.77,195.07,213.36,0,98.59,0.63
rf_cut_5_p1_opt_disp_struct_15.xyz,Nucleus 7H :,0.97919,0.455102,0.357986,28.54,34.43,25.18,26.01,43.35,25.72,24.58,-10.29,0.84,1.41,25.18,26.01,34.43,0,9.25,-0.82
rf_cut_5_p1_opt_disp_struct_15.xyz,Nucleus 8H :,-0.514845,0.586467,0.354219,29.2,34.3,28.81,24.49,42.08,31.37,29.05,-0.79,-5.85,-8.27,24.49,28.81,34.3,0,9.81,-0.12
rf_cut_5_p1_opt_disp_struct_15.xyz,Nucleus 9H :,-1.171614,1.096837,-0.772679,23.77,28.46,22.06,20.79,47.4,31.59,30.04,-25.28,-3.19,-9.25,20.79,22.06,28.46,0,7.67,-0.67
rf_cut_5_p1_opt_disp_struct_15.xyz,Nucleus 10H :,-2.563436,1.200529,-0.793859,23.75,27.05,23.3,20.89,46.9,30.44,16.83,-23.6,-3.4,4.09,20.89,23.3,27.05,0,6.16,-0.22
rf_cut_5_p1_opt_disp_struct_15.xyz,Nucleus 11H :,-3.310627,0.788505,0.307991,23.88,21.03,23.72,26.9,8.99,44.07,32.62,-20.35,12.05,-5.72,21.03,23.72,26.9,0,5.87,-0.08
rf_cut_5_p1_opt_disp_struct_15.xyz,Nucleus 12H :,-2.66679,0.269469,1.429705,23.76,27.07,23.31,20.89,46.99,30.0,15.46,-23.68,-2.95,5.45,20.89,23.31,27.07,0,6.18,-0.22
rf_cut_5_p1_opt_disp_struct_15.xyz,Nucleus 13H :,-1.274824,0.164564,1.45188,23.81,28.36,22.21,20.85,47.05,31.42,28.95,-24.75,-3.13,-8.13,20.85,22.21,28.36,0,7.51,-0.64
rf_cut_5_p1_opt_disp_struct_15.xyz,Nucleus 14H :,1.443571,1.393784,0.681409,29.11,34.24,28.65,24.44,42.51,31.83,29.46,-1.44,-6.04,-8.99,24.44,28.65,34.24,0,9.8,-0.14
rf_cut_5_p1_opt_disp_struct_15.xyz,Nucleus 16H :,1.316674,-0.321948,1.049079,28.52,34.42,24.4,26.73,39.49,18.66,-7.82,-6.16,6.76,34.6,24.4,26.73,34.42,0,10.02,-0.54
rf_cut_5_p1_opt_disp_struct_15.xyz,Nucleus 17H :,-0.59123,1.417251,-1.632677,28.53,35.09,24.16,26.33,40.49,17.96,-7.57,34.68,-6.7,6.71,24.16,26.33,35.09,0,10.93,-0.6
rf_cut_5_p1_opt_disp_struct_15.xyz,Nucleus 19H :,-3.060711,1.610878,-1.666844,26.83,33.84,27.93,18.71,50.79,28.04,2.97,-17.14,-0.47,16.28,18.71,27.93,33.84,0,15.13,0.22
rf_cut_5_p1_opt_disp_struct_15.xyz,Nucleus 22H :,-4.391453,0.899964,0.304938,26.72,35.66,24.22,20.28,30.73,45.05,75.81,-55.52,-5.92,-9.99,20.28,24.22,35.66,0,15.38,-0.49
rf_cut_5_p1_opt_disp_struct_15.xyz,Nucleus 24H :,-3.245248,-0.046529,2.291846,26.56,33.68,19.88,26.13,57.62,2.16,25.34,-23.99,0.75,17.8,19.88,26.13,33.68,0,13.8,-0.09
rf_cut_5_p1_opt_disp_struct_15.xyz,Nucleus 25H :,-0.775838,-0.240301,2.327118,26.37,34.9,24.11,20.11,32.21,57.97,43.08,-37.75,-8.52,-7.86,20.11,24.11,34.9,0,14.79,-0.46
rf_cut_5_p1_opt_disp_struct_15.xyz,Nucleus 26H :,1.368763,0.23882,-0.641114,28.14,34.88,25.97,23.58,38.06,12.93,-23.66,12.98,-3.22,47.33,23.58,25.97,34.88,0,11.3,-0.58
rf_cut_5_p1_opt_disp_struct_15.xyz,Nucleus 27H :,-3.650504,-8.285747,-3.611635,26.93,34.58,20.79,25.43,51.62,37.91,27.15,-1.29,-11.13,-23.46,20.79,25.43,34.58,0,13.79,-0.33
rf_cut_5_p1_opt_disp_struct_15.xyz,Nucleus 0C :,-4.335841,-8.364648,-2.761475,161.02,188.56,137.64,156.87,254.99,241.0,240.2,-66.08,-103.39,-83.64,137.64,156.87,188.56,0,50.92,-0.24
rf_cut_5_p1_opt_disp_struct_15.xyz,Nucleus 1C :,-4.159301,-7.813373,-4.460483,34.31,175.08,-73.87,1.71,260.82,271.89,236.21,-61.18,-334.66,-270.16,-73.87,1.71,175.08,0,248.95,-0.39
rf_cut_5_p1_opt_disp_struct_15.xyz,Nucleus 2C :,-2.439294,-7.563558,-3.230952,45.34,-65.76,39.23,162.54,272.58,261.7,243.38,-328.21,-232.61,-80.84,-65.76,39.23,162.54,0,228.3,-0.08
rf_cut_5_p1_opt_disp_struct_15.xyz,Nucleus 3C :,-1.557982,-7.952082,-3.524271,45.99,-70.19,33.33,174.84,271.52,260.02,231.66,-330.51,-237.89,-56.82,-70.19,33.33,174.84,0,245.03,-0.16
rf_cut_5_p1_opt_disp_struct_15.xyz,Nucleus 4C :,-2.410979,-6.335116,-2.692891,50.12,-63.36,177.26,36.47,227.34,257.83,273.9,-50.1,-321.17,-237.42,-63.36,36.47,177.26,0,240.62,-0.17
rf_cut_5_p1_opt_disp_struct_15.xyz,Nucleus 5C :,-1.233312,-5.785666,-2.39496,45.93,-70.04,33.13,174.71,271.04,260.09,230.6,-330.37,-237.67,-55.88,-70.04,33.13,174.71,0,244.75,-0.16
rf_cut_5_p1_opt_disp_struct_15.xyz,Nucleus 6C :,-1.190601,-4.863744,-1.975345,45.77,-64.8,40.64,161.48,272.83,261.05,243.08,-326.92,-231.11,-81.61,-64.8,40.64,161.48,0,226.28,-0.07
rf_cut_5_p1_opt_disp_struct_15.xyz,Nucleus 15C :,-3.52162,-5.642391,-2.440056,155.16,188.55,130.34,146.6,273.04,209.92,194.22,-87.41,-76.57,-47.7,130.34,146.6,188.55,0,58.21,-0.44
rf_cut_5_p1_opt_disp_struct_15.xyz,Nucleus 20C :,-4.414647,-5.969305,-2.767915,20.97,115.85,-35.75,-17.2,272.79,262.3,240.97,-125.16,-307.1,-280.91,-35.75,-17.2,115.85,0,151.6,-0.76
rf_cut_5_p1_opt_disp_struct_15.xyz,Nucleus 18N :,-3.474478,-4.736521,-1.983807,167.12,99.07,181.13,221.17,348.45,330.36,276.49,-237.46,-94.29,-122.17,99.07,181.13,221.17,0,122.1,0.34
rf_cut_5_p1_opt_disp_struct_15.xyz,Nucleus 21N :,-3.366518,-9.29686,-3.903018,174.73,234.8,113.77,175.61,321.25,336.77,346.36,-101.61,-212.8,-165.8,113.77,175.61,234.8,0,121.03,0.02
rf_cut_5_p1_opt_disp_struct_15.xyz,Nucleus 23N :,-0.396259,-6.343606,-2.389369,174.39,114.74,213.4,195.04,342.94,324.13,301.63,-210.62,-128.97,-105.92,114.74,195.04,213.4,0,98.66,0.63
rf_cut_5_p1_opt_disp_struct_16.xyz,Nucleus 7H :,0.97919,0.455102,0.357986,28.55,34.42,25.2,26.03,43.36,25.73,24.52,-10.31,0.86,1.48,25.2,26.03,34.42,0,9.22,-0.82
rf_cut_5_p1_opt_disp_struct_16.xyz,Nucleus 8H :,-0.514845,0.586467,0.354219,29.2,34.31,28.82,24.47,41.98,31.36,29.0,-0.73,-5.84,-8.16,24.47,28.82,34.31,0,9.84,-0.12
rf_cut_5_p1_opt_disp_struct_16.xyz,Nucleus 9H :,-1.171614,1.096837,-0.772679,23.78,28.48,22.07,20.78,47.32,31.55,30.02,-25.19,-3.13,-9.24,20.78,22.07,28.48,0,7.7,-0.67
rf_cut_5_p1_opt_disp_struct_16.xyz,Nucleus 10H :,-2.563436,1.200529,-0.793859,23.76,27.07,23.31,20.89,46.82,30.44,16.79,-23.52,-3.38,4.12,20.89,23.31,27.07,0,6.18,-0.22
rf_cut_5_p1_opt_disp_struct_16.xyz,Nucleus 11H :,-3.310627,0.788505,0.307991,23.89,21.02,23.73,26.92,8.94,44.05,32.59,-20.32,12.08,-5.68,21.02,23.73,26.92,0,5.9,-0.08
rf_cut_5_p1_opt_disp_struct_16.xyz,Nucleus 12H :,-2.66679,0.269469,1.429705,23.76,27.08,23.32,20.89,46.92,30.01,15.42,-23.6,-2.94,5.48,20.89,23.32,27.08,0,6.19,-0.21
rf_cut_5_p1_opt_disp_struct_16.xyz,Nucleus 13H :,-1.274824,0.164564,1.45188,23.81,28.38,22.22,20.84,46.96,31.39,28.93,-24.66,-3.08,-8.12,20.84,22.22,28.38,0,7.54,-0.63
rf_cut_5_p1_opt_disp_struct_16.xyz,Nucleus 14H :,1.443571,1.393784,0.681409,29.11,34.25,28.65,24.42,42.42,31.81,29.39,-1.37,-6.01,-8.9,24.42,28.65,34.25,0,9.83,-0.14
rf_cut_5_p1_opt_disp_struct_16.xyz,Nucleus 16H :,1.316674,-0.321948,1.049079,28.51,34.42,24.4,26.72,39.54,18.58,-8.69,-6.24,6.84,35.51,24.4,26.72,34.42,0,10.02,-0.54
rf_cut_5_p1_opt_disp_struct_16.xyz,Nucleus 17H :,-0.59123,1.417251,-1.632677,28.52,35.09,24.16,26.32,40.58,17.88,-8.47,35.62,-6.81,6.77,24.16,26.32,35.09,0,10.93,-0.6
rf_cut_5_p1_opt_disp_struct_16.xyz,Nucleus 19H :,-3.060711,1.610878,-1.666844,26.82,33.83,27.91,18.72,50.95,27.9,1.7,-17.31,-0.34,17.55,18.72,27.91,33.83,0,15.11,0.22
rf_cut_5_p1_opt_disp_struct_16.xyz,Nucleus 22H :,-4.391453,0.899964,0.304938,26.7,35.54,24.24,20.31,30.87,44.87,77.45,-57.12,-5.97,-10.02,20.31,24.24,35.54,0,15.23,-0.48
rf_cut_5_p1_opt_disp_struct_16.xyz,Nucleus 24H :,-3.245248,-0.046529,2.291846,26.55,33.67,19.88,26.1,58.02,1.95,25.34,-24.4,0.72,18.02,19.88,26.1,33.67,0,13.79,-0.1
rf_cut_5_p1_opt_disp_struct_16.xyz,Nucleus 25H :,-0.775838,-0.240301,2.327118,26.35,34.8,24.11,20.14,32.34,59.48,43.08,-39.24,-8.71,-7.9,20.14,24.11,34.8,0,14.66,-0.46
rf_cut_5_p1_opt_disp_struct_16.xyz,Nucleus 26H :,1.368763,0.23882,-0.641114,28.14,34.86,25.97,23.58,38.04,12.61,-25.0,13.3,-3.23,48.67,23.58,25.97,34.86,0,11.28,-0.58
rf_cut_5_p1_opt_disp_struct_16.xyz,Nucleus 27H :,-3.665581,-8.51625,-3.707243,26.92,34.58,20.8,25.37,51.84,37.94,27.02,-1.19,-11.16,-23.7,20.8,25.37,34.58,0,13.78,-0.34
rf_cut_5_p1_opt_disp_struct_16.xyz,Nucleus 0C :,-4.350918,-8.595152,-2.857082,161.03,188.56,137.63,156.89,254.87,240.98,240.08,-65.96,-103.48,-83.42,137.63,156.89,188.56,0,50.93,-0.24
rf_cut_5_p1_opt_disp_struct_16.xyz,Nucleus 1C :,-4.174378,-8.043876,-4.556091,34.36,175.05,-73.83,1.86,260.82,271.61,236.19,-61.2,-334.63,-269.73,-73.83,1.86,175.05,0,248.88,-0.39
rf_cut_5_p1_opt_disp_struct_16.xyz,Nucleus 2C :,-2.454371,-7.794062,-3.32656,45.34,-65.75,39.29,162.48,272.4,261.63,243.35,-328.08,-232.4,-80.87,-65.75,39.29,162.48,0,228.23,-0.08
rf_cut_5_p1_opt_disp_struct_16.xyz,Nucleus 3C :,-1.573058,-8.182585,-3.619878,46.01,-70.16,33.41,174.77,271.41,259.93,231.65,-330.38,-237.71,-56.87,-70.16,33.41,174.77,0,244.93,-0.15
rf_cut_5_p1_opt_disp_struct_16.xyz,Nucleus 4C :,-2.426055,-6.565619,-2.788499,50.11,-63.36,177.2,36.5,227.27,257.8,273.71,-50.1,-321.13,-237.21,-63.36,36.5,177.2,0,240.56,-0.17
rf_cut_5_p1_opt_disp_struct_16.xyz,Nucleus 5C :,-1.248389,-6.01617,-2.490568,45.95,-70.0,33.21,174.65,270.94,260.01,230.59,-330.25,-237.49,-55.94,-70.0,33.21,174.65,0,244.65,-0.16
rf_cut_5_p1_opt_disp_struct_16.xyz,Nucleus 6C :,-1.205678,-5.094247,-2.070952,45.78,-64.79,40.7,161.42,272.64,260.98,243.05,-326.8,-230.91,-81.65,-64.79,40.7,161.42,0,226.21,-0.07
rf_cut_5_p1_opt_disp_struct_16.xyz,Nucleus 15C :,-3.536696,-5.872895,-2.535664,155.16,188.54,130.33,146.6,273.6,209.47,193.32,-87.68,-76.44,-46.8,130.33,146.6,188.54,0,58.21,-0.44
rf_cut_5_p1_opt_disp_struct_16.xyz,Nucleus 20C :,-4.429724,-6.199809,-2.863523,20.95,115.86,-35.78,-17.22,273.11,262.2,241.18,-125.37,-307.4,-280.87,-35.78,-17.22,115.86,0,151.64,-0.76
rf_cut_5_p1_opt_disp_struct_16.xyz,Nucleus 18N :,-3.489555,-4.967025,-2.079415,167.07,98.99,181.15,221.07,348.85,330.3,275.03,-237.88,-92.83,-122.25,98.99,181.15,221.07,0,122.08,0.35
rf_cut_5_p1_opt_disp_struct_16.xyz,Nucleus 21N :,-3.381594,-9.527363,-3.998625,174.71,234.81,113.73,175.6,321.17,336.83,347.4,-101.59,-212.96,-166.72,113.73,175.6,234.81,0,121.08,0.02
rf_cut_5_p1_opt_disp_struct_16.xyz,Nucleus 23N :,-0.411336,-6.574109,-2.484977,174.39,114.71,213.44,195.02,343.22,324.12,302.09,-210.65,-129.19,-106.42,114.71,195.02,213.44,0,98.73,0.63
rf_cut_5_p1_opt_disp_struct_17.xyz,Nucleus 7H :,0.97919,0.455102,0.357986,28.56,34.42,25.21,26.05,43.37,25.74,24.46,-10.33,0.88,1.55,25.21,26.05,34.42,0,9.21,-0.82
rf_cut_5_p1_opt_disp_struct_17.xyz,Nucleus 8H :,-0.514845,0.586467,0.354219,29.2,34.32,28.83,24.46,41.88,31.34,28.95,-0.68,-5.83,-8.06,24.46,28.83,34.32,0,9.86,-0.11
rf_cut_5_p1_opt_disp_struct_17.xyz,Nucleus 9H :,-1.171614,1.096837,-0.772679,23.78,28.5,22.08,20.77,47.24,31.52,30.01,-25.11,-3.07,-9.23,20.77,22.08,28.5,0,7.73,-0.66
rf_cut_5_p1_opt_disp_struct_17.xyz,Nucleus 10H :,-2.563436,1.200529,-0.793859,23.76,27.09,23.32,20.88,46.75,30.43,16.75,-23.43,-3.36,4.15,20.88,23.32,27.09,0,6.21,-0.21
rf_cut_5_p1_opt_disp_struct_17.xyz,Nucleus 11H :,-3.310627,0.788505,0.307991,23.89,21.01,23.74,26.93,8.91,44.02,32.56,-20.29,12.11,-5.63,21.01,23.74,26.93,0,5.92,-0.08
rf_cut_5_p1_opt_disp_struct_17.xyz,Nucleus 12H :,-2.66679,0.269469,1.429705,23.77,27.1,23.33,20.88,46.86,30.01,15.38,-23.53,-2.93,5.51,20.88,23.33,27.1,0,6.22,-0.21
rf_cut_5_p1_opt_disp_struct_17.xyz,Nucleus 13H :,-1.274824,0.164564,1.45188,23.82,28.39,22.23,20.83,46.88,31.37,28.92,-24.58,-3.04,-8.11,20.83,22.23,28.39,0,7.56,-0.63
rf_cut_5_p1_opt_disp_struct_17.xyz,Nucleus 14H :,1.443571,1.393784,0.681409,29.11,34.26,28.66,24.4,42.32,31.79,29.32,-1.3,-5.98,-8.83,24.4,28.66,34.26,0,9.86,-0.14
rf_cut_5_p1_opt_disp_struct_17.xyz,Nucleus 16H :,1.316674,-0.321948,1.049079,28.51,34.42,24.4,26.7,39.59,18.49,-9.56,-6.33,6.91,36.41,24.4,26.7,34.42,0,10.02,-0.54
rf_cut_5_p1_opt_disp_struct_17.xyz,Nucleus 17H :,-0.59123,1.417251,-1.632677,28.52,35.08,24.16,26.31,40.66,17.81,-9.38,36.55,-6.94,6.84,24.16,26.31,35.08,0,10.92,-0.61
rf_cut_5_p1_opt_disp_struct_17.xyz,Nucleus 19H :,-3.060711,1.610878,-1.666844,26.81,33.82,27.89,18.72,51.11,27.78,0.42,-17.49,-0.21,18.82,18.72,27.89,33.82,0,15.1,0.21
rf_cut_5_p1_opt_disp_struct_17.xyz,Nucleus 22H :,-4.391453,0.899964,0.304938,26.68,35.44,24.25,20.34,79.08,31.01,44.71,-58.72,-6.01,-10.05,20.34,24.25,35.44,0,15.1,-0.48
rf_cut_5_p1_opt_disp_struct_17.xyz,Nucleus 24H :,-3.245248,-0.046529,2.291846,26.54,33.67,19.89,26.06,58.43,1.74,25.34,-24.81,0.69,18.24,19.89,26.06,33.67,0,13.78,-0.1
rf_cut_5_p1_opt_disp_struct_17.xyz,Nucleus 25H :,-0.775838,-0.240301,2.327118,26.33,34.71,24.12,20.17,32.46,60.99,43.08,-40.73,-8.88,-7.93,20.17,24.12,34.71,0,14.54,-0.46
rf_cut_5_p1_opt_disp_struct_17.xyz,Nucleus 26H :,1.368763,0.23882,-0.641114,28.13,34.84,25.97,23.58,38.03,12.28,-26.33,13.63,-3.23,50.01,23.58,25.97,34.84,0,11.26,-0.58
rf_cut_5_p1_opt_disp_struct_17.xyz,Nucleus 27H :,-3.680657,-8.746754,-3.802851,26.91,34.59,20.81,25.33,52.07,37.97,26.89,-1.1,-11.18,-23.93,20.81,25.33,34.59,0,13.78,-0.34
rf_cut_5_p1_opt_disp_struct_17.xyz,Nucleus 0C :,-4.365995,-8.825655,-2.95269,161.03,188.56,137.62,156.91,254.77,241.0,239.94,-65.84,-103.56,-83.22,137.62,156.91,188.56,0,50.94,-0.24
rf_cut_5_p1_opt_disp_struct_17.xyz,Nucleus 1C :,-4.189455,-8.27438,-4.651699,34.4,175.01,-73.8,2.0,260.83,271.35,236.18,-61.22,-334.6,-269.33,-73.8,2.0,175.01,0,248.81,-0.39
rf_cut_5_p1_opt_disp_struct_17.xyz,Nucleus 2C :,-2.469447,-8.024565,-3.422167,45.35,-65.74,39.35,162.43,272.22,261.56,243.32,-327.96,-232.21,-80.89,-65.74,39.35,162.43,0,228.17,-0.08
rf_cut_5_p1_opt_disp_struct_17.xyz,Nucleus 3C :,-1.588135,-8.413089,-3.715486,46.02,-70.14,33.48,174.72,271.31,259.85,231.64,-330.26,-237.55,-56.92,-70.14,33.48,174.72,0,244.86,-0.15
rf_cut_5_p1_opt_disp_struct_17.xyz,Nucleus 4C :,-2.441132,-6.796123,-2.884107,50.11,-63.35,177.15,36.52,227.21,257.77,273.54,-50.1,-321.09,-237.01,-63.35,36.52,177.15,0,240.5,-0.17
rf_cut_5_p1_opt_disp_struct_17.xyz,Nucleus 5C :,-1.263465,-6.246673,-2.586176,45.97,-69.98,33.29,174.59,270.83,259.94,230.58,-330.13,-237.33,-55.99,-69.98,33.29,174.59,0,244.57,-0.16
rf_cut_5_p1_opt_disp_struct_17.xyz,Nucleus 6C :,-1.220755,-5.32475,-2.16656,45.78,-64.78,40.75,161.37,272.47,260.91,243.03,-326.68,-230.73,-81.67,-64.78,40.75,161.37,0,226.15,-0.07
rf_cut_5_p1_opt_disp_struct_17.xyz,Nucleus 15C :,-3.551773,-6.103398,-2.631272,155.15,188.54,130.32,146.6,274.16,209.03,192.42,-87.98,-76.27,-45.91,130.32,146.6,188.54,0,58.22,-0.44
rf_cut_5_p1_opt_disp_struct_17.xyz,Nucleus 20C :,-4.4448,-6.430312,-2.959131,20.94,115.87,-35.8,-17.24,273.42,262.11,241.4,-125.57,-307.7,-280.83,-35.8,-17.24,115.87,0,151.67,-0.76
rf_cut_5_p1_opt_disp_struct_17.xyz,Nucleus 18N :,-3.504631,-5.197528,-2.175023,167.02,98.92,181.17,220.98,349.25,330.24,273.56,-238.29,-91.38,-122.31,98.92,181.17,220.98,0,122.06,0.35
rf_cut_5_p1_opt_disp_struct_17.xyz,Nucleus 21N :,-3.396671,-9.757866,-4.094233,174.7,234.82,113.69,175.59,321.09,336.9,348.44,-101.58,-213.13,-167.62,113.69,175.59,234.82,0,121.13,0.02
rf_cut_5_p1_opt_disp_struct_17.xyz,Nucleus 23N :,-0.426412,-6.804613,-2.580585,174.38,114.68,213.47,195.0,343.51,324.11,302.54,-210.7,-129.41,-106.9,114.68,195.0,213.47,0,98.79,0.63
rf_cut_5_p1_opt_disp_struct_18.xyz,Nucleus 7H :,0.97919,0.455102,0.357986,28.57,34.42,25.23,26.06,43.37,25.75,24.41,-10.35,0.9,1.62,25.23,26.06,34.42,0,9.19,-0.82
rf_cut_5_p1_opt_disp_struct_18.xyz,Nucleus 8H :,-0.514845,0.586467,0.354219,29.2,34.33,28.84,24.44,41.78,31.33,28.9,-0.63,-5.82,-7.96,24.44,28.84,34.33,0,9.89,-0.11
rf_cut_5_p1_opt_disp_struct_18.xyz,Nucleus 9H :,-1.171614,1.096837,-0.772679,23.79,28.51,22.09,20.76,47.16,31.48,29.99,-25.03,-3.02,-9.22,20.76,22.09,28.51,0,7.75,-0.66
rf_cut_5_p1_opt_disp_struct_18.xyz,Nucleus 10H :,-2.563436,1.200529,-0.793859,23.77,27.1,23.32,20.88,46.68,30.42,16.71,-23.36,-3.34,4.18,20.88,23.32,27.1,0,6.22,-0.22
rf_cut_5_p1_opt_disp_struct_18.xyz,Nucleus 11H :,-3.310627,0.788505,0.307991,23.9,21.0,23.75,26.95,8.87,44.01,32.52,-20.26,12.14,-5.57,21.0,23.75,26.95,0,5.95,-0.08
rf_cut_5_p1_opt_disp_struct_18.xyz,Nucleus 12H :,-2.66679,0.269469,1.429705,23.78,27.11,23.34,20.88,46.79,30.01,15.35,-23.46,-2.92,5.54,20.88,23.34,27.11,0,6.23,-0.21
rf_cut_5_p1_opt_disp_struct_18.xyz,Nucleus 13H :,-1.274824,0.164564,1.45188,23.82,28.4,22.24,20.82,46.8,31.35,28.91,-24.49,-3.0,-8.1,20.82,22.24,28.4,0,7.58,-0.63
rf_cut_5_p1_opt_disp_struct_18.xyz,Nucleus 14H :,1.443571,1.393784,0.681409,29.11,34.27,28.67,24.38,42.23,31.78,29.25,-1.23,-5.95,-8.75,24.38,28.67,34.27,0,9.89,-0.13
rf_cut_5_p1_opt_disp_struct_18.xyz,Nucleus 16H :,1.316674,-0.321948,1.049079,28.5,34.41,24.4,26.69,39.64,18.4,-10.43,-6.42,6.99,37.31,24.4,26.69,34.41,0,10.01,-0.54
rf_cut_5_p1_opt_disp_struct_18.xyz,Nucleus 17H :,-0.59123,1.417251,-1.632677,28.51,35.08,24.16,26.3,40.75,17.74,-10.29,37.49,-7.06,6.91,24.16,26.3,35.08,0,10.92,-0.61
rf_cut_5_p1_opt_disp_struct_18.xyz,Nucleus 19H :,-3.060711,1.610878,-1.666844,26.8,33.81,27.88,18.72,51.27,27.65,-0.85,-17.66,-0.08,20.08,18.72,27.88,33.81,0,15.09,0.21
rf_cut_5_p1_opt_disp_struct_18.xyz,Nucleus 22H :,-4.391453,0.899964,0.304938,26.66,35.35,24.26,20.37,80.71,31.15,44.58,-60.33,-6.06,-10.08,20.37,24.26,35.35,0,14.98,-0.48
rf_cut_5_p1_opt_disp_struct_18.xyz,Nucleus 24H :,-3.245248,-0.046529,2.291846,26.53,33.66,19.89,26.03,58.83,1.52,25.33,-25.22,0.66,18.46,19.89,26.03,33.66,0,13.77,-0.11
rf_cut_5_p1_opt_disp_struct_18.xyz,Nucleus 25H :,-0.775838,-0.240301,2.327118,26.31,34.63,24.12,20.19,62.5,32.58,43.09,-42.22,-9.05,-7.96,20.19,24.12,34.63,0,14.44,-0.45
rf_cut_5_p1_opt_disp_struct_18.xyz,Nucleus 26H :,1.368763,0.23882,-0.641114,28.13,34.83,25.97,23.58,38.02,11.95,-27.67,13.96,-3.23,51.34,23.58,25.97,34.83,0,11.25,-0.58
rf_cut_5_p1_opt_disp_struct_18.xyz,Nucleus 27H :,-3.695734,-8.977257,-3.898459,26.89,34.59,20.81,25.28,52.3,37.99,26.78,-1.02,-11.21,-24.17,20.81,25.28,34.59,0,13.78,-0.35
rf_cut_5_p1_opt_disp_struct_18.xyz,Nucleus 0C :,-4.381071,-9.056158,-3.048298,161.03,188.56,137.61,156.93,254.68,241.02,239.8,-65.73,-103.64,-83.02,137.61,156.93,188.56,0,50.95,-0.24
rf_cut_5_p1_opt_disp_struct_18.xyz,Nucleus 1C :,-4.204531,-8.504883,-4.747307,34.45,174.98,-73.76,2.13,260.84,271.11,236.16,-61.23,-334.57,-268.96,-73.76,2.13,174.98,0,248.74,-0.39
rf_cut_5_p1_opt_disp_struct_18.xyz,Nucleus 2C :,-2.484524,-8.255069,-3.517775,45.35,-65.73,39.4,162.38,272.06,261.49,243.29,-327.84,-232.04,-80.91,-65.73,39.4,162.38,0,228.11,-0.08
rf_cut_5_p1_opt_disp_struct_18.xyz,Nucleus 3C :,-1.603211,-8.643592,-3.811094,46.03,-70.11,33.54,174.66,271.21,259.77,231.63,-330.14,-237.4,-56.96,-70.11,33.54,174.66,0,244.77,-0.15
rf_cut_5_p1_opt_disp_struct_18.xyz,Nucleus 4C :,-2.456208,-7.026626,-2.979715,50.1,-63.34,177.09,36.55,227.15,257.75,273.37,-50.1,-321.05,-236.82,-63.34,36.55,177.09,0,240.43,-0.17
rf_cut_5_p1_opt_disp_struct_18.xyz,Nucleus 5C :,-1.278542,-6.477177,-2.681784,45.98,-69.95,33.35,174.54,270.74,259.86,230.57,-330.02,-237.18,-56.03,-69.95,33.35,174.54,0,244.49,-0.15
rf_cut_5_p1_opt_disp_struct_18.xyz,Nucleus 6C :,-1.235831,-5.555254,-2.262168,45.78,-64.78,40.8,161.32,272.31,260.84,243.0,-326.56,-230.57,-81.69,-64.78,40.8,161.32,0,226.1,-0.07
rf_cut_5_p1_opt_disp_struct_18.xyz,Nucleus 15C :,-3.566849,-6.333901,-2.726879,155.15,188.53,130.31,146.6,274.72,208.58,191.52,-88.32,-76.06,-45.01,130.31,146.6,188.53,0,58.22,-0.44
rf_cut_5_p1_opt_disp_struct_18.xyz,Nucleus 20C :,-4.459877,-6.660816,-3.054739,20.93,115.88,-35.82,-17.26,273.73,262.03,241.62,-125.79,-307.99,-280.8,-35.82,-17.26,115.88,0,151.7,-0.76
rf_cut_5_p1_opt_disp_struct_18.xyz,Nucleus 18N :,-3.519708,-5.428031,-2.270631,166.98,98.85,181.18,220.91,349.66,330.17,272.1,-238.7,-89.93,-122.37,98.85,181.18,220.91,0,122.06,0.35
rf_cut_5_p1_opt_disp_struct_18.xyz,Nucleus 21N :,-3.411748,-9.98837,-4.189841,174.69,234.83,113.66,175.58,321.02,336.97,349.48,-101.57,-213.31,-168.52,113.66,175.58,234.83,0,121.17,0.02
rf_cut_5_p1_opt_disp_struct_18.xyz,Nucleus 23N :,-0.441489,-7.035116,-2.676193,174.38,114.66,213.5,194.97,343.79,324.11,302.99,-210.75,-129.64,-107.38,114.66,194.97,213.5,0,98.84,0.62
rf_cut_5_p1_opt_disp_struct_19.xyz,Nucleus 7H :,0.97919,0.455102,0.357986,28.58,34.41,25.24,26.08,43.38,25.76,24.35,-10.37,0.92,1.69,25.24,26.08,34.41,0,9.17,-0.82
rf_cut_5_p1_opt_disp_struct_19.xyz,Nucleus 8H :,-0.514845,0.586467,0.354219,29.2,34.34,28.84,24.42,41.69,31.32,28.86,-0.58,-5.8,-7.88,24.42,28.84,34.34,0,9.92,-0.11
rf_cut_5_p1_opt_disp_struct_19.xyz,Nucleus 9H :,-1.171614,1.096837,-0.772679,23.79,28.52,22.1,20.76,47.08,31.45,29.98,-24.95,-2.97,-9.21,20.76,22.1,28.52,0,7.76,-0.65
rf_cut_5_p1_opt_disp_struct_19.xyz,Nucleus 10H :,-2.563436,1.200529,-0.793859,23.77,27.11,23.33,20.87,46.61,30.41,16.68,-23.28,-3.32,4.2,20.87,23.33,27.11,0,6.24,-0.21
rf_cut_5_p1_opt_disp_struct_19.xyz,Nucleus 11H :,-3.310627,0.788505,0.307991,23.9,23.76,20.99,26.96,8.85,43.99,32.48,-20.24,12.16,-5.52,20.99,23.76,26.96,0,5.97,-0.07
rf_cut_5_p1_opt_disp_struct_19.xyz,Nucleus 12H :,-2.66679,0.269469,1.429705,23.78,27.13,23.34,20.87,46.73,30.01,15.32,-23.39,-2.9,5.56,20.87,23.34,27.13,0,6.26,-0.21
rf_cut_5_p1_opt_disp_struct_19.xyz,Nucleus 13H :,-1.274824,0.164564,1.45188,23.83,28.42,22.25,20.81,46.72,31.33,28.89,-24.41,-2.96,-8.09,20.81,22.25,28.42,0,7.61,-0.62
rf_cut_5_p1_opt_disp_struct_19.xyz,Nucleus 14H :,1.443571,1.393784,0.681409,29.1,34.28,28.67,24.36,42.15,31.76,29.18,-1.17,-5.91,-8.69,24.36,28.67,34.28,0,9.92,-0.13
rf_cut_5_p1_opt_disp_struct_19.xyz,Nucleus 16H :,1.316674,-0.321948,1.049079,28.5,34.41,24.4,26.68,39.7,18.32,-11.3,-6.51,7.07,38.22,24.4,26.68,34.41,0,10.01,-0.55
rf_cut_5_p1_opt_disp_struct_19.xyz,Nucleus 17H :,-0.59123,1.417251,-1.632677,28.51,35.07,24.16,26.29,40.85,17.66,-11.2,38.42,-7.18,6.98,24.16,26.29,35.07,0,10.91,-0.61
rf_cut_5_p1_opt_disp_struct_19.xyz,Nucleus 19H :,-3.060711,1.610878,-1.666844,26.8,33.8,27.87,18.72,51.43,27.53,-2.12,-17.84,0.04,21.35,18.72,27.87,33.8,0,15.08,0.21
rf_cut_5_p1_opt_disp_struct_19.xyz,Nucleus 22H :,-4.391453,0.899964,0.304938,26.64,35.26,24.27,20.39,82.34,31.29,44.45,-61.94,-6.1,-10.12,20.39,24.27,35.26,0,14.87,-0.48
rf_cut_5_p1_opt_disp_struct_19.xyz,Nucleus 24H :,-3.245248,-0.046529,2.291846,26.52,33.66,19.9,26.0,59.24,1.3,25.32,-25.63,0.64,18.68,19.9,26.0,33.66,0,13.76,-0.11
rf_cut_5_p1_opt_disp_struct_19.xyz,Nucleus 25H :,-0.775838,-0.240301,2.327118,26.3,34.56,24.12,20.21,64.01,32.7,43.1,-43.71,-9.22,-7.99,20.21,24.12,34.56,0,14.35,-0.46
rf_cut_5_p1_opt_disp_struct_19.xyz,Nucleus 26H :,1.368763,0.23882,-0.641114,28.12,34.81,25.97,23.58,38.01,11.63,-29.0,14.29,-3.23,52.68,23.58,25.97,34.81,0,11.23,-0.57
rf_cut_5_p1_opt_disp_struct_19.xyz,Nucleus 27H :,-3.710811,-9.207761,-3.994066,26.89,34.59,20.82,25.25,52.53,38.02,26.67,-0.93,-11.23,-24.4,20.82,25.25,34.59,0,13.77,-0.36
rf_cut_5_p1_opt_disp_struct_19.xyz,Nucleus 0C :,-4.396148,-9.286662,-3.143906,161.04,188.56,137.61,156.95,254.6,241.05,239.65,-65.64,-103.71,-82.84,137.61,156.95,188.56,0,50.95,-0.24
rf_cut_5_p1_opt_disp_struct_19.xyz,Nucleus 1C :,-4.219608,-8.735387,-4.842915,34.49,174.96,-73.74,2.24,260.85,270.89,236.15,-61.25,-334.55,-268.63,-73.74,2.24,174.96,0,248.7,-0.39
rf_cut_5_p1_opt_disp_struct_19.xyz,Nucleus 2C :,-2.499601,-8.485572,-3.613383,45.35,-65.72,39.44,162.34,271.92,261.42,243.26,-327.73,-231.88,-80.93,-65.72,39.44,162.34,0,228.06,-0.08
rf_cut_5_p1_opt_disp_struct_19.xyz,Nucleus 3C :,-1.618288,-8.874095,-3.906702,46.04,-70.09,33.59,174.62,271.12,259.69,231.62,-330.03,-237.27,-57.0,-70.09,33.59,174.62,0,244.71,-0.15
rf_cut_5_p1_opt_disp_struct_19.xyz,Nucleus 4C :,-2.471285,-7.257129,-3.075323,50.09,-63.34,177.05,36.57,227.1,257.73,273.22,-50.09,-321.02,-236.64,-63.34,36.57,177.05,0,240.39,-0.17
rf_cut_5_p1_opt_disp_struct_19.xyz,Nucleus 5C :,-1.293619,-6.70768,-2.777392,45.99,-69.93,33.4,174.49,270.65,259.79,230.56,-329.91,-237.05,-56.07,-69.93,33.4,174.49,0,244.42,-0.15
rf_cut_5_p1_opt_disp_struct_19.xyz,Nucleus 6C :,-1.250908,-5.785757,-2.357776,45.78,-64.77,40.84,161.27,272.17,260.77,242.98,-326.45,-230.42,-81.71,-64.77,40.84,161.27,0,226.04,-0.07
rf_cut_5_p1_opt_disp_struct_19.xyz,Nucleus 15C :,-3.581926,-6.564405,-2.822487,155.14,188.52,130.3,146.6,275.28,208.13,190.62,-88.68,-75.82,-44.12,130.3,146.6,188.52,0,58.22,-0.44
rf_cut_5_p1_opt_disp_struct_19.xyz,Nucleus 20C :,-4.474953,-6.891319,-3.150347,20.93,115.89,-35.83,-17.28,274.05,261.96,241.84,-126.0,-308.29,-280.77,-35.83,-17.28,115.89,0,151.72,-0.76
rf_cut_5_p1_opt_disp_struct_19.xyz,Nucleus 18N :,-3.534784,-5.658535,-2.366239,166.95,98.8,181.2,220.84,350.08,330.11,270.64,-239.1,-88.48,-122.42,98.8,181.2,220.84,0,122.04,0.35
rf_cut_5_p1_opt_disp_struct_19.xyz,Nucleus 21N :,-3.426824,-10.218873,-4.285449,174.68,234.84,113.64,175.57,320.95,337.05,350.53,-101.57,-213.5,-169.41,113.64,175.57,234.84,0,121.2,0.02
rf_cut_5_p1_opt_disp_struct_19.xyz,Nucleus 23N :,-0.456565,-7.26562,-2.771801,174.37,114.64,213.52,194.96,344.07,324.12,303.43,-210.8,-129.86,-107.85,114.64,194.96,213.52,0,98.88,0.62
rf_cut_5_p1_opt_disp_struct_2.xyz,Nucleus 7H :,0.97919,0.455102,0.357986,28.31,34.75,24.69,25.5,43.49,25.08,25.3,-9.85,0.72,0.19,24.69,25.5,34.75,0,10.06,-0.84
rf_cut_5_p1_opt_disp_struct_2.xyz,Nucleus 8H :,-0.514845,0.586467,0.354219,29.14,34.1,28.44,24.88,44.01,31.99,29.43,-1.6,-5.77,-10.64,24.88,28.44,34.1,0,9.22,-0.23
rf_cut_5_p1_opt_disp_struct_2.xyz,Nucleus 9H :,-1.171614,1.096837,-0.772679,23.5,27.75,22.18,20.57,48.49,32.14,30.09,-26.34,-4.58,-9.3,20.57,22.18,27.75,0,7.18,-0.55
rf_cut_5_p1_opt_disp_struct_2.xyz,Nucleus 10H :,-2.563436,1.200529,-0.793859,23.48,26.36,23.35,20.72,47.7,29.63,17.78,-24.56,-3.31,3.2,20.72,23.35,26.36,0,5.64,-0.07
rf_cut_5_p1_opt_disp_struct_2.xyz,Nucleus 11H :,-3.310627,0.788505,0.307991,23.68,21.17,23.82,26.05,44.34,11.31,31.37,-20.71,10.05,-5.32,21.17,23.82,26.05,0,4.88,0.09
rf_cut_5_p1_opt_disp_struct_2.xyz,Nucleus 12H :,-2.66679,0.269469,1.429705,23.47,26.38,23.38,20.66,47.51,29.06,16.24,-24.34,-2.7,4.65,20.66,23.38,26.38,0,5.72,-0.05
rf_cut_5_p1_opt_disp_struct_2.xyz,Nucleus 13H :,-1.274824,0.164564,1.45188,23.53,27.66,22.32,20.61,48.2,31.55,28.92,-25.86,-4.11,-8.11,20.61,22.32,27.66,0,7.05,-0.51
rf_cut_5_p1_opt_disp_struct_2.xyz,Nucleus 14H :,1.443571,1.393784,0.681409,29.08,33.95,28.34,24.96,44.26,32.65,30.31,-11.1,-2.64,-6.24,24.96,28.34,33.95,0,8.99,-0.25
rf_cut_5_p1_opt_disp_struct_2.xyz,Nucleus 16H :,1.316674,-0.321948,1.049079,28.7,34.59,24.4,27.11,39.44,3.8,19.99,22.34,-5.42,5.97,24.4,27.11,34.59,0,10.19,-0.47
rf_cut_5_p1_opt_disp_struct_2.xyz,Nucleus 17H :,-0.59123,1.417251,-1.632677,28.71,35.29,24.22,26.61,39.91,19.08,4.69,21.88,-5.39,5.95,24.22,26.61,35.29,0,11.07,-0.57
rf_cut_5_p1_opt_disp_struct_2.xyz,Nucleus 19H :,-3.060711,1.610878,-1.666844,27.17,34.33,28.54,18.64,48.96,30.42,20.2,-14.68,0.37,-3.76,18.64,28.54,34.33,0,15.69,0.26
rf_cut_5_p1_opt_disp_struct_2.xyz,Nucleus 22H :,-4.391453,0.899964,0.304938,27.88,41.75,23.27,18.61,27.16,51.13,53.1,-3.39,-10.17,-34.2,18.61,23.27,41.75,0,23.14,-0.6
rf_cut_5_p1_opt_disp_struct_2.xyz,Nucleus 24H :,-3.245248,-0.046529,2.291846,27.06,34.01,19.86,27.31,52.97,25.32,5.19,-19.09,2.05,14.76,19.86,27.31,34.01,0,14.15,0.05
rf_cut_5_p1_opt_disp_struct_2.xyz,Nucleus 25H :,-0.775838,-0.240301,2.327118,27.33,40.69,22.96,18.34,28.58,45.48,36.0,-17.64,-6.43,-3.99,18.34,22.96,40.69,0,22.35,-0.59
rf_cut_5_p1_opt_disp_struct_2.xyz,Nucleus 26H :,1.368763,0.23882,-0.641114,28.32,35.36,26.01,23.59,38.43,17.52,-5.47,-3.11,8.43,29.16,23.59,26.01,35.36,0,11.77,-0.59
rf_cut_5_p1_opt_disp_struct_2.xyz,Nucleus 27H :,-3.454509,-5.289202,-2.368733,27.44,34.48,20.61,27.23,48.84,37.43,30.34,-3.12,-10.89,-20.29,20.61,27.23,34.48,0,13.87,-0.05
rf_cut_5_p1_opt_disp_struct_2.xyz,Nucleus 0C :,-4.139846,-5.368103,-1.518572,161.39,188.96,138.82,156.38,259.01,245.35,239.96,-69.9,-101.31,-88.95,138.82,156.38,188.96,0,50.14,-0.3
rf_cut_5_p1_opt_disp_struct_2.xyz,Nucleus 1C :,-3.963306,-4.816828,-3.217581,33.45,176.68,-72.58,-3.75,260.5,277.95,236.87,-60.26,-333.02,-281.69,-72.58,-3.75,176.68,0,249.26,-0.45
rf_cut_5_p1_opt_disp_struct_2.xyz,Nucleus 2C :,-2.243299,-4.567014,-1.988049,44.09,-66.65,34.06,164.87,276.64,262.01,244.17,-330.41,-240.7,-79.42,-66.65,34.06,164.87,0,231.52,-0.13
rf_cut_5_p1_opt_disp_struct_2.xyz,Nucleus 3C :,-1.361986,-4.955537,-2.281368,44.46,-71.57,27.78,177.18,273.42,260.78,231.86,-332.62,-245.21,-54.84,-71.57,27.78,177.18,0,248.75,-0.2
rf_cut_5_p1_opt_disp_struct_2.xyz,Nucleus 4C :,-2.214983,-3.338571,-1.449989,51.47,-61.11,179.6,35.92,227.17,259.68,276.57,-48.62,-319.74,-240.65,-61.11,35.92,179.6,0,240.71,-0.19
rf_cut_5_p1_opt_disp_struct_2.xyz,Nucleus 5C :,-1.037317,-2.789122,-1.152058,44.44,-71.27,27.56,177.04,272.97,260.4,230.6,-331.95,-244.99,-53.7,-71.27,27.56,177.04,0,248.31,-0.2
rf_cut_5_p1_opt_disp_struct_2.xyz,Nucleus 6C :,-0.994606,-1.867199,-0.732442,44.53,-65.68,35.5,163.77,276.53,261.34,243.63,-329.12,-238.71,-80.08,-65.68,35.5,163.77,0,229.45,-0.12
rf_cut_5_p1_opt_disp_struct_2.xyz,Nucleus 15C :,-3.325624,-2.645846,-1.197154,155.39,188.8,130.84,146.53,265.69,216.35,207.31,-88.2,-74.39,-60.58,130.84,146.53,188.8,0,57.96,-0.46
rf_cut_5_p1_opt_disp_struct_2.xyz,Nucleus 20C :,-4.218652,-2.972761,-1.525013,21.64,116.59,-33.77,-17.9,237.72,268.12,264.91,-121.14,-301.24,-283.44,-33.77,-17.9,116.59,0,150.36,-0.79
rf_cut_5_p1_opt_disp_struct_2.xyz,Nucleus 18N :,-3.278483,-1.739976,-0.740905,170.12,104.1,180.12,226.13,344.32,331.37,297.77,-229.1,-121.01,-112.98,104.1,180.12,226.13,0,122.03,0.25
rf_cut_5_p1_opt_disp_struct_2.xyz,Nucleus 21N :,-3.170523,-6.300315,-2.660115,173.21,114.37,229.33,175.93,321.5,337.77,331.34,-211.12,-108.2,-151.65,114.37,175.93,229.33,0,114.96,0.07
rf_cut_5_p1_opt_disp_struct_2.xyz,Nucleus 23N :,-0.200264,-3.347061,-1.146467,172.04,114.5,206.77,194.84,293.46,339.1,324.81,-212.27,-131.31,-97.67,114.5,194.84,206.77,0,92.27,0.74
rf_cut_5_p1_opt_disp_struct_3.xyz,Nucleus 7H :,0.97919,0.455102,0.357986,28.34,34.69,24.75,25.58,43.4,25.16,25.33,-9.82,0.71,0.24,24.75,25.58,34.69,0,9.94,-0.83
rf_cut_5_p1_opt_disp_struct_3.xyz,Nucleus 8H :,-0.514845,0.586467,0.354219,29.14,34.08,28.5,24.85,43.83,31.89,29.41,-1.52,-5.78,-10.4,24.85,28.5,34.08,0,9.23,-0.21
rf_cut_5_p1_opt_disp_struct_3.xyz,Nucleus 9H :,-1.171614,1.096837,-0.772679,23.53,27.86,22.09,20.64,48.42,32.09,30.1,-26.31,-4.42,-9.29,20.64,22.09,27.86,0,7.22,-0.6
rf_cut_5_p1_opt_disp_struct_3.xyz,Nucleus 10H :,-2.563436,1.200529,-0.793859,23.52,26.47,23.29,20.79,47.64,29.75,17.77,-24.52,-3.32,3.23,20.79,23.29,26.47,0,5.68,-0.12
rf_cut_5_p1_opt_disp_struct_3.xyz,Nucleus 11H :,-3.310627,0.788505,0.307991,23.71,21.19,23.74,26.2,44.37,11.02,31.63,-20.77,10.3,-5.42,21.19,23.74,26.2,0,5.01,0.02
rf_cut_5_p1_opt_disp_struct_3.xyz,Nucleus 12H :,-2.66679,0.269469,1.429705,23.51,26.49,23.31,20.74,47.5,29.16,16.27,-24.35,-2.7,4.66,20.74,23.31,26.49,0,5.75,-0.1
rf_cut_5_p1_opt_disp_struct_3.xyz,Nucleus 13H :,-1.274824,0.164564,1.45188,23.57,27.77,22.24,20.69,48.12,31.52,28.96,-25.82,-3.97,-8.11,20.69,22.24,27.77,0,7.08,-0.56
rf_cut_5_p1_opt_disp_struct_3.xyz,Nucleus 14H :,1.443571,1.393784,0.681409,29.09,33.96,28.39,24.91,44.11,32.53,30.24,-2.51,-6.23,-10.87,24.91,28.39,33.96,0,9.05,-0.23
rf_cut_5_p1_opt_disp_struct_3.xyz,Nucleus 16H :,1.316674,-0.321948,1.049079,28.67,34.56,24.39,27.06,39.39,2.86,19.85,23.33,-5.44,6.02,24.39,27.06,34.56,0,10.17,-0.47
rf_cut_5_p1_opt_disp_struct_3.xyz,Nucleus 17H :,-0.59123,1.417251,-1.632677,28.68,35.26,24.2,26.58,39.92,18.96,3.7,22.93,-5.48,6.01,24.2,26.58,35.26,0,11.06,-0.57
rf_cut_5_p1_opt_disp_struct_3.xyz,Nucleus 19H :,-3.060711,1.610878,-1.666844,27.12,34.24,28.45,18.66,49.05,30.17,18.83,-14.87,-3.16,1.33,18.66,28.45,34.24,0,15.58,0.26
rf_cut_5_p1_opt_disp_struct_3.xyz,Nucleus 22H :,-4.391453,0.899964,0.304938,27.75,40.58,23.62,19.05,27.91,50.39,55.02,-4.07,-10.14,-35.87,19.05,23.62,40.58,0,21.53,-0.58
rf_cut_5_p1_opt_disp_struct_3.xyz,Nucleus 24H :,-3.245248,-0.046529,2.291846,26.99,33.99,19.84,27.15,53.25,25.28,4.88,-19.35,1.89,15.05,19.84,27.15,33.99,0,14.15,0.03
rf_cut_5_p1_opt_disp_struct_3.xyz,Nucleus 25H :,-0.775838,-0.240301,2.327118,27.26,39.5,23.43,18.85,29.47,44.86,38.02,-19.18,-6.75,-4.63,18.85,23.43,39.5,0,20.65,-0.56
rf_cut_5_p1_opt_disp_struct_3.xyz,Nucleus 26H :,1.368763,0.23882,-0.641114,28.29,35.29,26.0,23.59,38.38,17.12,-6.93,-3.12,8.81,30.62,23.59,26.0,35.29,0,11.7,-0.59
rf_cut_5_p1_opt_disp_struct_3.xyz,Nucleus 27H :,-3.469586,-5.519706,-2.464341,27.38,34.54,20.64,26.95,49.04,37.5,29.91,-2.91,-10.85,-20.56,20.64,26.95,34.54,0,13.9,-0.09
rf_cut_5_p1_opt_disp_struct_3.xyz,Nucleus 0C :,-4.154923,-5.598607,-1.61418,161.28,188.85,138.59,156.4,258.41,244.61,239.75,-69.38,-101.37,-88.19,138.59,156.4,188.85,0,50.26,-0.29
rf_cut_5_p1_opt_disp_struct_3.xyz,Nucleus 1C :,-3.978383,-5.047332,-3.313189,33.46,176.4,-73.15,-2.86,261.0,277.74,236.88,-60.53,-334.11,-280.59,-73.15,-2.86,176.4,0,249.55,-0.44
rf_cut_5_p1_opt_disp_struct_3.xyz,Nucleus 2C :,-2.258376,-4.797517,-2.083657,44.55,-66.34,35.48,164.51,276.34,261.77,243.75,-329.81,-239.09,-79.31,-66.34,35.48,164.51,0,230.85,-0.12
rf_cut_5_p1_opt_disp_struct_3.xyz,Nucleus 3C :,-1.377063,-5.18604,-2.376976,44.92,-71.29,29.21,176.83,273.1,260.59,231.59,-332.16,-243.5,-54.87,-71.29,29.21,176.83,0,248.12,-0.19
rf_cut_5_p1_opt_disp_struct_3.xyz,Nucleus 4C :,-2.23006,-3.569075,-1.545597,51.23,-61.75,179.2,36.24,227.53,259.85,276.34,-49.32,-320.6,-240.1,-61.75,36.24,179.2,0,240.95,-0.19
rf_cut_5_p1_opt_disp_struct_3.xyz,Nucleus 5C :,-1.052394,-3.019625,-1.247666,44.86,-71.05,28.95,176.69,272.63,260.31,230.36,-331.64,-243.3,-53.76,-71.05,28.95,176.69,0,247.74,-0.19
rf_cut_5_p1_opt_disp_struct_3.xyz,Nucleus 6C :,-1.009683,-2.097702,-0.82805,45.0,-65.33,36.92,163.42,276.29,261.04,243.24,-328.47,-237.11,-79.97,-65.33,36.92,163.42,0,228.75,-0.11
rf_cut_5_p1_opt_disp_struct_3.xyz,Nucleus 15C :,-3.340701,-2.87635,-1.292761,155.35,188.77,130.73,146.55,266.28,215.81,206.25,-87.97,-74.75,-59.56,130.73,146.55,188.77,0,58.04,-0.45
rf_cut_5_p1_opt_disp_struct_3.xyz,Nucleus 20C :,-4.233728,-3.203264,-1.620621,21.47,116.16,-34.26,-17.49,268.53,264.57,238.02,-121.87,-302.04,-282.79,-34.26,-17.49,116.16,0,150.42,-0.78
rf_cut_5_p1_opt_disp_struct_3.xyz,Nucleus 18N :,-3.293559,-1.97048,-0.836513,169.47,102.92,180.3,225.18,344.49,331.23,295.94,-230.4,-112.25,-120.6,102.92,180.3,225.18,0,122.26,0.27
rf_cut_5_p1_opt_disp_struct_3.xyz,Nucleus 21N :,-3.185599,-6.530818,-2.755723,174.18,231.86,114.55,176.12,321.82,337.67,332.65,-211.02,-105.49,-153.1,114.55,176.12,231.86,0,117.31,0.05
rf_cut_5_p1_opt_disp_struct_3.xyz,Nucleus 23N :,-0.21534,-3.577565,-1.242075,173.23,114.89,209.37,195.42,294.28,339.39,324.68,-211.47,-129.22,-97.99,114.89,195.42,209.37,0,94.48,0.7
rf_cut_5_p1_opt_disp_struct_4.xyz,Nucleus 7H :,0.97919,0.455102,0.357986,28.36,34.63,24.81,25.64,43.35,25.37,25.2,-9.85,0.71,0.3,24.81,25.64,34.63,0,9.82,-0.83
rf_cut_5_p1_opt_disp_struct_4.xyz,Nucleus 8H :,-0.514845,0.586467,0.354219,29.15,34.09,28.56,24.81,43.66,31.8,29.42,-1.45,-5.79,-10.16,24.81,28.56,34.09,0,9.28,-0.19
rf_cut_5_p1_opt_disp_struct_4.xyz,Nucleus 9H :,-1.171614,1.096837,-0.772679,23.57,27.96,22.03,20.71,48.36,32.05,30.12,-26.28,-4.25,-9.3,20.71,22.03,27.96,0,7.25,-0.64
rf_cut_5_p1_opt_disp_struct_4.xyz,Nucleus 10H :,-2.563436,1.200529,-0.793859,23.55,26.57,23.24,20.83,47.6,29.85,17.7,-24.5,-3.33,3.31,20.83,23.24,26.57,0,5.74,-0.16
rf_cut_5_p1_opt_disp_struct_4.xyz,Nucleus 11H :,-3.310627,0.788505,0.307991,23.73,21.19,23.67,26.34,10.63,44.37,31.81,-20.78,10.65,-5.47,21.19,23.67,26.34,0,5.15,-0.03
rf_cut_5_p1_opt_disp_struct_4.xyz,Nucleus 12H :,-2.66679,0.269469,1.429705,23.55,26.59,23.26,20.79,47.5,29.27,16.23,-24.37,-2.71,4.71,20.79,23.26,26.59,0,5.8,-0.15
rf_cut_5_p1_opt_disp_struct_4.xyz,Nucleus 13H :,-1.274824,0.164564,1.45188,23.6,27.87,22.17,20.75,48.05,31.52,28.99,-25.78,-3.85,-8.14,20.75,22.17,27.87,0,7.12,-0.6
rf_cut_5_p1_opt_disp_struct_4.xyz,Nucleus 14H :,1.443571,1.393784,0.681409,29.09,33.98,28.44,24.86,43.96,32.41,30.2,-2.41,-6.23,-10.64,24.86,28.44,33.98,0,9.12,-0.21
rf_cut_5_p1_opt_disp_struct_4.xyz,Nucleus 16H :,1.316674,-0.321948,1.049079,28.65,34.54,24.39,27.01,39.36,1.94,19.72,24.32,-5.48,6.08,24.39,27.01,34.54,0,10.15,-0.48
rf_cut_5_p1_opt_disp_struct_4.xyz,Nucleus 17H :,-0.59123,1.417251,-1.632677,28.66,35.23,24.2,26.54,39.93,18.85,2.73,23.96,-5.56,6.06,24.2,26.54,35.23,0,11.03,-0.58
rf_cut_5_p1_opt_disp_struct_4.xyz,Nucleus 19H :,-3.060711,1.610878,-1.666844,27.07,34.16,28.37,18.68,49.16,29.94,17.47,-15.07,-2.72,2.43,18.68,28.37,34.16,0,15.48,0.25
rf_cut_5_p1_opt_disp_struct_4.xyz,Nucleus 22H :,-4.391453,0.899964,0.304938,27.58,39.63,23.8,19.31,28.38,49.63,56.95,-4.5,-10.13,-37.58,19.31,23.8,39.63,0,20.32,-0.56
rf_cut_5_p1_opt_disp_struct_4.xyz,Nucleus 24H :,-3.245248,-0.046529,2.291846,26.93,33.96,19.84,27.0,53.59,25.26,4.52,-19.71,1.74,15.4,19.84,27.0,33.96,0,14.12,0.01
rf_cut_5_p1_opt_disp_struct_4.xyz,Nucleus 25H :,-0.775838,-0.240301,2.327118,27.14,38.57,23.69,19.16,30.03,39.86,44.45,-20.77,-6.98,-5.18,19.16,23.69,38.57,0,19.41,-0.53
rf_cut_5_p1_opt_disp_struct_4.xyz,Nucleus 26H :,1.368763,0.23882,-0.641114,28.26,35.23,25.98,23.57,16.73,38.34,-8.39,-3.14,9.19,32.05,23.57,25.98,35.23,0,11.66,-0.59
rf_cut_5_p1_opt_disp_struct_4.xyz,Nucleus 27H :,-3.484662,-5.750209,-2.559948,27.32,34.57,20.67,26.71,49.28,37.57,29.54,-2.73,-10.88,-20.83,20.67,26.71,34.57,0,13.9,-0.13
rf_cut_5_p1_opt_disp_struct_4.xyz,Nucleus 0C :,-4.169999,-5.82911,-1.709788,161.19,188.76,138.4,156.42,257.86,244.01,239.71,-68.9,-101.54,-87.57,138.4,156.42,188.76,0,50.36,-0.28
rf_cut_5_p1_opt_disp_struct_4.xyz,Nucleus 1C :,-3.993459,-5.277835,-3.408796,33.46,176.15,-73.62,-2.15,261.17,277.21,236.88,-60.77,-334.75,-279.36,-73.62,-2.15,176.15,0,249.77,-0.43
rf_cut_5_p1_opt_disp_struct_4.xyz,Nucleus 2C :,-2.273452,-5.028021,-2.179265,44.82,-66.18,36.45,164.2,276.0,261.74,243.6,-329.53,-237.88,-79.44,-66.18,36.45,164.2,0,230.38,-0.11
rf_cut_5_p1_opt_disp_struct_4.xyz,Nucleus 3C :,-1.39214,-5.416544,-2.472584,45.21,-71.1,30.22,176.52,272.83,260.61,231.57,-331.99,-242.27,-55.12,-71.1,30.22,176.52,0,247.62,-0.18
rf_cut_5_p1_opt_disp_struct_4.xyz,Nucleus 4C :,-2.245136,-3.799578,-1.641205,50.97,-62.29,178.86,36.33,227.91,259.42,276.04,-49.71,-321.06,-239.7,-62.29,36.33,178.86,0,241.15,-0.18
rf_cut_5_p1_opt_disp_struct_4.xyz,Nucleus 5C :,-1.06747,-3.250128,-1.343274,45.14,-70.9,29.94,176.39,272.35,260.42,230.36,-331.59,-242.08,-54.03,-70.9,29.94,176.39,0,247.29,-0.18
rf_cut_5_p1_opt_disp_struct_4.xyz,Nucleus 6C :,-1.024759,-2.328206,-0.923658,45.29,-65.15,37.89,163.13,276.0,260.99,243.11,-328.18,-235.95,-80.1,-65.15,37.89,163.13,0,228.28,-0.1
rf_cut_5_p1_opt_disp_struct_4.xyz,Nucleus 15C :,-3.355777,-3.106853,-1.388369,155.33,188.75,130.67,146.57,266.87,215.26,205.18,-87.71,-75.11,-58.51,130.67,146.57,188.75,0,58.08,-0.45
rf_cut_5_p1_opt_disp_struct_4.xyz,Nucleus 20C :,-4.248805,-3.433767,-1.716229,21.35,115.92,-34.6,-17.28,268.95,264.25,238.38,-122.48,-302.73,-282.33,-34.6,-17.28,115.92,0,150.52,-0.77
rf_cut_5_p1_opt_disp_struct_4.xyz,Nucleus 18N :,-3.308636,-2.200983,-0.932121,168.96,102.04,180.45,224.39,344.73,331.13,294.14,-231.45,-111.08,-120.58,102.04,180.45,224.39,0,122.35,0.28
rf_cut_5_p1_opt_disp_struct_4.xyz,Nucleus 21N :,-3.200676,-6.761322,-2.851331,174.67,233.23,114.61,176.17,322.08,337.75,334.07,-104.07,-211.16,-154.66,114.61,176.17,233.23,0,118.62,0.04
rf_cut_5_p1_opt_disp_struct_4.xyz,Nucleus 23N :,-0.230417,-3.808068,-1.337682,173.89,115.09,210.91,195.66,295.08,339.85,324.62,-211.08,-128.21,-98.58,115.09,195.66,210.91,0,95.82,0.68
rf_cut_5_p1_opt_disp_struct_5.xyz,Nucleus 7H :,0.97919,0.455102,0.357986,28.38,34.59,24.86,25.69,43.32,25.42,25.19,-9.9,0.72,0.38,24.86,25.69,34.59,0,9.73,-0.83
rf_cut_5_p1_opt_disp_struct_5.xyz,Nucleus 8H :,-0.514845,0.586467,0.354219,29.16,34.1,28.61,24.78,43.49,31.72,29.43,-1.39,-5.81,-9.94,24.78,28.61,34.1,0,9.32,-0.18
rf_cut_5_p1_opt_disp_struct_5.xyz,Nucleus 9H :,-1.171614,1.096837,-0.772679,23.6,28.06,21.99,20.76,48.3,32.01,30.14,-26.23,-4.1,-9.31,20.76,21.99,28.06,0,7.3,-0.66
rf_cut_5_p1_opt_disp_struct_5.xyz,Nucleus 10H :,-2.563436,1.200529,-0.793859,23.58,26.66,23.21,20.87,47.58,29.97,17.6,-24.47,-3.35,3.41,20.87,23.21,26.66,0,5.79,-0.19
rf_cut_5_p1_opt_disp_struct_5.xyz,Nucleus 11H :,-3.310627,0.788505,0.307991,23.76,21.19,23.64,26.45,10.26,44.34,31.99,-20.75,10.98,-5.54,21.19,23.64,26.45,0,5.26,-0.07
rf_cut_5_p1_opt_disp_struct_5.xyz,Nucleus 12H :,-2.66679,0.269469,1.429705,23.58,26.68,23.23,20.83,47.51,29.4,16.16,-24.38,-2.75,4.8,20.83,23.23,26.68,0,5.85,-0.18
rf_cut_5_p1_opt_disp_struct_5.xyz,Nucleus 13H :,-1.274824,0.164564,1.45188,23.63,27.96,22.14,20.8,47.98,31.53,29.02,-25.73,-3.75,-8.16,20.8,22.14,27.96,0,7.16,-0.62
rf_cut_5_p1_opt_disp_struct_5.xyz,Nucleus 14H :,1.443571,1.393784,0.681409,29.1,34.01,28.48,24.81,43.8,32.3,30.16,-2.31,-6.23,-10.43,24.81,28.48,34.01,0,9.2,-0.2
rf_cut_5_p1_opt_disp_struct_5.xyz,Nucleus 16H :,1.316674,-0.321948,1.049079,28.63,34.52,24.39,26.97,39.34,1.04,19.6,25.29,-5.52,6.14,24.39,26.97,34.52,0,10.13,-0.49
rf_cut_5_p1_opt_disp_struct_5.xyz,Nucleus 17H :,-0.59123,1.417251,-1.632677,28.64,35.21,24.19,26.51,39.95,18.75,1.76,24.98,-5.66,6.12,24.19,26.51,35.21,0,11.02,-0.58
rf_cut_5_p1_opt_disp_struct_5.xyz,Nucleus 19H :,-3.060711,1.610878,-1.666844,27.03,34.1,28.3,18.68,49.29,29.73,16.12,-15.27,-2.38,3.6,18.68,28.3,34.1,0,15.42,0.25
rf_cut_5_p1_opt_disp_struct_5.xyz,Nucleus 22H :,-4.391453,0.899964,0.304938,27.42,38.86,23.9,19.51,28.68,48.93,58.83,-39.28,-4.77,-10.12,19.51,23.9,38.86,0,19.35,-0.55
rf_cut_5_p1_opt_disp_struct_5.xyz,Nucleus 24H :,-3.245248,-0.046529,2.291846,26.87,33.92,19.83,26.87,53.95,25.26,4.16,-20.1,1.59,15.75,19.83,26.87,33.92,0,14.09,0.0
rf_cut_5_p1_opt_disp_struct_5.xyz,Nucleus 25H :,-0.775838,-0.240301,2.327118,27.01,23.84,19.37,37.82,30.41,41.56,44.25,-22.39,-7.15,-5.65,19.37,23.84,37.82,0,18.45,-0.52
rf_cut_5_p1_opt_disp_struct_5.xyz,Nucleus 26H :,1.368763,0.23882,-0.641114,28.24,35.18,25.98,23.57,38.3,16.35,-9.84,-3.16,9.56,33.5,23.57,25.98,35.18,0,11.61,-0.58
rf_cut_5_p1_opt_disp_struct_5.xyz,Nucleus 27H :,-3.499739,-5.980713,-2.655556,27.26,34.58,20.69,26.5,49.52,37.61,29.21,-2.56,-10.92,-21.1,20.69,26.5,34.58,0,13.89,-0.16
rf_cut_5_p1_opt_disp_struct_5.xyz,Nucleus 0C :,-4.185076,-6.059614,-1.805396,161.13,188.69,138.24,156.46,257.37,243.54,239.78,-68.46,-101.77,-87.05,138.24,156.46,188.69,0,50.45,-0.28
rf_cut_5_p1_opt_disp_struct_5.xyz,Nucleus 1C :,-4.008536,-5.508339,-3.504404,33.51,175.96,-73.9,-1.53,261.13,276.58,236.8,-60.89,-335.0,-278.1,-73.9,-1.53,175.96,0,249.86,-0.42
rf_cut_5_p1_opt_disp_struct_5.xyz,Nucleus 2C :,-2.288529,-5.258524,-2.274873,45.0,-66.07,37.14,163.92,275.64,261.83,243.57,-329.42,-236.93,-79.68,-66.07,37.14,163.92,0,229.99,-0.1
rf_cut_5_p1_opt_disp_struct_5.xyz,Nucleus 3C :,-1.407216,-5.647047,-2.568192,45.41,-70.95,30.95,176.24,272.66,260.71,231.6,-331.93,-241.37,-55.41,-70.95,30.95,176.24,0,247.19,-0.18
rf_cut_5_p1_opt_disp_struct_5.xyz,Nucleus 4C :,-2.260213,-4.030081,-1.736812,50.75,-62.67,178.58,36.35,258.91,275.84,228.15,-49.91,-321.25,-239.48,-62.67,36.35,178.58,0,241.25,-0.18
rf_cut_5_p1_opt_disp_struct_5.xyz,Nucleus 5C :,-1.082547,-3.480632,-1.438882,45.34,-70.76,30.67,176.12,272.18,260.57,230.42,-331.6,-241.19,-54.35,-70.76,30.67,176.12,0,246.88,-0.18
rf_cut_5_p1_opt_disp_struct_5.xyz,Nucleus 6C :,-1.039836,-2.558709,-1.019266,45.47,-65.03,38.58,162.86,275.69,261.09,243.1,-328.06,-235.06,-80.35,-65.03,38.58,162.86,0,227.89,-0.09
rf_cut_5_p1_opt_disp_struct_5.xyz,Nucleus 15C :,-3.370854,-3.337357,-1.483977,155.3,188.72,130.61,146.58,267.46,214.71,204.1,-87.47,-75.43,-57.46,130.61,146.58,188.72,0,58.11,-0.45
rf_cut_5_p1_opt_disp_struct_5.xyz,Nucleus 20C :,-4.263881,-3.664271,-1.811837,21.26,115.8,-34.86,-17.15,269.37,263.95,238.74,-122.96,-303.34,-281.97,-34.86,-17.15,115.8,0,150.66,-0.76
rf_cut_5_p1_opt_disp_struct_5.xyz,Nucleus 18N :,-3.323713,-2.431487,-1.027728,168.58,101.41,180.57,223.76,344.99,331.03,292.37,-232.28,-109.65,-120.73,101.41,180.57,223.76,0,122.35,0.29
rf_cut_5_p1_opt_disp_struct_5.xyz,Nucleus 21N :,-3.215752,-6.991825,-2.946939,174.85,233.92,114.53,176.11,322.24,337.91,335.33,-103.35,-211.43,-156.14,114.53,176.11,233.92,0,119.39,0.03
rf_cut_5_p1_opt_disp_struct_5.xyz,Nucleus 23N :,-0.245493,-4.038572,-1.43329,174.2,115.14,211.78,195.68,295.75,340.3,324.57,-210.94,-127.81,-99.26,115.14,195.68,211.78,0,96.64,0.67
rf_cut_5_p1_opt_disp_struct_6.xyz,Nucleus 7H :,0.97919,0.455102,0.357986,28.4,34.55,24.91,25.74,43.31,25.48,25.15,-9.95,0.75,0.46,24.91,25.74,34.55,0,9.64,-0.83
rf_cut_5_p1_opt_disp_struct_6.xyz,Nucleus 8H :,-0.514845,0.586467,0.354219,29.17,34.12,28.64,24.74,43.32,31.65,29.42,-1.33,-5.83,-9.72,24.74,28.64,34.12,0,9.38,-0.17
rf_cut_5_p1_opt_disp_struct_6.xyz,Nucleus 9H :,-1.171614,1.096837,-0.772679,23.63,28.13,21.97,20.79,48.22,31.97,30.14,-26.16,-3.97,-9.31,20.79,21.97,28.13,0,7.34,-0.68
rf_cut_5_p1_opt_disp_struct_6.xyz,Nucleus 10H :,-2.563436,1.200529,-0.793859,23.61,26.74,23.2,20.89,47.54,30.08,17.49,-24.42,-3.38,3.51,20.89,23.2,26.74,0,5.85,-0.21
rf_cut_5_p1_opt_disp_struct_6.xyz,Nucleus 11H :,-3.310627,0.788505,0.307991,23.78,21.17,23.62,26.54,9.98,44.31,32.18,-20.72,11.23,-5.64,21.17,23.62,26.54,0,5.37,-0.09
rf_cut_5_p1_opt_disp_struct_6.xyz,Nucleus 12H :,-2.66679,0.269469,1.429705,23.61,26.75,23.21,20.87,47.5,29.53,16.08,-24.36,-2.8,4.89,20.87,23.21,26.75,0,5.88,-0.2
rf_cut_5_p1_opt_disp_struct_6.xyz,Nucleus 13H :,-1.274824,0.164564,1.45188,23.66,28.03,22.12,20.84,47.9,31.54,29.03,-25.65,-3.66,-8.17,20.84,22.12,28.03,0,7.19,-0.64
rf_cut_5_p1_opt_disp_struct_6.xyz,Nucleus 14H :,1.443571,1.393784,0.681409,29.1,34.04,28.51,24.76,43.65,32.21,30.11,-2.21,-6.23,-10.23,24.76,28.51,34.04,0,9.28,-0.19
rf_cut_5_p1_opt_disp_struct_6.xyz,Nucleus 16H :,1.316674,-0.321948,1.049079,28.61,34.5,24.39,26.93,39.33,0.13,19.49,26.25,-5.57,6.2,24.39,26.93,34.5,0,10.11,-0.5
rf_cut_5_p1_opt_disp_struct_6.xyz,Nucleus 17H :,-0.59123,1.417251,-1.632677,28.62,35.19,24.18,26.48,39.98,18.65,0.8,25.99,-5.75,6.18,24.18,26.48,35.19,0,11.01,-0.58
rf_cut_5_p1_opt_disp_struct_6.xyz,Nucleus 19H :,-3.060711,1.610878,-1.666844,26.99,34.05,28.24,18.69,49.42,29.52,14.77,-15.47,-2.1,4.83,18.69,28.24,34.05,0,15.36,0.24
rf_cut_5_p1_opt_disp_struct_6.xyz,Nucleus 22H :,-4.391453,0.899964,0.304938,27.28,38.23,23.97,19.65,28.94,48.29,60.66,-40.97,-4.98,-10.09,19.65,23.97,38.23,0,18.58,-0.53
rf_cut_5_p1_opt_disp_struct_6.xyz,Nucleus 24H :,-3.245248,-0.046529,2.291846,26.82,33.87,19.83,26.76,54.3,25.27,3.86,-20.49,1.46,16.05,19.83,26.76,33.87,0,14.04,-0.01
rf_cut_5_p1_opt_disp_struct_6.xyz,Nucleus 25H :,-0.775838,-0.240301,2.327118,26.89,37.22,23.93,19.52,30.7,42.87,44.49,-24.03,-7.28,-6.07,19.52,23.93,37.22,0,17.7,-0.5
rf_cut_5_p1_opt_disp_struct_6.xyz,Nucleus 26H :,1.368763,0.23882,-0.641114,28.22,35.13,25.97,23.57,38.27,15.98,-11.27,9.93,-3.17,34.94,23.57,25.97,35.13,0,11.56,-0.58
rf_cut_5_p1_opt_disp_struct_6.xyz,Nucleus 27H :,-3.514815,-6.211216,-2.751164,27.2,34.57,20.7,26.32,49.74,37.63,28.91,-2.4,-10.95,-21.33,20.7,26.32,34.57,0,13.87,-0.19
rf_cut_5_p1_opt_disp_struct_6.xyz,Nucleus 0C :,-4.200152,-6.290117,-1.901004,161.09,188.65,138.11,156.51,256.95,243.13,239.87,-68.09,-102.02,-86.59,138.11,156.51,188.65,0,50.54,-0.27
rf_cut_5_p1_opt_disp_struct_6.xyz,Nucleus 1C :,-4.023612,-5.738842,-3.600012,33.59,175.8,-74.06,-0.98,261.06,275.95,236.7,-60.95,-335.08,-276.92,-74.06,-0.98,175.8,0,249.86,-0.42
rf_cut_5_p1_opt_disp_struct_6.xyz,Nucleus 2C :,-2.303605,-5.489027,-2.370481,45.11,-66.0,37.64,163.68,275.27,261.91,243.57,-329.35,-236.16,-79.92,-66.0,37.64,163.68,0,229.68,-0.1
rf_cut_5_p1_opt_disp_struct_6.xyz,Nucleus 3C :,-1.422293,-5.877551,-2.6638,45.56,-70.82,31.49,176.0,272.54,260.74,231.61,-331.85,-240.72,-55.66,-70.82,31.49,176.0,0,246.82,-0.17
rf_cut_5_p1_opt_disp_struct_6.xyz,Nucleus 4C :,-2.27529,-4.260585,-1.83242,50.58,-62.93,178.34,36.34,258.58,275.7,228.2,-50.02,-321.36,-239.36,-62.93,36.34,178.34,0,241.27,-0.18
rf_cut_5_p1_opt_disp_struct_6.xyz,Nucleus 5C :,-1.097623,-3.711135,-1.534489,45.48,-70.65,31.22,175.88,272.08,260.65,230.47,-331.57,-240.54,-54.63,-70.65,31.22,175.88,0,246.53,-0.17
rf_cut_5_p1_opt_disp_struct_6.xyz,Nucleus 6C :,-1.054912,-2.789213,-1.114874,45.58,-64.97,39.08,162.62,275.36,261.2,243.13,-328.0,-234.35,-80.61,-64.97,39.08,162.62,0,227.59,-0.09
rf_cut_5_p1_opt_disp_struct_6.xyz,Nucleus 15C :,-3.38593,-3.56786,-1.579585,155.28,188.7,130.56,146.58,268.03,214.19,203.02,-87.26,-75.73,-56.4,130.56,146.58,188.7,0,58.14,-0.45
rf_cut_5_p1_opt_disp_struct_6.xyz,Nucleus 20C :,-4.278958,-3.894774,-1.907445,21.2,115.75,-35.06,-17.08,269.77,263.69,239.09,-123.35,-303.89,-281.7,-35.06,-17.08,115.75,0,150.81,-0.76
rf_cut_5_p1_opt_disp_struct_6.xyz,Nucleus 18N :,-3.338789,-2.66199,-1.123336,168.28,100.92,180.68,223.25,345.28,330.95,290.63,-232.98,-108.09,-120.93,100.92,180.68,223.25,0,122.33,0.3
rf_cut_5_p1_opt_disp_struct_6.xyz,Nucleus 21N :,-3.230829,-7.222329,-3.042547,174.91,234.28,114.43,176.03,322.26,336.2,338.23,-102.9,-211.67,-157.39,114.43,176.03,234.28,0,119.85,0.03
rf_cut_5_p1_opt_disp_struct_6.xyz,Nucleus 23N :,-0.26057,-4.269075,-1.528898,174.35,115.13,212.29,195.63,340.64,324.53,296.35,-210.87,-127.67,-99.94,115.13,195.63,212.29,0,97.16,0.66
rf_cut_5_p1_opt_disp_struct_7.xyz,Nucleus 7H :,0.97919,0.455102,0.357986,28.42,34.52,24.95,25.78,43.3,25.53,25.09,-10.0,0.79,0.53,24.95,25.78,34.52,0,9.57,-0.83
rf_cut_5_p1_opt_disp_struct_7.xyz,Nucleus 8H :,-0.514845,0.586467,0.354219,29.18,34.15,28.68,24.7,43.15,31.59,29.4,-1.26,-5.84,-9.51,24.7,28.68,34.15,0,9.45,-0.16
rf_cut_5_p1_opt_disp_struct_7.xyz,Nucleus 9H :,-1.171614,1.096837,-0.772679,23.66,28.2,21.96,20.81,48.14,31.92,30.14,-26.08,-3.84,-9.31,20.81,21.96,28.2,0,7.39,-0.69
rf_cut_5_p1_opt_disp_struct_7.xyz,Nucleus 10H :,-2.563436,1.200529,-0.793859,23.63,26.8,23.19,20.91,47.49,30.18,17.39,-24.35,-3.42,3.61,20.91,23.19,26.8,0,5.89,-0.22
rf_cut_5_p1_opt_disp_struct_7.xyz,Nucleus 11H :,-3.310627,0.788505,0.307991,23.8,21.16,23.61,26.62,9.75,44.28,32.35,-20.68,11.42,-5.73,21.16,23.61,26.62,0,5.46,-0.1
rf_cut_5_p1_opt_disp_struct_7.xyz,Nucleus 12H :,-2.66679,0.269469,1.429705,23.64,26.81,23.21,20.89,47.48,29.65,15.99,-24.31,-2.86,4.97,20.89,23.21,26.81,0,5.92,-0.22
rf_cut_5_p1_opt_disp_struct_7.xyz,Nucleus 13H :,-1.274824,0.164564,1.45188,23.69,28.1,22.11,20.86,47.81,31.54,29.03,-25.56,-3.58,-8.17,20.86,22.11,28.1,0,7.24,-0.65
rf_cut_5_p1_opt_disp_struct_7.xyz,Nucleus 14H :,1.443571,1.393784,0.681409,29.11,34.07,28.54,24.71,43.5,32.13,30.05,-2.11,-6.22,-10.04,24.71,28.54,34.07,0,9.36,-0.18
rf_cut_5_p1_opt_disp_struct_7.xyz,Nucleus 16H :,1.316674,-0.321948,1.049079,28.59,34.48,24.39,26.9,39.32,-0.78,19.38,27.21,-5.62,6.25,24.39,26.9,34.48,0,10.09,-0.5
rf_cut_5_p1_opt_disp_struct_7.xyz,Nucleus 17H :,-0.59123,1.417251,-1.632677,28.6,35.17,24.18,26.46,40.01,18.57,-0.16,26.99,-5.84,6.24,24.18,26.46,35.17,0,10.99,-0.58
rf_cut_5_p1_opt_disp_struct_7.xyz,Nucleus 19H :,-3.060711,1.610878,-1.666844,26.96,34.01,28.18,18.69,49.57,29.32,13.41,-15.66,-1.84,6.09,18.69,28.18,34.01,0,15.32,0.24
rf_cut_5_p1_opt_disp_struct_7.xyz,Nucleus 22H :,-4.391453,0.899964,0.304938,27.17,37.71,24.02,19.77,29.19,47.72,62.44,-42.64,-5.16,-10.06,19.77,24.02,37.71,0,17.94,-0.53
rf_cut_5_p1_opt_disp_struct_7.xyz,Nucleus 24H :,-3.245248,-0.046529,2.291846,26.77,33.83,19.83,26.65,54.65,25.28,3.62,-20.87,1.34,16.29,19.83,26.65,33.83,0,14.0,-0.03
rf_cut_5_p1_opt_disp_struct_7.xyz,Nucleus 25H :,-0.775838,-0.240301,2.327118,26.79,36.74,23.98,19.64,30.94,45.67,43.24,-25.64,-7.4,-6.45,19.64,23.98,36.74,0,17.1,-0.49
rf_cut_5_p1_opt_disp_struct_7.xyz,Nucleus 26H :,1.368763,0.23882,-0.641114,28.21,35.09,25.97,23.57,38.24,15.62,-12.7,10.28,-3.18,36.36,23.57,25.97,35.09,0,11.52,-0.58
rf_cut_5_p1_opt_disp_struct_7.xyz,Nucleus 27H :,-3.529892,-6.44172,-2.846772,27.15,34.57,20.72,26.17,49.93,37.65,28.64,-2.25,-10.97,-21.55,20.72,26.17,34.57,0,13.85,-0.21
rf_cut_5_p1_opt_disp_struct_7.xyz,Nucleus 0C :,-4.215229,-6.520621,-1.996612,161.06,188.62,138.0,156.56,256.6,242.76,239.97,-67.75,-102.24,-86.15,138.0,156.56,188.62,0,50.62,-0.27
rf_cut_5_p1_opt_disp_struct_7.xyz,Nucleus 1C :,-4.038689,-5.969346,-3.69562,33.68,175.67,-74.13,-0.5,260.96,275.35,236.6,-60.98,-335.06,-275.83,-74.13,-0.5,175.67,0,249.8,-0.41
rf_cut_5_p1_opt_disp_struct_7.xyz,Nucleus 2C :,-2.318682,-5.719531,-2.466089,45.18,-65.95,38.01,163.47,274.88,261.98,243.58,-329.27,-235.51,-80.14,-65.95,38.01,163.47,0,229.42,-0.09
rf_cut_5_p1_opt_disp_struct_7.xyz,Nucleus 3C :,-1.437369,-6.108054,-2.759408,45.66,-70.71,31.9,175.79,272.44,260.72,231.63,-331.74,-240.2,-55.88,-70.71,31.9,175.79,0,246.5,-0.17
rf_cut_5_p1_opt_disp_struct_7.xyz,Nucleus 4C :,-2.290366,-4.491088,-1.928028,50.45,-63.11,178.14,36.32,228.15,258.37,275.56,-50.08,-321.41,-239.24,-63.11,36.32,178.14,0,241.25,-0.18
rf_cut_5_p1_opt_disp_struct_7.xyz,Nucleus 5C :,-1.1127,-3.941639,-1.630097,45.59,-70.54,31.64,175.67,271.98,260.66,230.52,-331.49,-240.03,-54.88,-70.54,31.64,175.67,0,246.21,-0.17
rf_cut_5_p1_opt_disp_struct_7.xyz,Nucleus 6C :,-1.069989,-3.019716,-1.210482,45.65,-64.92,39.45,162.41,275.01,261.29,243.16,-327.93,-233.76,-80.84,-64.92,39.45,162.41,0,227.33,-0.08
rf_cut_5_p1_opt_disp_struct_7.xyz,Nucleus 15C :,-3.401007,-3.798364,-1.675193,155.26,188.68,130.52,146.59,268.6,213.67,201.96,-87.09,-76.0,-55.36,130.52,146.59,188.68,0,58.16,-0.45
rf_cut_5_p1_opt_disp_struct_7.xyz,Nucleus 20C :,-4.294035,-4.125278,-2.003052,21.15,115.73,-35.22,-17.06,270.16,263.46,239.38,-123.67,-304.37,-281.52,-35.22,-17.06,115.73,0,150.95,-0.76
rf_cut_5_p1_opt_disp_struct_7.xyz,Nucleus 18N :,-3.353866,-2.892494,-1.218944,168.05,100.53,180.77,222.84,345.57,330.86,288.92,-233.59,-106.49,-121.13,100.53,180.77,222.84,0,122.31,0.31
rf_cut_5_p1_opt_disp_struct_7.xyz,Nucleus 21N :,-3.245905,-7.452832,-3.138155,174.91,234.47,114.32,175.94,322.18,336.58,338.8,-102.57,-211.85,-158.42,114.32,175.94,234.47,0,120.15,0.03
rf_cut_5_p1_opt_disp_struct_7.xyz,Nucleus 23N :,-0.275647,-4.499578,-1.624506,174.41,115.09,212.61,195.53,340.9,324.47,296.96,-210.8,-127.65,-100.66,115.09,195.53,212.61,0,97.52,0.65
rf_cut_5_p1_opt_disp_struct_8.xyz,Nucleus 7H :,0.97919,0.455102,0.357986,28.44,34.5,24.99,25.82,43.3,25.58,25.03,-10.05,0.59,0.85,24.99,25.82,34.5,0,9.51,-0.83
rf_cut_5_p1_opt_disp_struct_8.xyz,Nucleus 8H :,-0.514845,0.586467,0.354219,29.18,34.17,28.7,24.67,42.99,31.55,29.37,-1.2,-5.85,-9.32,24.67,28.7,34.17,0,9.5,-0.15
rf_cut_5_p1_opt_disp_struct_8.xyz,Nucleus 9H :,-1.171614,1.096837,-0.772679,23.68,28.25,21.96,20.83,48.05,31.88,30.13,-25.98,-3.73,-9.31,20.83,21.96,28.25,0,7.42,-0.7
rf_cut_5_p1_opt_disp_struct_8.xyz,Nucleus 10H :,-2.563436,1.200529,-0.793859,23.66,26.85,23.2,20.92,47.43,30.26,17.29,-24.27,-3.44,3.69,20.92,23.2,26.85,0,5.93,-0.23
rf_cut_5_p1_opt_disp_struct_8.xyz,Nucleus 11H :,-3.310627,0.788505,0.307991,23.81,21.14,23.62,26.68,9.57,44.25,32.47,-20.63,11.57,-5.8,21.14,23.62,26.68,0,5.54,-0.1
rf_cut_5_p1_opt_disp_struct_8.xyz,Nucleus 12H :,-2.66679,0.269469,1.429705,23.66,26.87,23.22,20.9,47.43,29.74,15.91,-24.25,-2.9,5.05,20.9,23.22,26.87,0,5.97,-0.22
rf_cut_5_p1_opt_disp_struct_8.xyz,Nucleus 13H :,-1.274824,0.164564,1.45188,23.71,28.15,22.12,20.87,47.72,31.54,29.03,-25.46,-3.51,-8.18,20.87,22.12,28.15,0,7.28,-0.66
rf_cut_5_p1_opt_disp_struct_8.xyz,Nucleus 14H :,1.443571,1.393784,0.681409,29.11,34.1,28.56,24.67,43.36,32.06,29.99,-2.01,-6.2,-9.87,24.67,28.56,34.1,0,9.43,-0.17
rf_cut_5_p1_opt_disp_struct_8.xyz,Nucleus 16H :,1.316674,-0.321948,1.049079,28.58,34.47,24.39,26.87,39.32,19.28,-1.68,28.17,-5.67,6.31,24.39,26.87,34.47,0,10.08,-0.51
rf_cut_5_p1_opt_disp_struct_8.xyz,Nucleus 17H :,-0.59123,1.417251,-1.632677,28.59,35.15,24.18,26.44,40.05,18.48,-1.11,27.99,-5.94,6.3,24.18,26.44,35.15,0,10.97,-0.59
rf_cut_5_p1_opt_disp_struct_8.xyz,Nucleus 19H :,-3.060711,1.610878,-1.666844,26.93,33.97,28.14,18.69,49.71,29.13,12.07,-15.85,-1.62,7.36,18.69,28.14,33.97,0,15.28,0.24
rf_cut_5_p1_opt_disp_struct_8.xyz,Nucleus 22H :,-4.391453,0.899964,0.304938,27.07,37.28,24.06,19.87,29.43,47.22,64.18,-44.29,-5.32,-10.02,19.87,24.06,37.28,0,17.41,-0.52
rf_cut_5_p1_opt_disp_struct_8.xyz,Nucleus 24H :,-3.245248,-0.046529,2.291846,26.73,33.8,19.84,26.56,54.99,25.29,3.44,-21.25,1.24,16.48,19.84,26.56,33.8,0,13.96,-0.04
rf_cut_5_p1_opt_disp_struct_8.xyz,Nucleus 25H :,-0.775838,-0.240301,2.327118,26.7,36.34,24.02,19.74,31.16,47.2,43.25,-27.23,-6.79,-7.5,19.74,24.02,36.34,0,16.6,-0.48
rf_cut_5_p1_opt_disp_struct_8.xyz,Nucleus 26H :,1.368763,0.23882,-0.641114,28.2,35.05,25.97,23.57,38.21,15.27,-14.11,10.63,-3.19,37.77,23.57,25.97,35.05,0,11.48,-0.58
rf_cut_5_p1_opt_disp_struct_8.xyz,Nucleus 27H :,-3.544968,-6.672223,-2.94238,27.11,34.57,20.73,26.03,50.13,37.67,28.39,-2.1,-10.98,-21.78,20.73,26.03,34.57,0,13.84,-0.23
rf_cut_5_p1_opt_disp_struct_8.xyz,Nucleus 0C :,-4.230306,-6.751124,-2.09222,161.04,188.6,137.91,156.61,256.29,242.4,240.06,-67.45,-102.44,-85.74,137.91,156.61,188.6,0,50.69,-0.26
rf_cut_5_p1_opt_disp_struct_8.xyz,Nucleus 1C :,-4.053765,-6.199849,-3.791228,33.77,175.55,-74.15,-0.08,260.89,274.78,236.51,-61.01,-335.01,-274.84,-74.15,-0.08,175.55,0,249.7,-0.41
rf_cut_5_p1_opt_disp_struct_8.xyz,Nucleus 2C :,-2.333758,-5.950034,-2.561697,45.23,-65.91,38.3,163.29,274.51,262.01,243.58,-329.16,-234.95,-80.31,-65.91,38.3,163.29,0,229.2,-0.09
rf_cut_5_p1_opt_disp_struct_8.xyz,Nucleus 3C :,-1.452446,-6.338558,-2.855015,45.74,-70.61,32.22,175.61,272.33,260.67,231.65,-331.6,-239.77,-56.07,-70.61,32.22,175.61,0,246.22,-0.16
rf_cut_5_p1_opt_disp_struct_8.xyz,Nucleus 4C :,-2.305443,-4.721592,-2.023636,50.35,-63.23,177.97,36.31,228.06,258.22,275.39,-50.12,-321.42,-239.07,-63.23,36.31,177.97,0,241.2,-0.17
rf_cut_5_p1_opt_disp_struct_8.xyz,Nucleus 5C :,-1.127776,-4.172142,-1.725705,45.67,-70.45,31.97,175.49,271.88,260.63,230.55,-331.37,-239.59,-55.08,-70.45,31.97,175.49,0,245.94,-0.17
rf_cut_5_p1_opt_disp_struct_8.xyz,Nucleus 6C :,-1.085065,-3.250219,-1.306089,45.69,-64.89,39.73,162.23,274.67,261.34,243.18,-327.84,-233.26,-81.03,-64.89,39.73,162.23,0,227.12,-0.08
rf_cut_5_p1_opt_disp_struct_8.xyz,Nucleus 15C :,-3.416084,-4.028867,-1.770801,155.25,188.66,130.49,146.59,269.16,213.18,200.92,-86.95,-76.23,-54.34,130.49,146.59,188.66,0,58.17,-0.45
rf_cut_5_p1_opt_disp_struct_8.xyz,Nucleus 20C :,-4.309111,-4.355781,-2.09866,21.11,115.74,-35.34,-17.06,270.53,263.26,239.64,-123.92,-304.79,-281.38,-35.34,-17.06,115.74,0,151.08,-0.76
rf_cut_5_p1_opt_disp_struct_8.xyz,Nucleus 18N :,-3.368942,-3.122997,-1.314552,167.85,100.21,180.85,222.49,345.88,330.78,287.25,-234.15,-104.89,-121.32,100.21,180.85,222.49,0,122.28,0.32
rf_cut_5_p1_opt_disp_struct_8.xyz,Nucleus 21N :,-3.260982,-7.683335,-3.233763,174.88,234.57,114.21,175.86,322.04,336.66,339.55,-102.31,-211.97,-159.33,114.21,175.86,234.57,0,120.36,0.02
rf_cut_5_p1_opt_disp_struct_8.xyz,Nucleus 23N :,-0.290723,-4.730082,-1.720114,174.43,115.04,212.82,195.43,341.12,324.41,297.6,-210.72,-127.7,-101.41,115.04,195.43,212.82,0,97.78,0.64
rf_cut_5_p1_opt_disp_struct_9.xyz,Nucleus 7H :,0.97919,0.455102,0.357986,28.45,34.48,25.02,25.86,43.31,25.62,24.96,-10.09,0.64,0.93,25.02,25.86,34.48,0,9.46,-0.82
rf_cut_5_p1_opt_disp_struct_9.xyz,Nucleus 8H :,-0.514845,0.586467,0.354219,29.19,34.2,28.73,24.64,42.83,31.51,29.33,-1.14,-5.86,-9.13,24.64,28.73,34.2,0,9.56,-0.14
rf_cut_5_p1_opt_disp_struct_9.xyz,Nucleus 9H :,-1.171614,1.096837,-0.772679,23.7,28.3,21.97,20.83,47.95,31.83,30.12,-25.88,-3.63,-9.3,20.83,21.97,28.3,0,7.47,-0.69
rf_cut_5_p1_opt_disp_struct_9.xyz,Nucleus 10H :,-2.563436,1.200529,-0.793859,23.67,26.89,23.21,20.92,47.36,30.32,17.21,-24.17,-3.45,3.77,20.92,23.21,26.89,0,5.97,-0.23
rf_cut_5_p1_opt_disp_struct_9.xyz,Nucleus 11H :,-3.310627,0.788505,0.307991,23.83,21.12,23.63,26.73,9.43,44.22,32.56,-20.59,11.69,-5.83,21.12,23.63,26.73,0,5.61,-0.11
rf_cut_5_p1_opt_disp_struct_9.xyz,Nucleus 12H :,-2.66679,0.269469,1.429705,23.68,26.91,23.23,20.91,47.38,29.82,15.83,-24.18,-2.93,5.13,20.91,23.23,26.91,0,6.0,-0.22
rf_cut_5_p1_opt_disp_struct_9.xyz,Nucleus 13H :,-1.274824,0.164564,1.45188,23.74,28.2,22.13,20.88,47.62,31.53,29.03,-25.36,-3.45,-8.17,20.88,22.13,28.2,0,7.32,-0.66
rf_cut_5_p1_opt_disp_struct_9.xyz,Nucleus 14H :,1.443571,1.393784,0.681409,29.11,34.13,28.58,24.63,43.22,32.01,29.91,-1.92,-6.19,-9.7,24.63,28.58,34.13,0,9.5,-0.17
rf_cut_5_p1_opt_disp_struct_9.xyz,Nucleus 16H :,1.316674,-0.321948,1.049079,28.57,34.46,24.39,26.85,39.33,19.19,-2.57,29.11,-5.73,6.37,24.39,26.85,34.46,0,10.07,-0.51
rf_cut_5_p1_opt_disp_struct_9.xyz,Nucleus 17H :,-0.59123,1.417251,-1.632677,28.58,35.14,24.17,26.42,40.1,18.4,-2.06,28.97,-6.04,6.35,24.17,26.42,35.14,0,10.97,-0.59
rf_cut_5_p1_opt_disp_struct_9.xyz,Nucleus 19H :,-3.060711,1.610878,-1.666844,26.91,33.94,28.1,18.7,49.86,28.95,10.73,-16.04,-1.42,8.65,18.7,28.1,33.94,0,15.24,0.23
rf_cut_5_p1_opt_disp_struct_9.xyz,Nucleus 22H :,-4.391453,0.899964,0.304938,26.99,36.92,24.09,19.96,29.66,46.78,65.89,-45.91,-5.45,-9.99,19.96,24.09,36.92,0,16.96,-0.51
rf_cut_5_p1_opt_disp_struct_9.xyz,Nucleus 24H :,-3.245248,-0.046529,2.291846,26.7,33.77,19.84,26.48,55.34,25.31,3.27,-21.62,1.14,16.65,19.84,26.48,33.77,0,13.93,-0.05
rf_cut_5_p1_opt_disp_struct_9.xyz,Nucleus 25H :,-0.775838,-0.240301,2.327118,26.63,36.02,24.05,19.82,31.35,48.77,43.21,-28.77,-7.1,-7.58,19.82,24.05,36.02,0,16.2,-0.48
rf_cut_5_p1_opt_disp_struct_9.xyz,Nucleus 26H :,1.368763,0.23882,-0.641114,28.19,35.02,25.97,23.57,38.18,14.93,-15.51,10.98,-3.2,39.17,23.57,25.97,35.02,0,11.45,-0.58
rf_cut_5_p1_opt_disp_struct_9.xyz,Nucleus 27H :,-3.560045,-6.902726,-3.037988,27.07,34.57,20.74,25.91,50.32,37.71,28.16,-1.96,-10.99,-22.01,20.74,25.91,34.57,0,13.83,-0.25
rf_cut_5_p1_opt_disp_struct_9.xyz,Nucleus 0C :,-4.245382,-6.981628,-2.187827,161.03,188.58,137.84,156.66,256.02,242.08,240.14,-67.18,-102.61,-85.35,137.84,156.66,188.58,0,50.74,-0.26
rf_cut_5_p1_opt_disp_struct_9.xyz,Nucleus 1C :,-4.068842,-6.430352,-3.886836,33.87,175.45,-74.13,0.28,260.84,274.25,236.44,-61.04,-334.94,-273.95,-74.13,0.28,175.45,0,249.58,-0.4
rf_cut_5_p1_opt_disp_struct_9.xyz,Nucleus 2C :,-2.348835,-6.180538,-2.657304,45.26,-65.88,38.52,163.14,274.16,262.01,243.57,-329.03,-234.47,-80.45,-65.88,38.52,163.14,0,229.02,-0.09
rf_cut_5_p1_opt_disp_struct_9.xyz,Nucleus 3C :,-1.467522,-6.569061,-2.950623,45.8,-70.52,32.48,175.45,272.22,260.58,231.66,-331.43,-239.4,-56.23,-70.52,32.48,175.45,0,245.97,-0.16
rf_cut_5_p1_opt_disp_struct_9.xyz,Nucleus 4C :,-2.320519,-4.952095,-2.119244,50.28,-63.29,177.82,36.32,227.95,258.12,275.18,-50.13,-321.41,-238.86,-63.29,36.32,177.82,0,241.11,-0.17
rf_cut_5_p1_opt_disp_struct_9.xyz,Nucleus 5C :,-1.142853,-4.402646,-1.821313,45.74,-70.36,32.24,175.33,271.76,260.57,230.57,-331.23,-239.21,-55.26,-70.36,32.24,175.33,0,245.69,-0.16
rf_cut_5_p1_opt_disp_struct_9.xyz,Nucleus 6C :,-1.100142,-3.480723,-1.401697,45.72,-64.87,39.95,162.08,274.34,261.35,243.19,-327.72,-232.83,-81.18,-64.87,39.95,162.08,0,226.95,-0.08
rf_cut_5_p1_opt_disp_struct_9.xyz,Nucleus 15C :,-3.43116,-4.25937,-1.866409,155.23,188.64,130.46,146.59,269.72,212.69,199.9,-86.87,-76.43,-53.33,130.46,146.59,188.64,0,58.18,-0.45
rf_cut_5_p1_opt_disp_struct_9.xyz,Nucleus 20C :,-4.324188,-4.586285,-2.194268,21.08,115.75,-35.44,-17.07,270.88,263.08,239.85,-124.12,-305.17,-281.27,-35.44,-17.07,115.75,0,151.19,-0.76
rf_cut_5_p1_opt_disp_struct_9.xyz,Nucleus 18N :,-3.384019,-3.353501,-1.41016,167.69,99.95,180.91,222.2,346.21,330.71,285.62,-234.67,-103.3,-121.49,99.95,180.91,222.2,0,122.25,0.32
rf_cut_5_p1_opt_disp_struct_9.xyz,Nucleus 21N :,-3.276059,-7.913839,-3.32937,174.86,234.64,114.13,175.8,321.89,336.65,340.42,-102.1,-212.06,-160.23,114.13,175.8,234.64,0,120.51,0.02
rf_cut_5_p1_opt_disp_struct_9.xyz,Nucleus 23N :,-0.3058,-4.960585,-1.815722,174.44,114.99,212.97,195.35,341.34,324.35,298.27,-210.65,-127.81,-102.18,114.99,195.35,212.97,0,97.98,0.64
rw_cut_5_p1_1f_opt.xyz,Nucleus 1H :,0.963436,-0.037694,-1.311607,28.92,35.54,23.16,28.06,41.02,25.73,31.51,-0.85,-6.7,-3.96,23.16,28.06,35.54,0,12.38,-0.21
rw_cut_5_p1_1f_opt.xyz,Nucleus 2H :,1.771861,0.575686,-1.715415,28.94,23.96,28.46,34.4,48.43,28.48,26.32,2.28,-4.39,-14.3,23.96,28.46,34.4,0,10.44,-0.14
rw_cut_5_p1_1f_opt.xyz,Nucleus 6H :,1.131397,-1.072461,-1.629164,23.34,15.56,24.08,30.39,52.09,27.96,13.99,-22.18,-4.09,2.27,15.56,24.08,30.39,0,14.83,0.15
rw_cut_5_p1_1f_opt.xyz,Nucleus 12H :,0.893611,0.08523,0.167875,23.96,20.34,24.79,26.74,49.36,18.66,29.92,-25.01,2.46,-3.51,20.34,24.79,26.74,0,6.4,0.39
rw_cut_5_p1_1f_opt.xyz,Nucleus 14H :,1.679381,0.900459,0.959094,23.68,20.25,25.71,25.09,7.71,31.28,43.54,13.01,-5.62,-18.87,20.25,25.09,25.71,0,5.46,0.77
rw_cut_5_p1_1f_opt.xyz,Nucleus 16H :,1.303563,0.72871,2.263895,23.82,19.38,26.91,25.18,10.78,30.21,48.94,-24.21,-3.34,9.08,19.38,25.18,26.91,0,7.53,0.54
rw_cut_5_p1_1f_opt.xyz,Nucleus 17H :,1.685516,1.228929,3.049094,23.82,20.08,25.05,26.34,44.96,27.55,32.56,-19.66,-7.28,-6.65,20.08,25.05,26.34,0,6.26,0.59
rw_cut_5_p1_1f_opt.xyz,Nucleus 18H :,0.278966,-0.184654,2.347733,28.52,35.27,26.85,23.44,43.24,27.41,32.29,-0.44,-9.04,-7.9,23.44,26.85,35.27,0,11.83,-0.42
rw_cut_5_p1_1f_opt.xyz,Nucleus 20H :,-0.003253,-0.605327,1.045668,28.89,34.81,24.4,27.45,0.03,17.97,39.0,26.19,8.13,-4.65,24.4,27.45,34.81,0,10.41,-0.41
rw_cut_5_p1_1f_opt.xyz,Nucleus 21H :,-1.032627,-1.550696,0.867668,28.85,35.54,26.8,24.2,1.59,17.98,39.87,25.05,7.24,-5.19,24.2,26.8,35.54,0,11.34,-0.54
rw_cut_5_p1_1f_opt.xyz,Nucleus 23H :,-1.352572,-1.990954,-0.3583,27.57,18.43,34.93,29.35,48.01,19.17,31.06,-13.3,0.82,-3.06,18.43,29.35,34.93,0,16.5,0.32
rw_cut_5_p1_1f_opt.xyz,Nucleus 26H :,-1.736981,-2.04536,1.96654,27.13,48.41,14.01,18.96,11.89,59.7,41.77,8.67,-29.32,-11.34,14.01,18.96,48.41,0,34.4,-0.71
rw_cut_5_p1_1f_opt.xyz,Nucleus 28H :,-2.533142,-2.760518,1.790905,27.36,20.15,27.87,34.07,1.48,23.62,52.82,-19.15,4.59,18.72,20.15,27.87,34.07,0,13.92,0.11
rw_cut_5_p1_1f_opt.xyz,Nucleus 29H :,-1.429259,-1.606459,3.251806,26.49,47.23,13.95,18.28,49.91,14.19,26.51,6.48,-12.62,-5.01,13.95,18.28,47.23,0,33.28,-0.74
rw_cut_5_p1_1f_opt.xyz,Nucleus 30H :,-2.007671,-1.969482,4.095292,28.5,35.86,26.06,23.58,-9.01,39.07,15.39,32.68,-3.24,10.6,23.58,26.06,35.86,0,12.28,-0.6
rw_cut_5_p1_1f_opt.xyz,Nucleus 31H :,-0.415061,-0.666269,3.466535,28.09,20.21,34.23,29.83,48.35,32.97,32.6,-20.68,-6.01,-2.97,20.21,29.83,34.23,0,14.02,0.37
rw_cut_5_p1_1f_opt.xyz,Nucleus 0C :,-0.189736,-0.311995,4.466699,171.36,160.35,166.75,186.97,261.37,237.44,240.06,-83.53,-73.68,-67.59,160.35,166.75,186.97,0,26.62,-0.52
rw_cut_5_p1_1f_opt.xyz,Nucleus 3C :,2.459454,1.592486,0.678151,60.75,148.78,49.2,-15.73,244.38,279.17,263.99,-95.69,-229.84,-279.75,-15.73,49.2,148.78,0,164.51,-0.21
rw_cut_5_p1_1f_opt.xyz,Nucleus 4C :,0.02922,0.285751,-1.782187,49.83,-37.92,129.24,58.18,277.29,258.58,257.7,-302.13,-129.39,-212.55,-37.92,58.18,129.24,0,167.16,0.15
rw_cut_5_p1_1f_opt.xyz,Nucleus 7C :,2.589214,-5.92071,3.466351,38.61,137.92,-36.09,14.01,273.63,265.41,265.74,-128.27,-308.99,-251.68,-36.09,14.01,137.92,0,174.01,-0.42
rw_cut_5_p1_1f_opt.xyz,Nucleus 8C :,2.576821,-5.51303,4.48234,61.57,164.16,26.11,-5.57,234.66,270.17,257.16,-70.87,-232.4,-274.02,-5.57,26.11,164.16,0,169.73,-0.63
rw_cut_5_p1_1f_opt.xyz,Nucleus 9C :,1.733223,-6.590762,3.321372,11.22,-66.58,77.04,23.19,239.4,266.01,273.3,-339.29,-162.74,-243.03,-66.58,23.19,77.04,0,143.62,0.25
rw_cut_5_p1_1f_opt.xyz,Nucleus 11C :,2.612888,-4.843515,2.480163,65.98,167.8,-19.31,49.44,235.86,264.38,275.1,-71.51,-285.0,-220.9,-19.31,49.44,167.8,0,187.11,-0.27
rw_cut_5_p1_1f_opt.xyz,Nucleus 13C :,3.246841,-4.942533,1.704244,54.93,176.28,39.7,-51.19,220.27,273.54,252.86,-45.48,-233.65,-302.75,-51.19,39.7,176.28,0,227.47,-0.2
rw_cut_5_p1_1f_opt.xyz,Nucleus 15C :,1.716504,-3.848523,2.403366,65.64,175.1,44.17,-22.36,237.74,273.07,265.02,-65.03,-228.51,-285.38,-22.36,44.17,175.1,0,197.46,-0.33
rw_cut_5_p1_1f_opt.xyz,Nucleus 19C :,1.851164,-2.927926,1.448443,155.53,131.28,146.39,188.93,202.61,213.36,265.24,-56.26,-84.86,-73.5,131.28,146.39,188.93,0,57.65,-0.48
rw_cut_5_p1_1f_opt.xyz,Nucleus 24C :,1.191131,-2.16283,1.34994,22.76,118.46,-20.35,-29.82,234.63,263.62,267.99,-116.25,-287.34,-294.37,-29.82,-20.35,118.46,0,148.28,-0.87
rw_cut_5_p1_1f_opt.xyz,Nucleus 5N :,0.694368,-3.743452,3.252784,109.46,41.85,170.85,115.67,300.65,336.01,331.54,-130.11,-217.42,-292.3,41.85,115.67,170.85,0,129.0,0.14
rw_cut_5_p1_1f_opt.xyz,Nucleus 22N :,0.489006,-4.485786,3.899605,174.08,111.75,231.38,179.1,298.01,346.17,330.99,-220.51,-112.33,-120.1,111.75,179.1,231.38,0,119.63,0.13
rw_cut_5_p1_1f_opt.xyz,Nucleus 25N :,0.071491,-2.940064,3.229175,167.52,112.78,172.97,216.81,314.67,330.45,339.25,-210.77,-151.31,-119.73,112.78,172.97,216.81,0,104.03,0.16
rw_cut_5_p1_1f_opt.xyz,Nucleus 27N :,3.503097,-6.504054,3.354631,161.12,108.22,190.35,184.8,291.07,325.23,335.19,-100.96,-144.35,-222.81,108.22,184.8,190.35,0,82.13,0.86
rw_cut_5_p1_1f_opt.xyz,Nucleus 10F :,2.697532,-2.874435,0.907293,286.71,394.27,197.08,268.77,484.33,456.35,465.81,-71.07,-262.48,-212.84,197.08,268.77,394.27,0,197.19,-0.27
rw_cut_5_p1_1f_opt_disp_struct_0.xyz,Nucleus 1H :,0.963436,-0.037694,-1.311607,28.94,35.48,23.21,28.13,40.96,25.66,31.8,-0.81,-6.6,-4.18,23.21,28.13,35.48,0,12.27,-0.2
rw_cut_5_p1_1f_opt_disp_struct_0.xyz,Nucleus 2H :,1.771861,0.575686,-1.715415,28.94,23.99,28.42,34.42,48.33,28.66,26.42,2.15,-4.61,-14.12,23.99,28.42,34.42,0,10.43,-0.15
rw_cut_5_p1_1f_opt_disp_struct_0.xyz,Nucleus 6H :,1.131397,-1.072461,-1.629164,23.41,15.64,24.2,30.39,52.22,28.04,14.14,-22.33,-4.02,2.18,15.64,24.2,30.39,0,14.75,0.16
rw_cut_5_p1_1f_opt_disp_struct_0.xyz,Nucleus 12H :,0.893611,0.08523,0.167875,23.99,20.4,24.77,26.8,49.5,18.74,30.31,-25.13,2.43,-3.88,20.4,24.77,26.8,0,6.4,0.37
rw_cut_5_p1_1f_opt_disp_struct_0.xyz,Nucleus 14H :,1.679381,0.900459,0.959094,23.73,20.3,25.83,25.07,8.46,31.34,43.66,12.28,-5.55,-18.98,20.3,25.07,25.83,0,5.53,0.73
rw_cut_5_p1_1f_opt_disp_struct_0.xyz,Nucleus 16H :,1.303563,0.72871,2.263895,23.86,19.45,26.98,25.15,11.25,30.09,49.02,-24.32,-3.15,8.68,19.45,25.15,26.98,0,7.53,0.51
rw_cut_5_p1_1f_opt_disp_struct_0.xyz,Nucleus 17H :,1.685516,1.228929,3.049094,23.88,20.16,25.09,26.38,45.04,27.54,32.91,-19.72,-7.16,-6.97,20.16,25.09,26.38,0,6.22,0.58
rw_cut_5_p1_1f_opt_disp_struct_0.xyz,Nucleus 18H :,0.278966,-0.184654,2.347733,28.53,35.23,26.86,23.49,43.12,27.53,32.09,-0.52,-8.72,-7.92,23.49,26.86,35.23,0,11.74,-0.43
rw_cut_5_p1_1f_opt_disp_struct_0.xyz,Nucleus 20H :,-0.003253,-0.605327,1.045668,28.84,34.75,24.37,27.39,-1.19,17.96,38.96,27.43,8.05,-4.72,24.37,27.39,34.75,0,10.38,-0.42
rw_cut_5_p1_1f_opt_disp_struct_0.xyz,Nucleus 21H :,-1.032627,-1.550696,0.867668,28.8,35.47,26.76,24.17,0.41,17.97,39.87,26.3,7.17,-5.32,24.17,26.76,35.47,0,11.3,-0.54
rw_cut_5_p1_1f_opt_disp_struct_0.xyz,Nucleus 23H :,-1.352572,-1.990954,-0.3583,27.46,18.49,34.75,29.15,48.18,17.96,30.67,-13.66,1.87,-2.64,18.49,29.15,34.75,0,16.26,0.31
rw_cut_5_p1_1f_opt_disp_struct_0.xyz,Nucleus 26H :,-1.736981,-2.04536,1.96654,27.9,46.34,16.24,21.11,15.21,57.68,46.94,-31.8,6.74,-11.08,16.24,21.11,46.34,0,30.1,-0.68
rw_cut_5_p1_1f_opt_disp_struct_0.xyz,Nucleus 28H :,-2.533142,-2.760518,1.790905,27.32,19.99,27.72,34.26,0.06,23.89,52.96,-18.96,4.02,20.0,19.99,27.72,34.26,0,14.27,0.08
rw_cut_5_p1_1f_opt_disp_struct_0.xyz,Nucleus 29H :,-1.429259,-1.606459,3.251806,27.16,44.74,16.12,20.63,47.79,18.44,30.65,4.34,-14.58,-5.16,16.12,20.63,44.74,0,28.62,-0.68
rw_cut_5_p1_1f_opt_disp_struct_0.xyz,Nucleus 30H :,-2.007671,-1.969482,4.095292,28.45,35.76,26.02,23.57,-10.52,38.95,15.06,34.19,-3.21,10.89,23.57,26.02,35.76,0,12.19,-0.6
rw_cut_5_p1_1f_opt_disp_struct_0.xyz,Nucleus 31H :,-0.415061,-0.666269,3.466535,28.01,20.28,34.44,29.31,48.64,32.02,33.53,-21.25,-6.35,-2.55,20.28,29.31,34.44,0,14.16,0.28
rw_cut_5_p1_1f_opt_disp_struct_0.xyz,Nucleus 0C :,-0.189736,-0.311995,4.466699,171.3,160.41,166.59,186.89,261.11,236.92,239.96,-83.33,-73.51,-67.27,160.41,166.59,186.89,0,26.48,-0.53
rw_cut_5_p1_1f_opt_disp_struct_0.xyz,Nucleus 3C :,2.459454,1.592486,0.678151,61.36,148.95,50.56,-15.43,242.62,278.8,263.53,-93.82,-228.17,-278.88,-15.43,50.56,148.95,0,164.38,-0.2
rw_cut_5_p1_1f_opt_disp_struct_0.xyz,Nucleus 4C :,0.02922,0.285751,-1.782187,50.98,-36.2,129.14,60.01,277.73,258.65,257.04,-300.42,-129.16,-210.89,-36.2,60.01,129.14,0,165.34,0.16
rw_cut_5_p1_1f_opt_disp_struct_0.xyz,Nucleus 7C :,2.75557,-6.10581,3.490096,38.78,137.83,-36.17,14.69,273.67,263.67,265.91,-127.25,-309.27,-250.39,-36.17,14.69,137.83,0,174.0,-0.42
rw_cut_5_p1_1f_opt_disp_struct_0.xyz,Nucleus 8C :,2.743177,-5.698129,4.506086,62.05,163.69,26.54,-4.09,234.56,271.46,258.04,-71.21,-233.2,-273.51,-4.09,26.54,163.69,0,167.78,-0.63
rw_cut_5_p1_1f_opt_disp_struct_0.xyz,Nucleus 9C :,1.899579,-6.775862,3.345117,11.74,-65.81,76.66,24.37,238.51,266.56,273.47,-338.85,-162.21,-242.26,-65.81,24.37,76.66,0,142.47,0.27
rw_cut_5_p1_1f_opt_disp_struct_0.xyz,Nucleus 11C :,2.779244,-5.028615,2.503909,67.57,167.58,-17.73,52.86,234.8,264.18,275.62,-70.68,-283.44,-217.76,-17.73,52.86,167.58,0,185.31,-0.24
rw_cut_5_p1_1f_opt_disp_struct_0.xyz,Nucleus 13C :,3.413197,-5.127633,1.727989,55.29,175.67,41.37,-51.18,220.69,273.68,253.23,-46.69,-232.13,-302.92,-51.18,41.37,175.67,0,226.85,-0.18
rw_cut_5_p1_1f_opt_disp_struct_0.xyz,Nucleus 15C :,1.88286,-4.033622,2.427111,67.37,174.96,47.96,-20.8,236.23,272.7,265.48,-64.57,-224.36,-283.36,-20.8,47.96,174.96,0,195.76,-0.3
rw_cut_5_p1_1f_opt_disp_struct_0.xyz,Nucleus 19C :,2.01752,-3.113025,1.472188,155.51,131.11,146.47,188.94,201.42,213.02,265.93,-55.02,-85.04,-73.79,131.11,146.47,188.94,0,57.83,-0.47
rw_cut_5_p1_1f_opt_disp_struct_0.xyz,Nucleus 24C :,1.357487,-2.34793,1.373685,22.29,116.94,-18.89,-31.17,235.83,267.14,264.42,-118.95,-285.69,-295.86,-31.17,-18.89,116.94,0,148.11,-0.83
rw_cut_5_p1_1f_opt_disp_struct_0.xyz,Nucleus 5N :,0.860724,-3.928552,3.276529,110.94,44.22,170.67,117.92,300.34,335.93,331.53,-130.19,-215.45,-289.35,44.22,117.92,170.67,0,126.45,0.17
rw_cut_5_p1_1f_opt_disp_struct_0.xyz,Nucleus 22N :,0.655362,-4.670886,3.92335,172.67,108.86,229.74,179.4,296.36,346.05,330.8,-223.51,-112.62,-119.08,108.86,179.4,229.74,0,120.88,0.17
rw_cut_5_p1_1f_opt_disp_struct_0.xyz,Nucleus 25N :,0.237847,-3.125164,3.25292,171.31,114.21,175.18,224.54,315.41,330.42,338.24,-209.63,-149.62,-110.89,114.21,175.18,224.54,0,110.33,0.11
rw_cut_5_p1_1f_opt_disp_struct_0.xyz,Nucleus 27N :,3.669452,-6.689153,3.378376,167.24,112.63,196.79,192.31,288.27,325.1,335.27,-94.73,-135.66,-216.51,112.63,192.31,196.79,0,84.16,0.89
rw_cut_5_p1_1f_opt_disp_struct_0.xyz,Nucleus 10F :,2.863888,-3.059535,0.931038,289.21,395.01,201.1,271.52,485.23,456.57,465.8,-70.52,-258.65,-210.81,201.1,271.52,395.01,0,193.91,-0.27
rw_cut_5_p1_1f_opt_disp_struct_1.xyz,Nucleus 1H :,0.963436,-0.037694,-1.311607,28.95,35.41,23.25,28.19,40.93,25.66,31.95,-0.82,-6.58,-4.28,23.25,28.19,35.41,0,12.16,-0.19
rw_cut_5_p1_1f_opt_disp_struct_1.xyz,Nucleus 2H :,1.771861,0.575686,-1.715415,28.94,24.02,28.35,34.45,48.18,28.77,26.45,2.02,-4.69,-13.92,24.02,28.35,34.45,0,10.43,-0.17
rw_cut_5_p1_1f_opt_disp_struct_1.xyz,Nucleus 6H :,1.131397,-1.072461,-1.629164,23.47,15.72,24.3,30.4,52.26,28.14,14.22,-22.38,-3.98,2.16,15.72,24.3,30.4,0,14.68,0.17
rw_cut_5_p1_1f_opt_disp_struct_1.xyz,Nucleus 12H :,0.893611,0.08523,0.167875,24.03,20.47,24.73,26.88,49.59,18.81,30.82,-25.23,2.44,-4.36,20.47,24.73,26.88,0,6.41,0.33
rw_cut_5_p1_1f_opt_disp_struct_1.xyz,Nucleus 14H :,1.679381,0.900459,0.959094,23.76,20.31,25.97,24.99,8.88,31.63,43.72,11.83,-5.7,-19.09,20.31,24.99,25.97,0,5.66,0.65
rw_cut_5_p1_1f_opt_disp_struct_1.xyz,Nucleus 16H :,1.303563,0.72871,2.263895,23.89,19.52,27.07,25.09,11.51,30.17,49.12,-24.44,-3.14,8.47,19.52,25.09,27.07,0,7.55,0.48
rw_cut_5_p1_1f_opt_disp_struct_1.xyz,Nucleus 17H :,1.685516,1.228929,3.049094,23.92,20.23,25.12,26.42,45.1,27.55,33.05,-19.8,-6.98,-7.14,20.23,25.12,26.42,0,6.19,0.58
rw_cut_5_p1_1f_opt_disp_struct_1.xyz,Nucleus 18H :,0.278966,-0.184654,2.347733,28.53,35.18,26.87,23.54,43.01,27.61,31.95,-0.59,-8.52,-7.87,23.54,26.87,35.18,0,11.64,-0.43
rw_cut_5_p1_1f_opt_disp_struct_1.xyz,Nucleus 20H :,-0.003253,-0.605327,1.045668,28.79,34.7,24.36,27.32,-2.28,17.92,38.94,28.56,8.03,-4.8,24.36,27.32,34.7,0,10.34,-0.43
rw_cut_5_p1_1f_opt_disp_struct_1.xyz,Nucleus 21H :,-1.032627,-1.550696,0.867668,28.76,35.42,26.71,24.16,-0.7,17.93,39.9,27.46,7.14,-5.45,24.16,26.71,35.42,0,11.26,-0.55
rw_cut_5_p1_1f_opt_disp_struct_1.xyz,Nucleus 23H :,-1.352572,-1.990954,-0.3583,27.38,18.54,34.6,28.99,48.37,16.65,30.35,-14.0,3.04,-2.29,18.54,28.99,34.6,0,16.06,0.3
rw_cut_5_p1_1f_opt_disp_struct_1.xyz,Nucleus 26H :,-1.736981,-2.04536,1.96654,28.15,44.6,17.55,22.29,17.89,56.22,50.65,-34.28,4.82,-10.87,17.55,22.29,44.6,0,27.05,-0.65
rw_cut_5_p1_1f_opt_disp_struct_1.xyz,Nucleus 28H :,-2.533142,-2.760518,1.790905,27.25,19.89,27.55,34.31,-0.63,24.05,53.16,20.6,3.61,-19.04,19.89,27.55,34.31,0,14.42,0.06
rw_cut_5_p1_1f_opt_disp_struct_1.xyz,Nucleus 29H :,-1.429259,-1.606459,3.251806,27.41,42.76,17.43,22.03,46.39,21.46,33.99,-16.57,2.51,-5.55,17.43,22.03,42.76,0,25.33,-0.64
rw_cut_5_p1_1f_opt_disp_struct_1.xyz,Nucleus 30H :,-2.007671,-1.969482,4.095292,28.41,35.67,25.99,23.56,-12.02,38.85,14.74,35.67,-3.2,11.19,23.56,25.99,35.67,0,12.11,-0.6
rw_cut_5_p1_1f_opt_disp_struct_1.xyz,Nucleus 31H :,-0.415061,-0.666269,3.466535,27.9,20.35,34.54,28.82,48.92,31.33,34.06,-21.58,-6.72,-2.3,20.35,28.82,34.54,0,14.19,0.19
rw_cut_5_p1_1f_opt_disp_struct_1.xyz,Nucleus 0C :,-0.189736,-0.311995,4.466699,171.21,160.44,166.42,186.78,260.82,236.62,239.9,-83.1,-73.46,-67.15,160.44,166.42,186.78,0,26.34,-0.55
rw_cut_5_p1_1f_opt_disp_struct_1.xyz,Nucleus 3C :,2.459454,1.592486,0.678151,61.67,149.03,51.31,-15.33,241.27,278.24,263.38,-92.4,-226.9,-278.59,-15.33,51.31,149.03,0,164.36,-0.19
rw_cut_5_p1_1f_opt_disp_struct_1.xyz,Nucleus 4C :,0.02922,0.285751,-1.782187,51.93,-34.8,129.03,61.55,259.14,256.07,277.84,-298.96,-129.01,-209.3,-34.8,61.55,129.03,0,163.83,0.18
rw_cut_5_p1_1f_opt_disp_struct_1.xyz,Nucleus 7C :,2.921926,-6.29091,3.513842,38.84,137.7,-36.43,15.26,273.85,262.65,265.63,-126.49,-309.75,-249.35,-36.43,15.26,137.7,0,174.13,-0.41
rw_cut_5_p1_1f_opt_disp_struct_1.xyz,Nucleus 8C :,2.909533,-5.883229,4.529831,62.04,163.37,26.25,-3.51,234.87,272.66,259.03,-71.86,-234.74,-273.86,-3.51,26.25,163.37,0,166.88,-0.64
rw_cut_5_p1_1f_opt_disp_struct_1.xyz,Nucleus 9C :,2.065935,-6.960961,3.368863,12.06,-65.43,76.34,25.27,237.25,267.16,273.57,-338.69,-161.37,-241.74,-65.43,25.27,76.34,0,141.77,0.28
rw_cut_5_p1_1f_opt_disp_struct_1.xyz,Nucleus 11C :,2.9456,-5.213715,2.527654,68.56,167.3,-16.78,55.17,234.19,263.82,276.36,-70.17,-282.8,-215.71,-16.78,55.17,167.3,0,184.08,-0.22
rw_cut_5_p1_1f_opt_disp_struct_1.xyz,Nucleus 13C :,3.579553,-5.312733,1.751734,55.21,175.19,42.21,-51.76,220.83,274.16,253.74,-47.73,-231.76,-303.59,-51.76,42.21,175.19,0,226.95,-0.17
rw_cut_5_p1_1f_opt_disp_struct_1.xyz,Nucleus 15C :,2.049215,-4.218722,2.450856,68.5,174.72,50.64,-19.87,235.36,272.92,265.69,-64.41,-221.7,-282.38,-19.87,50.64,174.72,0,194.59,-0.28
rw_cut_5_p1_1f_opt_disp_struct_1.xyz,Nucleus 19C :,2.183876,-3.298125,1.495933,155.48,130.99,146.52,188.93,200.31,212.64,266.6,-53.86,-85.14,-74.09,130.99,146.52,188.93,0,57.94,-0.46
rw_cut_5_p1_1f_opt_disp_struct_1.xyz,Nucleus 24C :,1.523843,-2.53303,1.39743,22.04,116.13,-17.96,-32.06,236.43,266.62,265.13,-120.35,-284.52,-297.2,-32.06,-17.96,116.13,0,148.19,-0.81
rw_cut_5_p1_1f_opt_disp_struct_1.xyz,Nucleus 5N :,1.027079,-4.113652,3.300274,112.17,46.26,170.48,119.78,300.02,335.89,331.53,-130.22,-213.88,-286.82,46.26,119.78,170.48,0,124.22,0.18
rw_cut_5_p1_1f_opt_disp_struct_1.xyz,Nucleus 22N :,0.821718,-4.855985,3.947096,171.6,106.83,228.3,179.67,294.59,346.05,330.7,-225.73,-112.07,-118.74,106.83,179.67,228.3,0,121.47,0.2
rw_cut_5_p1_1f_opt_disp_struct_1.xyz,Nucleus 25N :,0.404203,-3.310263,3.276665,173.21,114.79,176.12,228.72,316.92,331.35,337.71,-209.49,-150.5,-106.36,114.79,176.12,228.72,0,113.93,0.08
rw_cut_5_p1_1f_opt_disp_struct_1.xyz,Nucleus 27N :,3.835808,-6.874253,3.402121,170.67,114.47,203.08,194.46,287.72,325.04,335.44,-92.28,-130.39,-213.51,114.47,194.46,203.08,0,88.61,0.81
rw_cut_5_p1_1f_opt_disp_struct_1.xyz,Nucleus 10F :,3.030244,-3.244635,0.954783,291.27,395.46,204.64,273.7,485.93,456.76,465.75,-70.21,-255.15,-209.27,204.64,273.7,395.46,0,190.82,-0.28
rw_cut_5_p1_1f_opt_disp_struct_10.xyz,Nucleus 1H :,0.963436,-0.037694,-1.311607,29.07,35.2,23.43,28.59,40.8,26.21,31.45,-6.78,-0.99,-3.48,23.43,28.59,35.2,0,11.77,-0.12
rw_cut_5_p1_1f_opt_disp_struct_10.xyz,Nucleus 2H :,1.771861,0.575686,-1.715415,28.89,24.02,27.95,34.71,47.01,28.57,26.06,-12.63,-4.22,1.9,24.02,27.95,34.71,0,10.69,-0.26
rw_cut_5_p1_1f_opt_disp_struct_10.xyz,Nucleus 6H :,1.131397,-1.072461,-1.629164,23.82,16.08,24.69,30.68,51.28,29.32,14.7,-21.06,-4.57,1.78,16.08,24.69,30.68,0,14.6,0.18
rw_cut_5_p1_1f_opt_disp_struct_10.xyz,Nucleus 12H :,0.893611,0.08523,0.167875,24.26,20.61,24.65,27.52,48.89,18.39,31.92,-24.32,2.5,-4.59,20.61,24.65,27.52,0,6.91,0.17
rw_cut_5_p1_1f_opt_disp_struct_10.xyz,Nucleus 14H :,1.679381,0.900459,0.959094,23.87,20.14,26.75,24.71,6.42,33.61,43.92,13.78,-6.89,-19.25,20.14,24.71,26.75,0,6.61,0.38
rw_cut_5_p1_1f_opt_disp_struct_10.xyz,Nucleus 16H :,1.303563,0.72871,2.263895,24.15,19.71,27.73,25.01,10.91,31.69,48.81,-23.92,-3.98,8.94,19.71,25.01,27.73,0,8.02,0.32
rw_cut_5_p1_1f_opt_disp_struct_10.xyz,Nucleus 17H :,1.685516,1.228929,3.049094,24.19,20.62,25.22,26.72,45.17,28.36,32.59,-19.85,-7.51,-6.19,20.62,25.22,26.72,0,6.1,0.51
rw_cut_5_p1_1f_opt_disp_struct_10.xyz,Nucleus 18H :,0.278966,-0.184654,2.347733,28.58,34.96,27.02,23.76,42.47,27.43,32.01,-0.54,-8.82,-6.81,23.76,27.02,34.96,0,11.2,-0.42
rw_cut_5_p1_1f_opt_disp_struct_10.xyz,Nucleus 20H :,-0.003253,-0.605327,1.045668,28.58,34.46,24.37,26.92,-10.24,17.28,39.12,36.9,8.32,-5.63,24.37,26.92,34.46,0,10.09,-0.49
rw_cut_5_p1_1f_opt_disp_struct_10.xyz,Nucleus 21H :,-1.032627,-1.550696,0.867668,28.59,35.17,26.45,24.14,-9.15,17.41,40.54,36.31,7.37,-6.72,24.14,26.45,35.17,0,11.03,-0.58
rw_cut_5_p1_1f_opt_disp_struct_10.xyz,Nucleus 23H :,-1.352572,-1.990954,-0.3583,26.97,18.65,34.01,28.24,4.86,50.17,28.55,-16.44,14.48,-0.71,18.65,28.24,34.01,0,15.36,0.25
rw_cut_5_p1_1f_opt_disp_struct_10.xyz,Nucleus 26H :,-1.736981,-2.04536,1.96654,26.99,37.37,23.79,19.8,73.15,26.72,47.4,-53.32,-10.28,-2.72,19.8,23.79,37.37,0,17.57,-0.55
rw_cut_5_p1_1f_opt_disp_struct_10.xyz,Nucleus 28H :,-2.533142,-2.760518,1.790905,26.74,19.81,26.57,33.83,-1.89,24.82,56.56,21.82,1.72,-22.82,19.81,26.57,33.83,0,14.02,-0.04
rw_cut_5_p1_1f_opt_disp_struct_10.xyz,Nucleus 29H :,-1.429259,-1.606459,3.251806,26.57,36.02,19.72,23.98,29.52,42.93,53.77,-33.89,-5.0,-7.6,19.72,23.98,36.02,0,16.3,-0.48
rw_cut_5_p1_1f_opt_disp_struct_10.xyz,Nucleus 30H :,-2.007671,-1.969482,4.095292,28.21,35.13,25.94,23.55,-24.6,38.33,11.89,48.25,-3.24,13.98,23.55,25.94,35.13,0,11.58,-0.59
rw_cut_5_p1_1f_opt_disp_struct_10.xyz,Nucleus 31H :,-0.415061,-0.666269,3.466535,27.2,34.58,26.36,20.65,51.75,28.13,36.35,-24.31,-9.03,-1.3,20.65,26.36,34.58,0,13.93,-0.18
rw_cut_5_p1_1f_opt_disp_struct_10.xyz,Nucleus 0C :,-0.189736,-0.311995,4.466699,170.85,186.59,160.52,165.43,259.01,236.91,238.76,-80.82,-74.37,-66.94,160.52,165.43,186.59,0,26.07,-0.62
rw_cut_5_p1_1f_opt_disp_struct_10.xyz,Nucleus 3C :,2.459454,1.592486,0.678151,61.89,149.07,52.21,-15.61,240.4,275.48,263.23,-91.38,-223.2,-278.87,-15.61,52.21,149.07,0,164.68,-0.18
rw_cut_5_p1_1f_opt_disp_struct_10.xyz,Nucleus 4C :,0.02922,0.285751,-1.782187,55.66,-29.63,128.31,68.31,260.38,255.84,275.67,-293.7,-130.27,-200.94,-29.63,68.31,128.31,0,157.94,0.24
rw_cut_5_p1_1f_opt_disp_struct_10.xyz,Nucleus 7C :,4.419129,-7.956806,3.727548,38.35,136.78,-38.72,16.98,273.02,263.8,264.97,-127.33,-311.48,-247.93,-38.72,16.98,136.78,0,175.5,-0.37
rw_cut_5_p1_1f_opt_disp_struct_10.xyz,Nucleus 8C :,4.406736,-7.549126,4.743537,60.64,162.48,23.13,-3.68,235.47,271.93,263.37,-73.46,-242.48,-272.91,-3.68,23.13,162.48,0,166.16,-0.68
rw_cut_5_p1_1f_opt_disp_struct_10.xyz,Nucleus 9C :,3.563138,-8.626858,3.582569,12.03,-65.99,74.85,27.23,233.12,267.5,270.16,-158.69,-240.0,-336.01,-65.99,27.23,74.85,0,140.84,0.32
rw_cut_5_p1_1f_opt_disp_struct_10.xyz,Nucleus 11C :,4.442803,-6.879611,2.74136,70.0,165.56,-15.37,59.81,236.24,263.32,275.78,-71.97,-281.78,-211.59,-15.37,59.81,165.56,0,180.93,-0.17
rw_cut_5_p1_1f_opt_disp_struct_10.xyz,Nucleus 13C :,5.076756,-6.978629,1.965441,52.97,173.22,41.76,-56.07,220.62,274.95,254.36,-47.51,-233.0,-310.52,-56.07,41.76,173.22,0,229.29,-0.15
rw_cut_5_p1_1f_opt_disp_struct_10.xyz,Nucleus 15C :,3.546419,-5.884619,2.664563,70.42,173.03,56.57,-18.33,237.42,272.98,265.53,-66.17,-215.85,-282.63,-18.33,56.57,173.03,0,191.36,-0.22
rw_cut_5_p1_1f_opt_disp_struct_10.xyz,Nucleus 19C :,3.681079,-4.964022,1.70964,155.25,130.5,146.6,188.66,191.12,208.58,272.14,-44.68,-75.07,-86.34,130.5,146.6,188.66,0,58.16,-0.45
rw_cut_5_p1_1f_opt_disp_struct_10.xyz,Nucleus 24C :,3.021046,-4.198926,1.611137,21.43,115.57,-16.74,-34.54,240.51,270.92,263.28,-124.99,-281.42,-304.03,-34.54,-16.74,115.57,0,150.11,-0.76
rw_cut_5_p1_1f_opt_disp_struct_10.xyz,Nucleus 5N :,2.524283,-5.779548,3.513981,116.88,54.25,169.3,127.09,300.31,335.45,331.25,-131.27,-207.72,-277.37,54.25,127.09,169.3,0,115.05,0.27
rw_cut_5_p1_1f_opt_disp_struct_10.xyz,Nucleus 22N :,2.318921,-6.521882,4.160802,168.04,100.84,222.48,180.8,279.04,348.53,330.48,-234.61,-97.18,-122.15,100.84,180.8,222.48,0,121.64,0.31
rw_cut_5_p1_1f_opt_disp_struct_10.xyz,Nucleus 25N :,1.901406,-4.97616,3.490372,174.71,114.54,176.23,233.36,321.34,345.33,335.4,-212.03,-163.79,-102.12,114.54,176.23,233.36,0,118.82,0.04
rw_cut_5_p1_1f_opt_disp_struct_10.xyz,Nucleus 27N :,5.333011,-8.54015,3.615828,174.48,115.44,212.38,195.61,296.04,340.28,324.4,-210.46,-99.18,-127.66,115.44,195.61,212.38,0,96.94,0.65
rw_cut_5_p1_1f_opt_disp_struct_10.xyz,Nucleus 10F :,4.527447,-4.910532,1.16849,298.78,396.55,217.59,282.21,487.07,459.08,465.92,-69.41,-242.45,-203.86,217.59,282.21,396.55,0,178.96,-0.28
rw_cut_5_p1_1f_opt_disp_struct_11.xyz,Nucleus 1H :,0.963436,-0.037694,-1.311607,29.08,35.2,23.43,28.62,40.78,26.23,31.39,-6.75,-0.98,-3.41,23.43,28.62,35.2,0,11.77,-0.12
rw_cut_5_p1_1f_opt_disp_struct_11.xyz,Nucleus 2H :,1.771861,0.575686,-1.715415,28.89,24.01,27.93,34.73,46.89,28.48,26.03,-12.52,-4.12,1.91,24.01,27.93,34.73,0,10.72,-0.27
rw_cut_5_p1_1f_opt_disp_struct_11.xyz,Nucleus 6H :,1.131397,-1.072461,-1.629164,23.84,16.09,24.71,30.71,51.15,29.39,14.71,-20.89,-4.61,1.76,16.09,24.71,30.71,0,14.62,0.18
rw_cut_5_p1_1f_opt_disp_struct_11.xyz,Nucleus 12H :,0.893611,0.08523,0.167875,24.27,20.6,24.65,27.55,48.74,18.36,31.87,-24.16,2.48,-4.49,20.6,24.65,27.55,0,6.95,0.16
rw_cut_5_p1_1f_opt_disp_struct_11.xyz,Nucleus 14H :,1.679381,0.900459,0.959094,23.87,20.12,26.78,24.72,6.32,33.61,43.91,13.85,-6.85,-19.21,20.12,24.72,26.78,0,6.66,0.38
rw_cut_5_p1_1f_opt_disp_struct_11.xyz,Nucleus 16H :,1.303563,0.72871,2.263895,24.16,19.71,27.76,25.02,10.87,31.75,48.71,-23.79,-4.01,8.96,19.71,25.02,27.76,0,8.05,0.32
rw_cut_5_p1_1f_opt_disp_struct_11.xyz,Nucleus 17H :,1.685516,1.228929,3.049094,24.2,20.64,25.23,26.74,45.13,28.38,32.55,-19.79,-7.54,-6.11,20.64,25.23,26.74,0,6.1,0.51
rw_cut_5_p1_1f_opt_disp_struct_11.xyz,Nucleus 18H :,0.278966,-0.184654,2.347733,28.59,34.95,27.04,23.78,42.44,27.39,32.03,-0.51,-8.87,-6.72,23.78,27.04,34.95,0,11.17,-0.42
rw_cut_5_p1_1f_opt_disp_struct_11.xyz,Nucleus 20H :,-0.003253,-0.605327,1.045668,28.57,34.46,24.37,26.89,-11.07,17.22,39.17,37.77,8.35,-5.72,24.37,26.89,34.46,0,10.09,-0.5
rw_cut_5_p1_1f_opt_disp_struct_11.xyz,Nucleus 21H :,-1.032627,-1.550696,0.867668,28.58,35.16,26.43,24.14,-10.05,17.36,40.63,37.24,7.4,-6.86,24.14,26.43,35.16,0,11.02,-0.59
rw_cut_5_p1_1f_opt_disp_struct_11.xyz,Nucleus 23H :,-1.352572,-1.990954,-0.3583,26.95,18.66,33.98,28.2,3.59,50.37,28.39,-16.68,15.74,-0.58,18.66,28.2,33.98,0,15.32,0.24
rw_cut_5_p1_1f_opt_disp_struct_11.xyz,Nucleus 26H :,-1.736981,-2.04536,1.96654,26.92,37.05,23.83,19.88,75.04,27.18,46.96,-55.13,-10.23,-3.07,19.88,23.83,37.05,0,17.17,-0.54
rw_cut_5_p1_1f_opt_disp_struct_11.xyz,Nucleus 28H :,-2.533142,-2.760518,1.790905,26.71,19.83,26.5,33.8,-1.93,24.88,56.98,21.86,1.59,-23.26,19.83,26.5,33.8,0,13.97,-0.05
rw_cut_5_p1_1f_opt_disp_struct_11.xyz,Nucleus 29H :,-1.429259,-1.606459,3.251806,26.52,35.78,19.78,24.0,29.89,42.85,55.56,-35.62,-5.46,-7.66,19.78,24.0,35.78,0,16.0,-0.47
rw_cut_5_p1_1f_opt_disp_struct_11.xyz,Nucleus 30H :,-2.007671,-1.969482,4.095292,28.19,35.09,25.94,23.54,-25.93,38.3,11.6,49.57,-3.24,14.28,23.54,25.94,35.09,0,11.55,-0.58
rw_cut_5_p1_1f_opt_disp_struct_11.xyz,Nucleus 31H :,-0.415061,-0.666269,3.466535,27.16,34.59,26.23,20.67,52.06,27.92,36.51,-24.62,-9.17,-1.2,20.67,26.23,34.59,0,13.92,-0.2
rw_cut_5_p1_1f_opt_disp_struct_11.xyz,Nucleus 0C :,-0.189736,-0.311995,4.466699,170.84,186.6,160.54,165.37,258.9,236.94,238.65,-80.65,-74.4,-66.94,160.54,165.37,186.6,0,26.06,-0.63
rw_cut_5_p1_1f_opt_disp_struct_11.xyz,Nucleus 3C :,2.459454,1.592486,0.678151,61.89,149.05,52.26,-15.63,240.36,275.22,263.2,-91.37,-222.87,-278.87,-15.63,52.26,149.05,0,164.68,-0.18
rw_cut_5_p1_1f_opt_disp_struct_11.xyz,Nucleus 4C :,0.02922,0.285751,-1.782187,55.81,-29.43,128.27,68.6,260.14,256.23,275.5,-293.56,-130.38,-200.49,-29.43,68.6,128.27,0,157.7,0.24
rw_cut_5_p1_1f_opt_disp_struct_11.xyz,Nucleus 7C :,4.585485,-8.141906,3.751293,38.33,136.74,-38.8,17.04,272.73,265.11,263.77,-127.42,-311.28,-247.93,-38.8,17.04,136.74,0,175.54,-0.36
rw_cut_5_p1_1f_opt_disp_struct_11.xyz,Nucleus 8C :,4.573092,-7.734226,4.767283,60.6,162.43,23.04,-3.67,235.46,271.24,263.52,-73.44,-242.5,-272.49,-3.67,23.04,162.43,0,166.1,-0.68
rw_cut_5_p1_1f_opt_disp_struct_11.xyz,Nucleus 9C :,3.729494,-8.811958,3.606314,11.99,-66.03,74.78,27.22,233.18,267.18,269.78,-158.74,-239.76,-335.67,-66.03,27.22,74.78,0,140.81,0.32
rw_cut_5_p1_1f_opt_disp_struct_11.xyz,Nucleus 11C :,4.609159,-7.064711,2.765106,69.99,165.47,-15.38,59.88,236.43,263.28,275.4,-72.11,-281.6,-211.42,-15.38,59.88,165.47,0,180.85,-0.17
rw_cut_5_p1_1f_opt_disp_struct_11.xyz,Nucleus 13C :,5.243112,-7.163729,1.989186,52.9,173.14,41.74,-56.17,220.41,274.76,254.42,-47.35,-232.83,-310.69,-56.17,41.74,173.14,0,229.31,-0.15
rw_cut_5_p1_1f_opt_disp_struct_11.xyz,Nucleus 15C :,3.712774,-6.069719,2.688308,70.43,172.95,56.67,-18.32,237.74,272.77,265.44,-66.37,-215.63,-282.64,-18.32,56.67,172.95,0,191.27,-0.22
rw_cut_5_p1_1f_opt_disp_struct_11.xyz,Nucleus 19C :,3.847435,-5.149121,1.733385,155.24,130.48,146.61,188.64,190.19,208.16,272.72,-43.74,-74.95,-86.65,130.48,146.61,188.64,0,58.16,-0.45
rw_cut_5_p1_1f_opt_disp_struct_11.xyz,Nucleus 24C :,3.187402,-4.384026,1.634882,21.39,115.58,-16.78,-34.62,240.82,271.38,263.1,-125.28,-281.34,-304.48,-34.62,-16.78,115.58,0,150.2,-0.76
rw_cut_5_p1_1f_opt_disp_struct_11.xyz,Nucleus 5N :,2.690638,-5.964648,3.537726,117.07,54.56,169.25,127.41,300.29,335.43,331.17,-131.24,-207.43,-277.01,54.56,127.41,169.25,0,114.69,0.27
rw_cut_5_p1_1f_opt_disp_struct_11.xyz,Nucleus 22N :,2.485277,-6.706982,4.184547,167.9,100.63,222.23,180.85,277.52,348.93,330.45,-235.2,-95.63,-122.36,100.63,180.85,222.23,0,121.6,0.32
rw_cut_5_p1_1f_opt_disp_struct_11.xyz,Nucleus 25N :,2.067762,-5.16126,3.514117,174.7,114.49,176.2,233.4,321.32,346.36,335.44,-212.16,-164.81,-102.07,114.49,176.2,233.4,0,118.91,0.04
rw_cut_5_p1_1f_opt_disp_struct_11.xyz,Nucleus 27N :,5.499367,-8.725249,3.639573,174.45,115.35,212.47,195.54,296.85,340.69,324.31,-210.44,-100.05,-128.0,115.35,195.54,212.47,0,97.12,0.65
rw_cut_5_p1_1f_opt_disp_struct_11.xyz,Nucleus 10F :,4.693803,-5.095631,1.192235,299.07,396.54,218.11,282.55,487.04,459.17,465.95,-69.43,-241.91,-203.61,218.11,282.55,396.54,0,178.43,-0.28
rw_cut_5_p1_1f_opt_disp_struct_12.xyz,Nucleus 1H :,0.963436,-0.037694,-1.311607,29.09,35.2,23.44,28.64,40.75,26.25,31.32,-6.73,-0.98,-3.34,23.44,28.64,35.2,0,11.76,-0.11
rw_cut_5_p1_1f_opt_disp_struct_12.xyz,Nucleus 2H :,1.771861,0.575686,-1.715415,28.88,23.99,27.92,34.74,46.76,28.4,26.0,-12.41,-4.03,1.92,23.99,27.92,34.74,0,10.75,-0.27
rw_cut_5_p1_1f_opt_disp_struct_12.xyz,Nucleus 6H :,1.131397,-1.072461,-1.629164,23.85,16.1,24.73,30.73,51.02,29.45,14.71,-20.73,-4.64,1.74,16.1,24.73,30.73,0,14.63,0.18
rw_cut_5_p1_1f_opt_disp_struct_12.xyz,Nucleus 12H :,0.893611,0.08523,0.167875,24.28,20.6,24.66,27.58,48.61,18.34,31.82,-23.99,2.48,-4.4,20.6,24.66,27.58,0,6.98,0.16
rw_cut_5_p1_1f_opt_disp_struct_12.xyz,Nucleus 14H :,1.679381,0.900459,0.959094,23.88,20.1,26.81,24.73,6.23,33.59,43.89,13.91,-6.8,-19.18,20.1,24.73,26.81,0,6.71,0.38
rw_cut_5_p1_1f_opt_disp_struct_12.xyz,Nucleus 16H :,1.303563,0.72871,2.263895,24.17,19.7,27.79,25.03,10.83,31.79,48.6,-23.67,-4.03,8.99,19.7,25.03,27.79,0,8.09,0.32
rw_cut_5_p1_1f_opt_disp_struct_12.xyz,Nucleus 17H :,1.685516,1.228929,3.049094,24.21,20.65,25.23,26.76,45.09,28.39,32.5,-19.74,-7.56,-6.04,20.65,25.23,26.76,0,6.11,0.5
rw_cut_5_p1_1f_opt_disp_struct_12.xyz,Nucleus 18H :,0.278966,-0.184654,2.347733,28.59,34.94,27.05,23.79,42.41,27.36,32.05,-0.48,-8.91,-6.64,23.79,27.05,34.94,0,11.15,-0.41
rw_cut_5_p1_1f_opt_disp_struct_12.xyz,Nucleus 20H :,-0.003253,-0.605327,1.045668,28.57,34.45,24.38,26.87,-11.9,17.16,39.22,38.63,8.4,-5.82,24.38,26.87,34.45,0,10.07,-0.51
rw_cut_5_p1_1f_opt_disp_struct_12.xyz,Nucleus 21H :,-1.032627,-1.550696,0.867668,28.57,35.15,26.41,24.14,-10.94,17.32,40.73,38.16,7.43,-7.0,24.14,26.41,35.15,0,11.01,-0.59
rw_cut_5_p1_1f_opt_disp_struct_12.xyz,Nucleus 23H :,-1.352572,-1.990954,-0.3583,26.93,18.67,33.96,28.16,2.33,50.58,28.24,-16.92,17.0,-0.45,18.67,28.16,33.96,0,15.29,0.24
rw_cut_5_p1_1f_opt_disp_struct_12.xyz,Nucleus 26H :,-1.736981,-2.04536,1.96654,26.86,36.77,23.86,19.94,76.88,27.61,46.58,-56.91,-10.2,-3.39,19.94,23.86,36.77,0,16.83,-0.53
rw_cut_5_p1_1f_opt_disp_struct_12.xyz,Nucleus 28H :,-2.533142,-2.760518,1.790905,26.69,19.84,26.44,33.78,-1.99,24.92,57.41,21.94,1.48,-23.71,19.84,26.44,33.78,0,13.94,-0.05
rw_cut_5_p1_1f_opt_disp_struct_12.xyz,Nucleus 29H :,-1.429259,-1.606459,3.251806,26.47,35.57,19.84,24.01,57.31,42.79,30.22,-37.31,-5.88,-7.71,19.84,24.01,35.57,0,15.73,-0.47
rw_cut_5_p1_1f_opt_disp_struct_12.xyz,Nucleus 30H :,-2.007671,-1.969482,4.095292,28.18,35.06,25.94,23.55,-27.25,38.27,11.31,50.89,-3.24,14.57,23.55,25.94,35.06,0,11.51,-0.58
rw_cut_5_p1_1f_opt_disp_struct_12.xyz,Nucleus 31H :,-0.415061,-0.666269,3.466535,27.13,34.6,26.11,20.69,52.36,27.71,36.65,-24.92,-9.3,-1.11,20.69,26.11,34.6,0,13.91,-0.22
rw_cut_5_p1_1f_opt_disp_struct_12.xyz,Nucleus 0C :,-0.189736,-0.311995,4.466699,170.83,186.62,160.55,165.32,258.79,236.99,238.56,-80.48,-74.43,-66.94,160.55,165.32,186.62,0,26.07,-0.63
rw_cut_5_p1_1f_opt_disp_struct_12.xyz,Nucleus 3C :,2.459454,1.592486,0.678151,61.9,149.04,52.3,-15.63,240.33,274.97,263.16,-91.34,-222.57,-278.84,-15.63,52.3,149.04,0,164.67,-0.17
rw_cut_5_p1_1f_opt_disp_struct_12.xyz,Nucleus 4C :,0.02922,0.285751,-1.782187,55.95,-29.25,128.22,68.87,259.91,256.59,275.34,-293.45,-130.48,-200.07,-29.25,68.87,128.22,0,157.47,0.25
rw_cut_5_p1_1f_opt_disp_struct_12.xyz,Nucleus 7C :,4.751841,-8.327006,3.775039,38.31,136.69,-38.86,17.09,272.47,265.26,263.71,-127.5,-311.1,-247.93,-38.86,17.09,136.69,0,175.55,-0.36
rw_cut_5_p1_1f_opt_disp_struct_12.xyz,Nucleus 8C :,4.739448,-7.919325,4.791028,60.57,162.4,22.97,-3.65,235.44,270.67,263.63,-73.4,-242.49,-272.12,-3.65,22.97,162.4,0,166.05,-0.68
rw_cut_5_p1_1f_opt_disp_struct_12.xyz,Nucleus 9C :,3.89585,-8.997057,3.63006,11.97,-66.05,74.72,27.23,233.23,266.91,269.45,-158.78,-239.54,-335.36,-66.05,27.23,74.72,0,140.77,0.33
rw_cut_5_p1_1f_opt_disp_struct_12.xyz,Nucleus 11C :,4.775515,-7.249811,2.788851,69.99,165.39,-15.38,59.95,236.59,263.24,275.07,-72.25,-281.43,-211.27,-15.38,59.95,165.39,0,180.77,-0.17
rw_cut_5_p1_1f_opt_disp_struct_12.xyz,Nucleus 13C :,5.409468,-7.348829,2.012931,52.85,173.06,41.74,-56.24,220.21,274.59,254.47,-47.22,-232.66,-310.82,-56.24,41.74,173.06,0,229.3,-0.15
rw_cut_5_p1_1f_opt_disp_struct_12.xyz,Nucleus 15C :,3.87913,-6.254818,2.712053,70.44,172.86,56.77,-18.31,238.01,272.59,265.34,-66.55,-215.43,-282.64,-18.31,56.77,172.86,0,191.17,-0.21
rw_cut_5_p1_1f_opt_disp_struct_12.xyz,Nucleus 19C :,4.013791,-5.334221,1.75713,155.23,130.46,146.61,188.62,189.28,207.74,273.29,-42.83,-74.8,-86.99,130.46,146.61,188.62,0,58.16,-0.44
rw_cut_5_p1_1f_opt_disp_struct_12.xyz,Nucleus 24C :,3.353758,-4.569126,1.658627,21.38,115.61,-16.8,-34.68,241.11,271.82,262.92,-125.54,-281.26,-304.93,-34.68,-16.8,115.61,0,150.29,-0.76
rw_cut_5_p1_1f_opt_disp_struct_12.xyz,Nucleus 5N :,2.856994,-6.149748,3.561471,117.21,54.79,169.19,127.65,300.24,335.43,331.08,-131.21,-207.21,-276.69,54.79,127.65,169.19,0,114.4,0.27
rw_cut_5_p1_1f_opt_disp_struct_12.xyz,Nucleus 22N :,2.651633,-6.892081,4.208293,167.79,100.45,222.02,180.89,276.03,349.34,330.42,-235.77,-94.11,-122.53,100.45,180.89,222.02,0,121.57,0.32
rw_cut_5_p1_1f_opt_disp_struct_12.xyz,Nucleus 25N :,2.234118,-5.346359,3.537863,174.69,114.45,176.18,233.43,321.31,347.41,335.5,-212.3,-165.82,-102.05,114.45,176.18,233.43,0,118.98,0.04
rw_cut_5_p1_1f_opt_disp_struct_12.xyz,Nucleus 27N :,5.665723,-8.910349,3.663318,174.43,115.27,212.54,195.49,297.59,341.1,324.23,-210.44,-100.84,-128.34,115.27,195.49,212.54,0,97.27,0.65
rw_cut_5_p1_1f_opt_disp_struct_12.xyz,Nucleus 10F :,4.860159,-5.280731,1.21598,299.34,396.55,218.55,282.91,487.0,459.23,465.98,-69.44,-241.45,-203.3,218.55,282.91,396.55,0,178.0,-0.28
rw_cut_5_p1_1f_opt_disp_struct_13.xyz,Nucleus 1H :,0.963436,-0.037694,-1.311607,29.1,35.2,23.44,28.66,40.74,26.26,31.25,-6.71,-0.97,-3.26,23.44,28.66,35.2,0,11.76,-0.11
rw_cut_5_p1_1f_opt_disp_struct_13.xyz,Nucleus 2H :,1.771861,0.575686,-1.715415,28.88,23.97,27.91,34.75,46.64,28.32,25.98,-12.31,-3.94,1.93,23.97,27.91,34.75,0,10.78,-0.27
rw_cut_5_p1_1f_opt_disp_struct_13.xyz,Nucleus 6H :,1.131397,-1.072461,-1.629164,23.87,16.1,24.75,30.75,50.9,29.5,14.71,-20.58,-4.65,1.72,16.1,24.75,30.75,0,14.65,0.18
rw_cut_5_p1_1f_opt_disp_struct_13.xyz,Nucleus 12H :,0.893611,0.08523,0.167875,24.29,20.59,24.68,27.6,48.48,18.31,31.76,-23.84,2.47,-4.31,20.59,24.68,27.6,0,7.01,0.17
rw_cut_5_p1_1f_opt_disp_struct_13.xyz,Nucleus 14H :,1.679381,0.900459,0.959094,23.89,20.09,26.84,24.74,6.16,33.55,43.87,13.96,-6.74,-19.14,20.09,24.74,26.84,0,6.75,0.38
rw_cut_5_p1_1f_opt_disp_struct_13.xyz,Nucleus 16H :,1.303563,0.72871,2.263895,24.18,19.69,27.81,25.04,10.79,31.82,48.5,-23.54,-4.03,9.01,19.69,25.04,27.81,0,8.12,0.32
rw_cut_5_p1_1f_opt_disp_struct_13.xyz,Nucleus 17H :,1.685516,1.228929,3.049094,24.23,20.66,25.24,26.78,45.06,28.4,32.45,-19.7,-7.57,-5.96,20.66,25.24,26.78,0,6.12,0.5
rw_cut_5_p1_1f_opt_disp_struct_13.xyz,Nucleus 18H :,0.278966,-0.184654,2.347733,28.6,34.94,27.07,23.8,42.38,27.33,32.05,-0.45,-8.95,-6.55,23.8,27.07,34.94,0,11.14,-0.41
rw_cut_5_p1_1f_opt_disp_struct_13.xyz,Nucleus 20H :,-0.003253,-0.605327,1.045668,28.55,34.44,24.38,26.84,-12.72,17.1,39.27,39.49,8.44,-5.91,24.38,26.84,34.44,0,10.06,-0.51
rw_cut_5_p1_1f_opt_disp_struct_13.xyz,Nucleus 21H :,-1.032627,-1.550696,0.867668,28.56,35.14,26.4,24.14,-11.82,17.27,40.83,39.07,7.46,-7.14,24.14,26.4,35.14,0,11.0,-0.59
rw_cut_5_p1_1f_opt_disp_struct_13.xyz,Nucleus 23H :,-1.352572,-1.990954,-0.3583,26.91,18.67,33.94,28.12,1.07,50.78,28.1,18.24,-17.14,-0.32,18.67,28.12,33.94,0,15.27,0.24
rw_cut_5_p1_1f_opt_disp_struct_13.xyz,Nucleus 26H :,-1.736981,-2.04536,1.96654,26.81,36.53,23.89,20.0,78.7,27.99,46.24,-58.67,-10.18,-3.66,20.0,23.89,36.53,0,16.53,-0.53
rw_cut_5_p1_1f_opt_disp_struct_13.xyz,Nucleus 28H :,-2.533142,-2.760518,1.790905,26.66,19.84,26.38,33.76,-2.08,24.96,57.85,22.04,1.39,-24.17,19.84,26.38,33.76,0,13.92,-0.06
rw_cut_5_p1_1f_opt_disp_struct_13.xyz,Nucleus 29H :,-1.429259,-1.606459,3.251806,26.43,35.39,19.89,24.02,59.02,42.75,30.53,-38.97,-6.27,-7.75,19.89,24.02,35.39,0,15.5,-0.47
rw_cut_5_p1_1f_opt_disp_struct_13.xyz,Nucleus 30H :,-2.007671,-1.969482,4.095292,28.18,35.03,25.95,23.55,-28.57,38.24,11.01,52.21,-3.24,14.87,23.55,25.95,35.03,0,11.48,-0.58
rw_cut_5_p1_1f_opt_disp_struct_13.xyz,Nucleus 31H :,-0.415061,-0.666269,3.466535,27.1,34.61,26.0,20.7,52.65,27.53,36.78,-25.21,-9.42,-1.02,20.7,26.0,34.61,0,13.91,-0.24
rw_cut_5_p1_1f_opt_disp_struct_13.xyz,Nucleus 0C :,-0.189736,-0.311995,4.466699,170.82,186.63,160.57,165.27,258.68,237.04,238.47,-80.33,-74.46,-66.94,160.57,165.27,186.63,0,26.06,-0.64
rw_cut_5_p1_1f_opt_disp_struct_13.xyz,Nucleus 3C :,2.459454,1.592486,0.678151,61.92,149.03,52.35,-15.63,240.3,274.74,263.12,-91.31,-222.29,-278.8,-15.63,52.35,149.03,0,164.66,-0.17
rw_cut_5_p1_1f_opt_disp_struct_13.xyz,Nucleus 4C :,0.02922,0.285751,-1.782187,56.06,-29.1,128.18,69.11,259.7,256.91,275.18,-293.36,-130.57,-199.69,-29.1,69.11,128.18,0,157.28,0.25
rw_cut_5_p1_1f_opt_disp_struct_13.xyz,Nucleus 7C :,4.918197,-8.512105,3.798784,38.29,136.65,-38.92,17.13,272.23,265.4,263.65,-127.58,-310.92,-247.92,-38.92,17.13,136.65,0,175.57,-0.36
rw_cut_5_p1_1f_opt_disp_struct_13.xyz,Nucleus 8C :,4.905804,-8.104425,4.814773,60.56,162.38,22.92,-3.63,235.4,270.18,263.73,-73.36,-242.48,-271.8,-3.63,22.92,162.38,0,166.01,-0.68
rw_cut_5_p1_1f_opt_disp_struct_13.xyz,Nucleus 9C :,4.062205,-9.182157,3.653805,11.95,-66.07,74.67,27.24,233.28,266.67,269.15,-158.83,-239.35,-335.08,-66.07,27.24,74.67,0,140.74,0.33
rw_cut_5_p1_1f_opt_disp_struct_13.xyz,Nucleus 11C :,4.941871,-7.43491,2.812596,69.98,165.32,-15.38,60.01,236.74,263.2,274.76,-72.37,-281.26,-211.13,-15.38,60.01,165.32,0,180.7,-0.17
rw_cut_5_p1_1f_opt_disp_struct_13.xyz,Nucleus 13C :,5.575824,-7.533928,2.036676,52.82,172.99,41.75,-56.28,220.04,274.42,254.51,-47.11,-232.5,-310.91,-56.28,41.75,172.99,0,229.27,-0.14
rw_cut_5_p1_1f_opt_disp_struct_13.xyz,Nucleus 15C :,4.045486,-6.439918,2.735799,70.45,172.79,56.85,-18.3,238.27,272.42,265.24,-66.72,-215.24,-282.64,-18.3,56.85,172.79,0,191.09,-0.21
rw_cut_5_p1_1f_opt_disp_struct_13.xyz,Nucleus 19C :,4.180146,-5.519321,1.780876,155.22,130.44,146.61,188.6,188.37,207.32,273.87,-41.93,-74.62,-87.36,130.44,146.61,188.6,0,58.16,-0.44
rw_cut_5_p1_1f_opt_disp_struct_13.xyz,Nucleus 24C :,3.520113,-4.754225,1.682372,21.35,115.63,-16.83,-34.74,241.4,272.25,262.77,-125.81,-281.19,-305.35,-34.74,-16.83,115.63,0,150.37,-0.76
rw_cut_5_p1_1f_opt_disp_struct_13.xyz,Nucleus 5N :,3.02335,-6.334847,3.585216,117.33,55.0,169.13,127.86,300.17,335.43,330.98,-131.17,-207.04,-276.39,55.0,127.86,169.13,0,114.13,0.28
rw_cut_5_p1_1f_opt_disp_struct_13.xyz,Nucleus 22N :,2.817988,-7.077181,4.232038,167.69,100.3,221.84,180.92,274.56,349.75,330.39,-236.32,-92.62,-122.69,100.3,180.92,221.84,0,121.54,0.33
rw_cut_5_p1_1f_opt_disp_struct_13.xyz,Nucleus 25N :,2.400474,-5.531459,3.561608,174.68,114.42,176.17,233.45,321.29,348.47,335.59,-212.45,-166.83,-102.04,114.42,176.17,233.45,0,119.03,0.04
rw_cut_5_p1_1f_opt_disp_struct_13.xyz,Nucleus 27N :,5.832079,-9.095449,3.687063,174.42,115.2,212.6,195.46,298.27,341.51,324.17,-210.46,-101.55,-128.68,115.2,195.46,212.6,0,97.4,0.65
rw_cut_5_p1_1f_opt_disp_struct_13.xyz,Nucleus 10F :,5.026515,-5.465831,1.239725,299.57,396.56,218.92,283.22,486.95,459.27,466.0,-69.46,-241.06,-203.01,218.92,283.22,396.56,0,177.64,-0.28
rw_cut_5_p1_1f_opt_disp_struct_14.xyz,Nucleus 1H :,0.963436,-0.037694,-1.311607,29.11,35.2,23.45,28.68,40.72,26.27,31.17,-6.69,-0.95,-3.19,23.45,28.68,35.2,0,11.75,-0.11
rw_cut_5_p1_1f_opt_disp_struct_14.xyz,Nucleus 2H :,1.771861,0.575686,-1.715415,28.87,23.95,27.9,34.76,46.53,28.25,25.95,-12.22,-3.85,1.95,23.95,27.9,34.76,0,10.81,-0.27
rw_cut_5_p1_1f_opt_disp_struct_14.xyz,Nucleus 6H :,1.131397,-1.072461,-1.629164,23.88,16.11,24.77,30.76,50.78,29.55,14.7,-20.43,-4.67,1.71,16.11,24.77,30.76,0,14.65,0.18
rw_cut_5_p1_1f_opt_disp_struct_14.xyz,Nucleus 12H :,0.893611,0.08523,0.167875,24.3,20.58,24.69,27.62,48.35,18.29,31.71,-23.69,2.46,-4.23,20.58,24.69,27.62,0,7.04,0.17
rw_cut_5_p1_1f_opt_disp_struct_14.xyz,Nucleus 14H :,1.679381,0.900459,0.959094,23.9,20.07,26.86,24.76,6.1,33.5,43.85,14.01,-6.67,-19.11,20.07,24.76,26.86,0,6.79,0.38
rw_cut_5_p1_1f_opt_disp_struct_14.xyz,Nucleus 16H :,1.303563,0.72871,2.263895,24.19,19.69,27.83,25.05,10.76,31.84,48.4,-23.42,-4.03,9.03,19.69,25.05,27.83,0,8.14,0.32
rw_cut_5_p1_1f_opt_disp_struct_14.xyz,Nucleus 17H :,1.685516,1.228929,3.049094,24.23,20.67,25.24,26.79,45.03,28.41,32.4,-19.65,-7.58,-5.89,20.67,25.24,26.79,0,6.12,0.5
rw_cut_5_p1_1f_opt_disp_struct_14.xyz,Nucleus 18H :,0.278966,-0.184654,2.347733,28.61,34.93,27.08,23.81,42.36,27.3,32.06,-0.43,-8.98,-6.47,23.81,27.08,34.93,0,11.12,-0.41
rw_cut_5_p1_1f_opt_disp_struct_14.xyz,Nucleus 20H :,-0.003253,-0.605327,1.045668,28.54,34.43,24.38,26.82,-13.55,17.03,39.33,40.34,8.49,-6.01,24.38,26.82,34.43,0,10.05,-0.51
rw_cut_5_p1_1f_opt_disp_struct_14.xyz,Nucleus 21H :,-1.032627,-1.550696,0.867668,28.55,35.13,26.38,24.14,-12.7,17.22,40.93,39.98,7.5,-7.28,24.14,26.38,35.13,0,10.99,-0.59
rw_cut_5_p1_1f_opt_disp_struct_14.xyz,Nucleus 23H :,-1.352572,-1.990954,-0.3583,26.9,18.68,33.92,28.09,-0.18,50.98,27.96,19.49,-17.36,-0.2,18.68,28.09,33.92,0,15.24,0.23
rw_cut_5_p1_1f_opt_disp_struct_14.xyz,Nucleus 26H :,-1.736981,-2.04536,1.96654,26.76,36.32,23.91,20.06,80.48,28.34,45.94,-60.4,-10.16,-3.91,20.06,23.91,36.32,0,16.26,-0.53
rw_cut_5_p1_1f_opt_disp_struct_14.xyz,Nucleus 28H :,-2.533142,-2.760518,1.790905,26.64,33.75,26.33,19.85,-2.18,24.99,58.29,22.15,1.31,-24.62,19.85,26.33,33.75,0,13.9,-0.07
rw_cut_5_p1_1f_opt_disp_struct_14.xyz,Nucleus 29H :,-1.429259,-1.606459,3.251806,26.4,35.24,19.93,24.02,60.7,42.72,30.8,-40.62,-6.62,-7.79,19.93,24.02,35.24,0,15.31,-0.47
rw_cut_5_p1_1f_opt_disp_struct_14.xyz,Nucleus 30H :,-2.007671,-1.969482,4.095292,28.17,35.0,25.95,23.55,-29.88,38.21,10.72,53.52,-3.24,15.17,23.55,25.95,35.0,0,11.45,-0.58
rw_cut_5_p1_1f_opt_disp_struct_14.xyz,Nucleus 31H :,-0.415061,-0.666269,3.466535,27.07,34.61,25.9,20.71,52.94,27.36,36.89,-25.5,-9.54,-0.94,20.71,25.9,34.61,0,13.9,-0.25
rw_cut_5_p1_1f_opt_disp_struct_14.xyz,Nucleus 0C :,-0.189736,-0.311995,4.466699,170.82,186.65,160.58,165.23,258.58,237.09,238.4,-80.18,-74.48,-66.94,160.58,165.23,186.65,0,26.07,-0.64
rw_cut_5_p1_1f_opt_disp_struct_14.xyz,Nucleus 3C :,2.459454,1.592486,0.678151,61.93,149.02,52.39,-15.63,240.26,274.54,263.08,-91.29,-222.04,-278.77,-15.63,52.39,149.02,0,164.65,-0.17
rw_cut_5_p1_1f_opt_disp_struct_14.xyz,Nucleus 4C :,0.02922,0.285751,-1.782187,56.16,-28.97,128.14,69.31,259.51,257.19,275.04,-293.28,-130.63,-199.34,-28.97,69.31,128.14,0,157.11,0.25
rw_cut_5_p1_1f_opt_disp_struct_14.xyz,Nucleus 7C :,5.084553,-8.697205,3.822529,38.27,136.61,-38.96,17.17,272.02,265.54,263.59,-127.66,-310.76,-247.91,-38.96,17.17,136.61,0,175.57,-0.36
rw_cut_5_p1_1f_opt_disp_struct_14.xyz,Nucleus 8C :,5.07216,-8.289525,4.838518,60.54,162.36,22.88,-3.61,235.37,269.76,263.8,-73.32,-242.47,-271.5,-3.61,22.88,162.36,0,165.97,-0.68
rw_cut_5_p1_1f_opt_disp_struct_14.xyz,Nucleus 9C :,4.228561,-9.367257,3.67755,11.92,-66.09,74.62,27.24,233.33,266.47,268.88,-158.89,-239.19,-334.83,-66.09,27.24,74.62,0,140.71,0.33
rw_cut_5_p1_1f_opt_disp_struct_14.xyz,Nucleus 11C :,5.108227,-7.62001,2.836341,69.97,165.25,-15.38,60.05,236.88,263.16,274.47,-72.48,-281.11,-211.0,-15.38,60.05,165.25,0,180.63,-0.16
rw_cut_5_p1_1f_opt_disp_struct_14.xyz,Nucleus 13C :,5.74218,-7.719028,2.060421,52.79,172.93,41.75,-56.32,219.89,274.26,254.54,-47.0,-232.33,-310.99,-56.32,41.75,172.93,0,229.25,-0.14
rw_cut_5_p1_1f_opt_disp_struct_14.xyz,Nucleus 15C :,4.211842,-6.625017,2.759544,70.45,172.72,56.92,-18.29,238.48,272.28,265.14,-66.86,-215.07,-282.62,-18.29,56.92,172.72,0,191.01,-0.21
rw_cut_5_p1_1f_opt_disp_struct_14.xyz,Nucleus 19C :,4.346502,-5.70442,1.804621,155.21,130.42,146.62,188.58,187.48,206.91,274.44,-41.04,-74.41,-87.76,130.42,146.62,188.58,0,58.16,-0.44
rw_cut_5_p1_1f_opt_disp_struct_14.xyz,Nucleus 24C :,3.686469,-4.939325,1.706117,21.33,115.65,-16.86,-34.79,241.69,272.67,262.62,-126.08,-281.13,-305.76,-34.79,-16.86,115.65,0,150.44,-0.76
rw_cut_5_p1_1f_opt_disp_struct_14.xyz,Nucleus 5N :,3.189706,-6.519947,3.608961,117.43,55.17,169.07,128.04,300.11,335.44,330.88,-131.15,-206.9,-276.1,55.17,128.04,169.07,0,113.9,0.28
rw_cut_5_p1_1f_opt_disp_struct_14.xyz,Nucleus 22N :,2.984344,-7.262281,4.255783,167.6,100.17,221.68,180.95,273.1,350.18,330.36,-236.85,-91.15,-122.82,100.17,180.95,221.68,0,121.51,0.33
rw_cut_5_p1_1f_opt_disp_struct_14.xyz,Nucleus 25N :,2.56683,-5.716559,3.585353,174.67,114.38,176.16,233.47,321.27,349.53,335.68,-212.62,-167.81,-102.05,114.38,176.16,233.47,0,119.09,0.04
rw_cut_5_p1_1f_opt_disp_struct_14.xyz,Nucleus 27N :,5.998435,-9.280548,3.710809,174.41,115.13,212.66,195.43,298.89,341.91,324.11,-210.48,-102.2,-129.02,115.13,195.43,212.66,0,97.53,0.65
rw_cut_5_p1_1f_opt_disp_struct_14.xyz,Nucleus 10F :,5.192871,-5.65093,1.263471,299.76,396.56,219.24,283.49,486.89,459.31,466.03,-69.48,-240.72,-202.74,219.24,283.49,396.56,0,177.32,-0.28
rw_cut_5_p1_1f_opt_disp_struct_15.xyz,Nucleus 1H :,0.963436,-0.037694,-1.311607,29.12,35.2,23.45,28.7,40.71,26.28,31.09,-6.68,-0.94,-3.11,23.45,28.7,35.2,0,11.75,-0.11
rw_cut_5_p1_1f_opt_disp_struct_15.xyz,Nucleus 2H :,1.771861,0.575686,-1.715415,28.86,23.93,27.89,34.76,46.42,28.17,25.93,-12.13,-3.76,1.96,23.93,27.89,34.76,0,10.83,-0.27
rw_cut_5_p1_1f_opt_disp_struct_15.xyz,Nucleus 6H :,1.131397,-1.072461,-1.629164,23.89,16.11,24.79,30.78,50.66,14.7,29.58,-20.3,-4.68,1.7,16.11,24.79,30.78,0,14.67,0.18
rw_cut_5_p1_1f_opt_disp_struct_15.xyz,Nucleus 12H :,0.893611,0.08523,0.167875,24.3,20.57,24.7,27.64,48.24,18.27,31.67,-23.56,2.45,-4.16,20.57,24.7,27.64,0,7.07,0.17
rw_cut_5_p1_1f_opt_disp_struct_15.xyz,Nucleus 14H :,1.679381,0.900459,0.959094,23.9,20.06,26.88,24.77,6.04,33.45,43.84,14.05,-6.59,-19.07,20.06,24.77,26.88,0,6.82,0.38
rw_cut_5_p1_1f_opt_disp_struct_15.xyz,Nucleus 16H :,1.303563,0.72871,2.263895,24.2,19.68,27.85,25.06,10.72,31.86,48.3,-23.31,-4.02,9.05,19.68,25.06,27.85,0,8.17,0.32
rw_cut_5_p1_1f_opt_disp_struct_15.xyz,Nucleus 17H :,1.685516,1.228929,3.049094,24.25,20.68,25.25,26.81,45.0,28.41,32.34,-19.61,-7.59,-5.81,20.68,25.25,26.81,0,6.13,0.49
rw_cut_5_p1_1f_opt_disp_struct_15.xyz,Nucleus 18H :,0.278966,-0.184654,2.347733,28.62,34.93,27.09,23.83,42.34,27.27,32.05,-0.4,-9.01,-6.4,23.83,27.09,34.93,0,11.1,-0.41
rw_cut_5_p1_1f_opt_disp_struct_15.xyz,Nucleus 20H :,-0.003253,-0.605327,1.045668,28.53,34.42,24.38,26.8,-14.37,16.97,39.39,41.2,8.54,-6.11,24.38,26.8,34.42,0,10.04,-0.52
rw_cut_5_p1_1f_opt_disp_struct_15.xyz,Nucleus 21H :,-1.032627,-1.550696,0.867668,28.54,35.12,26.37,24.14,-13.59,17.18,41.04,40.89,7.54,-7.42,24.14,26.37,35.12,0,10.98,-0.59
rw_cut_5_p1_1f_opt_disp_struct_15.xyz,Nucleus 23H :,-1.352572,-1.990954,-0.3583,26.88,18.68,33.91,28.06,-1.43,51.18,27.83,20.73,-17.58,-0.08,18.68,28.06,33.91,0,15.23,0.23
rw_cut_5_p1_1f_opt_disp_struct_15.xyz,Nucleus 26H :,-1.736981,-2.04536,1.96654,26.73,36.14,23.94,20.1,82.25,28.67,45.68,-62.12,-10.16,-4.14,20.1,23.94,36.14,0,16.04,-0.52
rw_cut_5_p1_1f_opt_disp_struct_15.xyz,Nucleus 28H :,-2.533142,-2.760518,1.790905,26.63,33.73,26.29,19.86,58.73,25.02,-2.3,-25.08,1.23,22.28,19.86,26.29,33.73,0,13.87,-0.07
rw_cut_5_p1_1f_opt_disp_struct_15.xyz,Nucleus 29H :,-1.429259,-1.606459,3.251806,26.37,35.11,19.97,24.03,62.37,42.7,31.06,-42.24,-6.95,-7.83,19.97,24.03,35.11,0,15.14,-0.46
rw_cut_5_p1_1f_opt_disp_struct_15.xyz,Nucleus 30H :,-2.007671,-1.969482,4.095292,28.16,34.98,25.95,23.55,-31.19,38.19,10.42,54.83,-3.24,15.46,23.55,25.95,34.98,0,11.43,-0.58
rw_cut_5_p1_1f_opt_disp_struct_15.xyz,Nucleus 31H :,-0.415061,-0.666269,3.466535,27.06,34.62,25.82,20.73,53.23,27.2,37.0,-25.77,-9.64,-0.85,20.73,25.82,34.62,0,13.89,-0.27
rw_cut_5_p1_1f_opt_disp_struct_15.xyz,Nucleus 0C :,-0.189736,-0.311995,4.466699,170.81,186.66,160.59,165.19,258.48,237.14,238.32,-80.04,-74.51,-66.95,160.59,165.19,186.66,0,26.07,-0.65
rw_cut_5_p1_1f_opt_disp_struct_15.xyz,Nucleus 3C :,2.459454,1.592486,0.678151,61.94,149.01,52.43,-15.62,240.23,274.35,263.04,-91.27,-221.81,-278.73,-15.62,52.43,149.01,0,164.63,-0.17
rw_cut_5_p1_1f_opt_disp_struct_15.xyz,Nucleus 4C :,0.02922,0.285751,-1.782187,56.24,-28.86,128.1,69.49,274.91,259.35,257.41,-293.21,-130.69,-199.03,-28.86,69.49,128.1,0,156.96,0.25
rw_cut_5_p1_1f_opt_disp_struct_15.xyz,Nucleus 7C :,5.250909,-8.882305,3.846274,38.26,136.57,-39.0,17.2,271.84,265.66,263.53,-127.74,-310.62,-247.89,-39.0,17.2,136.57,0,175.57,-0.36
rw_cut_5_p1_1f_opt_disp_struct_15.xyz,Nucleus 8C :,5.238516,-8.474624,4.862263,60.53,162.34,22.85,-3.6,235.33,269.41,263.85,-73.28,-242.47,-271.24,-3.6,22.85,162.34,0,165.94,-0.68
rw_cut_5_p1_1f_opt_disp_struct_15.xyz,Nucleus 9C :,4.394917,-9.552356,3.701295,11.91,-66.1,74.58,27.24,233.37,266.31,268.65,-158.94,-239.06,-334.61,-66.1,27.24,74.58,0,140.68,0.33
rw_cut_5_p1_1f_opt_disp_struct_15.xyz,Nucleus 11C :,5.274583,-7.80511,2.860086,69.97,165.2,-15.38,60.09,236.99,263.11,274.23,-72.57,-280.96,-210.89,-15.38,60.09,165.2,0,180.58,-0.16
rw_cut_5_p1_1f_opt_disp_struct_15.xyz,Nucleus 13C :,5.908536,-7.904128,2.084166,52.76,172.88,41.76,-56.35,219.75,274.11,254.57,-46.91,-232.17,-311.05,-56.35,41.76,172.88,0,229.23,-0.14
rw_cut_5_p1_1f_opt_disp_struct_15.xyz,Nucleus 15C :,4.378198,-6.810117,2.783289,70.45,172.67,56.98,-18.29,238.66,272.15,265.05,-66.98,-214.91,-282.61,-18.29,56.98,172.67,0,190.96,-0.21
rw_cut_5_p1_1f_opt_disp_struct_15.xyz,Nucleus 19C :,4.512858,-5.88952,1.828366,155.2,130.41,146.62,188.57,186.61,206.49,275.02,-40.17,-74.18,-88.18,130.41,146.62,188.57,0,58.16,-0.44
rw_cut_5_p1_1f_opt_disp_struct_15.xyz,Nucleus 24C :,3.852825,-5.124425,1.729863,21.32,115.67,-16.88,-34.83,241.98,273.08,262.49,-126.36,-281.08,-306.16,-34.83,-16.88,115.67,0,150.5,-0.76
rw_cut_5_p1_1f_opt_disp_struct_15.xyz,Nucleus 5N :,3.356062,-6.705047,3.632707,117.51,55.32,169.02,128.19,300.05,335.45,330.78,-131.12,-206.8,-275.82,55.32,128.19,169.02,0,113.7,0.28
rw_cut_5_p1_1f_opt_disp_struct_15.xyz,Nucleus 22N :,3.1507,-7.44738,4.279528,167.53,100.06,221.54,180.98,271.66,350.6,330.32,-237.36,-89.69,-122.94,100.06,180.98,221.54,0,121.48,0.33
rw_cut_5_p1_1f_opt_disp_struct_15.xyz,Nucleus 25N :,2.733186,-5.901658,3.609098,174.66,114.35,176.15,233.49,321.25,350.57,335.78,-212.79,-168.76,-102.06,114.35,176.15,233.49,0,119.14,0.04
rw_cut_5_p1_1f_opt_disp_struct_15.xyz,Nucleus 27N :,6.164791,-9.465648,3.734554,174.39,115.07,212.7,195.4,299.48,342.31,324.06,-210.52,-102.81,-129.35,115.07,195.4,212.7,0,97.63,0.65
rw_cut_5_p1_1f_opt_disp_struct_15.xyz,Nucleus 10F :,5.359227,-5.83603,1.287216,299.93,396.57,219.5,283.72,486.82,459.33,466.06,-69.5,-240.43,-202.5,219.5,283.72,396.57,0,177.07,-0.27
rw_cut_5_p1_1f_opt_disp_struct_16.xyz,Nucleus 1H :,0.963436,-0.037694,-1.311607,29.12,35.2,23.45,28.72,40.69,26.29,31.01,-6.66,-0.92,-3.04,23.45,28.72,35.2,0,11.75,-0.1
rw_cut_5_p1_1f_opt_disp_struct_16.xyz,Nucleus 2H :,1.771861,0.575686,-1.715415,28.86,23.92,27.88,34.77,46.31,28.1,25.9,-12.05,-3.67,1.98,23.92,27.88,34.77,0,10.85,-0.27
rw_cut_5_p1_1f_opt_disp_struct_16.xyz,Nucleus 6H :,1.131397,-1.072461,-1.629164,23.9,16.11,24.8,30.79,50.55,14.7,29.61,-20.17,-4.68,1.69,16.11,24.8,30.79,0,14.68,0.18
rw_cut_5_p1_1f_opt_disp_struct_16.xyz,Nucleus 12H :,0.893611,0.08523,0.167875,24.31,20.56,24.71,27.66,48.13,18.25,31.62,-23.43,2.45,-4.09,20.56,24.71,27.66,0,7.1,0.17
rw_cut_5_p1_1f_opt_disp_struct_16.xyz,Nucleus 14H :,1.679381,0.900459,0.959094,23.91,20.05,26.9,24.78,5.99,33.38,43.82,14.09,-6.51,-19.05,20.05,24.78,26.9,0,6.85,0.38
rw_cut_5_p1_1f_opt_disp_struct_16.xyz,Nucleus 16H :,1.303563,0.72871,2.263895,24.2,19.67,27.87,25.07,10.69,31.86,48.21,-23.21,-4.01,9.06,19.67,25.07,27.87,0,8.2,0.32
rw_cut_5_p1_1f_opt_disp_struct_16.xyz,Nucleus 17H :,1.685516,1.228929,3.049094,24.25,20.69,25.25,26.82,44.97,28.41,32.29,-19.58,-7.59,-5.74,20.69,25.25,26.82,0,6.13,0.49
rw_cut_5_p1_1f_opt_disp_struct_16.xyz,Nucleus 18H :,0.278966,-0.184654,2.347733,28.62,34.93,27.1,23.83,42.31,27.24,32.05,-0.38,-9.03,-6.32,23.83,27.1,34.93,0,11.1,-0.41
rw_cut_5_p1_1f_opt_disp_struct_16.xyz,Nucleus 20H :,-0.003253,-0.605327,1.045668,28.53,34.42,24.39,26.78,-15.2,16.9,39.45,42.06,8.6,-6.22,24.39,26.78,34.42,0,10.03,-0.52
rw_cut_5_p1_1f_opt_disp_struct_16.xyz,Nucleus 21H :,-1.032627,-1.550696,0.867668,28.54,35.11,26.36,24.14,-14.47,17.13,41.15,41.8,7.58,-7.57,24.14,26.36,35.11,0,10.97,-0.6
rw_cut_5_p1_1f_opt_disp_struct_16.xyz,Nucleus 23H :,-1.352572,-1.990954,-0.3583,26.88,18.69,33.9,28.04,-2.68,51.38,27.7,21.98,-17.79,0.04,18.69,28.04,33.9,0,15.21,0.23
rw_cut_5_p1_1f_opt_disp_struct_16.xyz,Nucleus 26H :,-1.736981,-2.04536,1.96654,26.69,35.98,23.96,20.14,84.0,28.98,45.44,-63.83,-10.17,-4.34,20.14,23.96,35.98,0,15.84,-0.52
rw_cut_5_p1_1f_opt_disp_struct_16.xyz,Nucleus 28H :,-2.533142,-2.760518,1.790905,26.61,33.72,26.24,19.87,59.17,25.04,-2.44,-25.53,1.17,22.42,19.87,26.24,33.72,0,13.85,-0.08
rw_cut_5_p1_1f_opt_disp_struct_16.xyz,Nucleus 29H :,-1.429259,-1.606459,3.251806,26.34,34.99,20.01,24.03,64.01,42.69,31.3,-43.86,-7.87,-7.25,20.01,24.03,34.99,0,14.98,-0.46
rw_cut_5_p1_1f_opt_disp_struct_16.xyz,Nucleus 30H :,-2.007671,-1.969482,4.095292,28.15,34.96,25.95,23.55,-32.49,38.17,10.12,56.15,-3.24,15.76,23.55,25.95,34.96,0,11.41,-0.58
rw_cut_5_p1_1f_opt_disp_struct_16.xyz,Nucleus 31H :,-0.415061,-0.666269,3.466535,27.03,34.62,25.74,20.74,53.51,27.05,37.09,-26.04,-9.74,-0.78,20.74,25.74,34.62,0,13.88,-0.28
rw_cut_5_p1_1f_opt_disp_struct_16.xyz,Nucleus 0C :,-0.189736,-0.311995,4.466699,170.81,186.67,160.61,165.15,258.39,237.19,238.26,-79.9,-74.54,-66.95,160.61,165.15,186.67,0,26.06,-0.65
rw_cut_5_p1_1f_opt_disp_struct_16.xyz,Nucleus 3C :,2.459454,1.592486,0.678151,61.95,149.0,52.47,-15.61,240.21,274.18,263.01,-91.25,-221.6,-278.69,-15.61,52.47,149.0,0,164.61,-0.17
rw_cut_5_p1_1f_opt_disp_struct_16.xyz,Nucleus 4C :,0.02922,0.285751,-1.782187,56.32,-28.75,128.06,69.65,274.8,259.2,257.6,-293.16,-130.73,-198.75,-28.75,69.65,128.06,0,156.81,0.26
rw_cut_5_p1_1f_opt_disp_struct_16.xyz,Nucleus 7C :,5.417265,-9.067404,3.870019,38.25,136.54,-39.03,17.23,271.68,265.76,263.49,-127.82,-310.49,-247.87,-39.03,17.23,136.54,0,175.57,-0.36
rw_cut_5_p1_1f_opt_disp_struct_16.xyz,Nucleus 8C :,5.404871,-8.659724,4.886009,60.52,162.32,22.82,-3.58,235.28,269.11,263.89,-73.24,-242.46,-271.02,-3.58,22.82,162.32,0,165.9,-0.68
rw_cut_5_p1_1f_opt_disp_struct_16.xyz,Nucleus 9C :,4.561273,-9.737456,3.72504,11.89,-66.11,74.55,27.24,233.41,266.18,268.44,-158.99,-238.94,-334.42,-66.11,27.24,74.55,0,140.66,0.33
rw_cut_5_p1_1f_opt_disp_struct_16.xyz,Nucleus 11C :,5.440938,-7.990209,2.883831,69.96,165.15,-15.38,60.12,237.09,263.07,274.01,-72.66,-280.84,-210.79,-15.38,60.12,165.15,0,180.53,-0.16
rw_cut_5_p1_1f_opt_disp_struct_16.xyz,Nucleus 13C :,6.074891,-8.089227,2.107912,52.74,172.83,41.77,-56.38,219.62,273.96,254.59,-46.82,-232.02,-311.09,-56.38,41.77,172.83,0,229.21,-0.14
rw_cut_5_p1_1f_opt_disp_struct_16.xyz,Nucleus 15C :,4.544554,-6.995217,2.807034,70.45,172.61,57.03,-18.28,238.81,272.04,264.95,-67.09,-214.77,-282.59,-18.28,57.03,172.61,0,190.89,-0.21
rw_cut_5_p1_1f_opt_disp_struct_16.xyz,Nucleus 19C :,4.679214,-6.07462,1.852111,155.19,130.39,146.62,188.55,185.74,206.08,275.6,-39.3,-73.93,-88.62,130.39,146.62,188.55,0,58.16,-0.44
rw_cut_5_p1_1f_opt_disp_struct_16.xyz,Nucleus 24C :,4.019181,-5.309524,1.753608,21.31,115.69,-16.9,-34.86,242.28,273.48,262.37,-126.64,-281.03,-306.55,-34.86,-16.9,115.69,0,150.55,-0.76
rw_cut_5_p1_1f_opt_disp_struct_16.xyz,Nucleus 5N :,3.522418,-6.890146,3.656452,117.58,55.45,168.98,128.32,300.0,335.46,330.68,-131.11,-206.71,-275.57,55.45,128.32,168.98,0,113.53,0.28
rw_cut_5_p1_1f_opt_disp_struct_16.xyz,Nucleus 22N :,3.317056,-7.63248,4.303273,167.46,99.96,221.42,181.01,270.22,351.03,330.27,-237.86,-88.24,-123.04,99.96,181.01,221.42,0,121.46,0.33
rw_cut_5_p1_1f_opt_disp_struct_16.xyz,Nucleus 25N :,2.899542,-6.086758,3.632843,174.66,114.33,176.14,233.51,351.61,321.23,335.9,-212.97,-169.69,-102.09,114.33,176.14,233.51,0,119.18,0.04
rw_cut_5_p1_1f_opt_disp_struct_16.xyz,Nucleus 27N :,6.331147,-9.650748,3.758299,174.38,115.01,212.74,195.38,300.05,342.69,324.02,-210.57,-103.39,-129.67,115.01,195.38,212.74,0,97.73,0.64
rw_cut_5_p1_1f_opt_disp_struct_16.xyz,Nucleus 10F :,5.525583,-6.02113,1.310961,300.07,396.57,219.73,283.92,486.75,459.35,466.08,-69.52,-240.17,-202.27,219.73,283.92,396.57,0,176.84,-0.27
rw_cut_5_p1_1f_opt_disp_struct_17.xyz,Nucleus 1H :,0.963436,-0.037694,-1.311607,29.13,35.2,23.45,28.73,40.68,26.29,30.93,-6.65,-0.9,-2.97,23.45,28.73,35.2,0,11.75,-0.1
rw_cut_5_p1_1f_opt_disp_struct_17.xyz,Nucleus 2H :,1.771861,0.575686,-1.715415,28.85,23.9,27.87,34.78,46.21,28.02,25.88,-11.98,-3.58,2.0,23.9,27.87,34.78,0,10.88,-0.27
rw_cut_5_p1_1f_opt_disp_struct_17.xyz,Nucleus 6H :,1.131397,-1.072461,-1.629164,23.91,16.11,24.81,30.8,50.44,14.71,29.63,-20.04,-4.69,1.67,16.11,24.81,30.8,0,14.69,0.18
rw_cut_5_p1_1f_opt_disp_struct_17.xyz,Nucleus 12H :,0.893611,0.08523,0.167875,24.31,20.55,24.72,27.67,48.02,18.23,31.58,-23.31,2.45,-4.03,20.55,24.72,27.67,0,7.12,0.17
rw_cut_5_p1_1f_opt_disp_struct_17.xyz,Nucleus 14H :,1.679381,0.900459,0.959094,23.91,20.04,26.91,24.79,5.94,33.32,43.8,14.12,-6.43,-19.02,20.04,24.79,26.91,0,6.87,0.38
rw_cut_5_p1_1f_opt_disp_struct_17.xyz,Nucleus 16H :,1.303563,0.72871,2.263895,24.21,19.67,27.88,25.08,10.66,31.86,48.12,-23.1,-3.99,9.08,19.67,25.08,27.88,0,8.21,0.32
rw_cut_5_p1_1f_opt_disp_struct_17.xyz,Nucleus 17H :,1.685516,1.228929,3.049094,24.26,20.69,25.26,26.83,44.94,28.42,32.24,-19.54,-7.6,-5.67,20.69,25.26,26.83,0,6.14,0.49
rw_cut_5_p1_1f_opt_disp_struct_17.xyz,Nucleus 18H :,0.278966,-0.184654,2.347733,28.63,34.93,27.11,23.84,42.3,27.22,32.04,-0.36,-9.05,-6.25,23.84,27.11,34.93,0,11.09,-0.41
rw_cut_5_p1_1f_opt_disp_struct_17.xyz,Nucleus 20H :,-0.003253,-0.605327,1.045668,28.52,34.41,24.39,26.77,-16.03,16.83,39.52,42.91,8.66,-6.32,24.39,26.77,34.41,0,10.02,-0.52
rw_cut_5_p1_1f_opt_disp_struct_17.xyz,Nucleus 21H :,-1.032627,-1.550696,0.867668,28.53,35.11,26.35,24.14,-15.36,17.07,41.27,42.7,7.63,-7.71,24.14,26.35,35.11,0,10.97,-0.6
rw_cut_5_p1_1f_opt_disp_struct_17.xyz,Nucleus 23H :,-1.352572,-1.990954,-0.3583,26.86,18.69,33.89,28.01,-3.93,51.57,27.58,23.23,-18.0,0.15,18.69,28.01,33.89,0,15.2,0.23
rw_cut_5_p1_1f_opt_disp_struct_17.xyz,Nucleus 26H :,-1.736981,-2.04536,1.96654,26.67,35.84,23.98,20.18,85.73,29.26,45.24,-65.53,-10.18,-4.53,20.18,23.98,35.84,0,15.66,-0.52
rw_cut_5_p1_1f_opt_disp_struct_17.xyz,Nucleus 28H :,-2.533142,-2.760518,1.790905,26.6,33.71,26.2,19.88,59.62,25.06,-2.58,-25.99,1.11,22.57,19.88,26.2,33.71,0,13.83,-0.09
rw_cut_5_p1_1f_opt_disp_struct_17.xyz,Nucleus 29H :,-1.429259,-1.606459,3.251806,26.32,34.89,20.04,24.03,65.65,42.69,31.52,-45.46,-7.94,-7.5,20.04,24.03,34.89,0,14.85,-0.46
rw_cut_5_p1_1f_opt_disp_struct_17.xyz,Nucleus 30H :,-2.007671,-1.969482,4.095292,28.15,34.93,25.95,23.56,-33.8,38.15,9.82,57.45,-3.24,16.06,23.56,25.95,34.93,0,11.37,-0.58
rw_cut_5_p1_1f_opt_disp_struct_17.xyz,Nucleus 31H :,-0.415061,-0.666269,3.466535,27.02,34.63,25.67,20.75,53.79,26.92,37.17,-26.3,-9.83,-0.7,20.75,25.67,34.63,0,13.88,-0.29
rw_cut_5_p1_1f_opt_disp_struct_17.xyz,Nucleus 0C :,-0.189736,-0.311995,4.466699,170.81,186.69,160.62,165.12,258.3,237.23,238.19,-79.77,-74.57,-66.95,160.62,165.12,186.69,0,26.07,-0.65
rw_cut_5_p1_1f_opt_disp_struct_17.xyz,Nucleus 3C :,2.459454,1.592486,0.678151,61.96,149.0,52.5,-15.61,240.19,274.02,262.98,-91.24,-221.41,-278.65,-15.61,52.5,149.0,0,164.61,-0.17
rw_cut_5_p1_1f_opt_disp_struct_17.xyz,Nucleus 4C :,0.02922,0.285751,-1.782187,56.38,-28.67,128.03,69.79,274.69,259.08,257.75,-293.11,-130.77,-198.5,-28.67,69.79,128.03,0,156.7,0.26
rw_cut_5_p1_1f_opt_disp_struct_17.xyz,Nucleus 7C :,5.583621,-9.252504,3.893765,38.24,136.51,-39.05,17.26,271.54,265.85,263.45,-127.89,-310.38,-247.85,-39.05,17.26,136.51,0,175.56,-0.36
rw_cut_5_p1_1f_opt_disp_struct_17.xyz,Nucleus 8C :,5.571227,-8.844824,4.909754,60.51,162.31,22.79,-3.56,235.24,268.84,263.91,-73.2,-242.45,-270.8,-3.56,22.79,162.31,0,165.87,-0.68
rw_cut_5_p1_1f_opt_disp_struct_17.xyz,Nucleus 9C :,4.727629,-9.922556,3.748786,11.88,-66.11,74.51,27.25,233.44,266.06,268.25,-159.03,-238.83,-334.24,-66.11,27.25,74.51,0,140.62,0.33
rw_cut_5_p1_1f_opt_disp_struct_17.xyz,Nucleus 11C :,5.607294,-8.175309,2.907577,69.95,165.1,-15.39,60.15,237.18,263.03,273.8,-72.73,-280.71,-210.7,-15.39,60.15,165.1,0,180.49,-0.16
rw_cut_5_p1_1f_opt_disp_struct_17.xyz,Nucleus 13C :,6.241247,-8.274327,2.131657,52.72,172.79,41.78,-56.4,219.5,273.82,254.6,-46.74,-231.88,-311.13,-56.4,41.78,172.79,0,229.19,-0.14
rw_cut_5_p1_1f_opt_disp_struct_17.xyz,Nucleus 15C :,4.71091,-7.180316,2.830779,70.45,172.57,57.07,-18.28,238.94,271.94,264.86,-67.18,-214.63,-282.57,-18.28,57.07,172.57,0,190.85,-0.21
rw_cut_5_p1_1f_opt_disp_struct_17.xyz,Nucleus 19C :,4.84557,-6.259719,1.875856,155.18,130.38,146.62,188.54,184.87,205.67,276.17,-38.43,-73.66,-89.08,130.38,146.62,188.54,0,58.16,-0.44
rw_cut_5_p1_1f_opt_disp_struct_17.xyz,Nucleus 24C :,4.185537,-5.494624,1.777353,21.29,115.7,-16.93,-34.9,242.58,273.88,262.26,-126.92,-280.98,-306.93,-34.9,-16.93,115.7,0,150.6,-0.76
rw_cut_5_p1_1f_opt_disp_struct_17.xyz,Nucleus 5N :,3.688774,-7.075246,3.680197,117.64,55.56,168.94,128.43,299.95,335.48,330.57,-131.1,-206.64,-275.33,55.56,128.43,168.94,0,113.38,0.29
rw_cut_5_p1_1f_opt_disp_struct_17.xyz,Nucleus 22N :,3.483412,-7.81758,4.327018,167.41,99.88,221.31,181.03,268.78,351.47,330.23,-238.34,-86.79,-123.13,99.88,181.03,221.31,0,121.43,0.34
rw_cut_5_p1_1f_opt_disp_struct_17.xyz,Nucleus 25N :,3.065898,-6.271858,3.656588,174.65,114.3,176.13,233.53,352.63,321.2,336.01,-213.17,-170.6,-102.12,114.3,176.13,233.53,0,119.23,0.04
rw_cut_5_p1_1f_opt_disp_struct_17.xyz,Nucleus 27N :,6.497503,-9.835847,3.782044,174.37,114.96,212.77,195.37,300.59,343.07,323.99,-210.62,-103.94,-129.98,114.96,195.37,212.77,0,97.81,0.64
rw_cut_5_p1_1f_opt_disp_struct_17.xyz,Nucleus 10F :,5.691939,-6.206229,1.334706,300.2,396.57,219.93,284.09,486.68,459.36,466.1,-69.54,-239.95,-202.07,219.93,284.09,396.57,0,176.64,-0.27
rw_cut_5_p1_1f_opt_disp_struct_18.xyz,Nucleus 1H :,0.963436,-0.037694,-1.311607,29.14,35.21,23.46,28.74,40.67,26.29,30.85,-6.63,-0.87,-2.91,23.46,28.74,35.21,0,11.75,-0.1
rw_cut_5_p1_1f_opt_disp_struct_18.xyz,Nucleus 2H :,1.771861,0.575686,-1.715415,28.85,23.89,27.87,34.78,46.12,27.95,25.85,-11.91,-3.49,2.02,23.89,27.87,34.78,0,10.89,-0.27
rw_cut_5_p1_1f_opt_disp_struct_18.xyz,Nucleus 6H :,1.131397,-1.072461,-1.629164,23.91,16.11,24.82,30.81,50.34,14.71,29.66,-19.92,-4.69,1.66,16.11,24.82,30.81,0,14.7,0.19
rw_cut_5_p1_1f_opt_disp_struct_18.xyz,Nucleus 12H :,0.893611,0.08523,0.167875,24.32,20.55,24.73,27.68,47.92,18.22,31.54,-23.19,2.45,-3.97,20.55,24.73,27.68,0,7.13,0.17
rw_cut_5_p1_1f_opt_disp_struct_18.xyz,Nucleus 14H :,1.679381,0.900459,0.959094,23.92,20.03,26.93,24.79,5.9,33.25,43.78,14.16,-6.34,-18.99,20.03,24.79,26.93,0,6.9,0.38
rw_cut_5_p1_1f_opt_disp_struct_18.xyz,Nucleus 16H :,1.303563,0.72871,2.263895,24.21,19.66,27.89,25.08,10.63,31.86,48.03,-23.0,-3.97,9.1,19.66,25.08,27.89,0,8.23,0.32
rw_cut_5_p1_1f_opt_disp_struct_18.xyz,Nucleus 17H :,1.685516,1.228929,3.049094,24.27,20.7,25.26,26.84,44.91,28.42,32.19,-19.5,-7.61,-5.6,20.7,25.26,26.84,0,6.14,0.48
rw_cut_5_p1_1f_opt_disp_struct_18.xyz,Nucleus 18H :,0.278966,-0.184654,2.347733,28.63,34.92,27.13,23.85,42.28,27.19,32.03,-0.34,-9.07,-6.19,23.85,27.13,34.92,0,11.07,-0.41
rw_cut_5_p1_1f_opt_disp_struct_18.xyz,Nucleus 20H :,-0.003253,-0.605327,1.045668,28.52,34.41,24.39,26.75,-16.86,16.76,39.58,43.77,8.72,-6.42,24.39,26.75,34.41,0,10.02,-0.53
rw_cut_5_p1_1f_opt_disp_struct_18.xyz,Nucleus 21H :,-1.032627,-1.550696,0.867668,28.53,35.1,26.34,24.14,-16.24,17.02,41.38,43.61,7.67,-7.86,24.14,26.34,35.1,0,10.96,-0.6
rw_cut_5_p1_1f_opt_disp_struct_18.xyz,Nucleus 23H :,-1.352572,-1.990954,-0.3583,26.86,18.7,33.88,27.99,-5.18,51.76,27.45,24.47,-18.21,0.26,18.7,27.99,33.88,0,15.18,0.22
rw_cut_5_p1_1f_opt_disp_struct_18.xyz,Nucleus 26H :,-1.736981,-2.04536,1.96654,26.64,35.72,23.99,20.21,87.45,29.53,45.05,-67.22,-10.2,-4.69,20.21,23.99,35.72,0,15.51,-0.51
rw_cut_5_p1_1f_opt_disp_struct_18.xyz,Nucleus 28H :,-2.533142,-2.760518,1.790905,26.58,33.7,26.17,19.88,60.07,25.07,-2.73,-26.44,1.06,22.73,19.88,26.17,33.7,0,13.82,-0.09
rw_cut_5_p1_1f_opt_disp_struct_18.xyz,Nucleus 29H :,-1.429259,-1.606459,3.251806,26.3,34.8,20.06,24.03,67.27,42.69,31.73,-47.06,-8.07,-7.68,20.06,24.03,34.8,0,14.74,-0.46
rw_cut_5_p1_1f_opt_disp_struct_18.xyz,Nucleus 30H :,-2.007671,-1.969482,4.095292,28.14,34.92,25.95,23.56,-35.1,38.13,9.52,58.76,-3.24,16.36,23.56,25.95,34.92,0,11.36,-0.58
rw_cut_5_p1_1f_opt_disp_struct_18.xyz,Nucleus 31H :,-0.415061,-0.666269,3.466535,27.0,34.64,25.61,20.76,54.07,26.79,37.24,-26.55,-9.91,-0.63,20.76,25.61,34.64,0,13.88,-0.3
rw_cut_5_p1_1f_opt_disp_struct_18.xyz,Nucleus 0C :,-0.189736,-0.311995,4.466699,170.81,186.7,160.63,165.09,258.21,237.27,238.13,-79.65,-74.59,-66.95,160.63,165.09,186.7,0,26.07,-0.66
rw_cut_5_p1_1f_opt_disp_struct_18.xyz,Nucleus 3C :,2.459454,1.592486,0.678151,61.98,148.99,52.54,-15.6,240.17,273.87,262.95,-91.23,-221.22,-278.62,-15.6,52.54,148.99,0,164.59,-0.17
rw_cut_5_p1_1f_opt_disp_struct_18.xyz,Nucleus 4C :,0.02922,0.285751,-1.782187,56.44,-28.59,128.0,69.91,274.6,258.96,257.89,-293.07,-130.79,-198.26,-28.59,69.91,128.0,0,156.59,0.26
rw_cut_5_p1_1f_opt_disp_struct_18.xyz,Nucleus 7C :,5.749976,-9.437604,3.91751,38.23,136.48,-39.08,17.28,271.4,265.94,263.41,-127.96,-310.27,-247.83,-39.08,17.28,136.48,0,175.56,-0.36
rw_cut_5_p1_1f_opt_disp_struct_18.xyz,Nucleus 8C :,5.737583,-9.029923,4.933499,60.5,162.3,22.76,-3.55,235.2,268.59,263.94,-73.16,-242.44,-270.6,-3.55,22.76,162.3,0,165.85,-0.68
rw_cut_5_p1_1f_opt_disp_struct_18.xyz,Nucleus 9C :,4.893985,-10.107655,3.772531,11.88,-66.12,74.49,27.26,233.47,265.96,268.07,-159.08,-238.73,-334.07,-66.12,27.26,74.49,0,140.61,0.33
rw_cut_5_p1_1f_opt_disp_struct_18.xyz,Nucleus 11C :,5.77365,-8.360409,2.931322,69.95,165.06,-15.39,60.18,237.26,262.99,273.61,-72.8,-280.6,-210.61,-15.39,60.18,165.06,0,180.45,-0.16
rw_cut_5_p1_1f_opt_disp_struct_18.xyz,Nucleus 13C :,6.407603,-8.459427,2.155402,52.7,172.75,41.78,-56.42,219.39,273.68,254.61,-46.67,-231.73,-311.16,-56.42,41.78,172.75,0,229.17,-0.14
rw_cut_5_p1_1f_opt_disp_struct_18.xyz,Nucleus 15C :,4.877266,-7.365416,2.854525,70.46,172.53,57.11,-18.27,239.06,271.84,264.77,-67.26,-214.5,-282.55,-18.27,57.11,172.53,0,190.8,-0.21
rw_cut_5_p1_1f_opt_disp_struct_18.xyz,Nucleus 19C :,5.011926,-6.444819,1.899601,155.18,130.37,146.63,188.53,184.0,205.25,276.75,-37.56,-73.37,-89.55,130.37,146.63,188.53,0,58.16,-0.44
rw_cut_5_p1_1f_opt_disp_struct_18.xyz,Nucleus 24C :,4.351893,-5.679724,1.801098,21.28,115.71,-16.95,-34.92,242.88,274.27,262.16,-127.21,-280.94,-307.3,-34.92,-16.95,115.71,0,150.63,-0.76
rw_cut_5_p1_1f_opt_disp_struct_18.xyz,Nucleus 5N :,3.85513,-7.260346,3.703942,117.7,55.66,168.9,128.53,299.91,335.49,330.48,-131.09,-206.58,-275.11,55.66,128.53,168.9,0,113.24,0.29
rw_cut_5_p1_1f_opt_disp_struct_18.xyz,Nucleus 22N :,3.649768,-8.002679,4.350764,167.35,99.8,221.22,181.04,267.35,351.91,330.18,-238.81,-85.35,-123.22,99.8,181.04,221.22,0,121.42,0.34
rw_cut_5_p1_1f_opt_disp_struct_18.xyz,Nucleus 25N :,3.232253,-6.456957,3.680334,174.65,114.28,176.13,233.54,353.65,321.18,336.14,-213.38,-171.49,-102.15,114.28,176.13,233.54,0,119.26,0.04
rw_cut_5_p1_1f_opt_disp_struct_18.xyz,Nucleus 27N :,6.663859,-10.020947,3.805789,174.36,114.92,212.8,195.36,301.11,343.44,323.96,-210.68,-104.48,-130.28,114.92,195.36,212.8,0,97.88,0.64
rw_cut_5_p1_1f_opt_disp_struct_18.xyz,Nucleus 10F :,5.858295,-6.391329,1.358451,300.31,396.57,220.1,284.25,486.61,459.36,466.12,-69.56,-239.75,-201.87,220.1,284.25,396.57,0,176.47,-0.27
rw_cut_5_p1_1f_opt_disp_struct_19.xyz,Nucleus 1H :,0.963436,-0.037694,-1.311607,29.14,35.21,23.46,28.76,40.66,26.29,30.78,-6.62,-0.84,-2.85,23.46,28.76,35.21,0,11.75,-0.1
rw_cut_5_p1_1f_opt_disp_struct_19.xyz,Nucleus 2H :,1.771861,0.575686,-1.715415,28.84,23.87,27.86,34.78,46.02,27.88,25.83,-11.85,-3.41,2.04,23.87,27.86,34.78,0,10.91,-0.27
rw_cut_5_p1_1f_opt_disp_struct_19.xyz,Nucleus 6H :,1.131397,-1.072461,-1.629164,23.92,16.11,24.84,30.82,50.24,14.71,29.67,-19.8,-4.69,1.65,16.11,24.84,30.82,0,14.71,0.19
rw_cut_5_p1_1f_opt_disp_struct_19.xyz,Nucleus 12H :,0.893611,0.08523,0.167875,24.32,20.54,24.73,27.7,47.82,18.2,31.49,-23.08,2.45,-3.91,20.54,24.73,27.7,0,7.16,0.17
rw_cut_5_p1_1f_opt_disp_struct_19.xyz,Nucleus 14H :,1.679381,0.900459,0.959094,23.92,20.02,26.94,24.8,5.86,33.18,43.76,14.18,-6.26,-18.96,20.02,24.8,26.94,0,6.92,0.38
rw_cut_5_p1_1f_opt_disp_struct_19.xyz,Nucleus 16H :,1.303563,0.72871,2.263895,24.22,19.65,27.91,25.09,10.6,31.85,47.95,-22.91,9.12,-3.95,19.65,25.09,27.91,0,8.26,0.32
rw_cut_5_p1_1f_opt_disp_struct_19.xyz,Nucleus 17H :,1.685516,1.228929,3.049094,24.27,20.7,25.26,26.85,44.88,28.42,32.14,-19.47,-7.61,-5.54,20.7,25.26,26.85,0,6.15,0.48
rw_cut_5_p1_1f_opt_disp_struct_19.xyz,Nucleus 18H :,0.278966,-0.184654,2.347733,28.64,34.92,27.14,23.86,42.26,27.17,32.01,-0.32,-9.09,-6.12,23.86,27.14,34.92,0,11.06,-0.41
rw_cut_5_p1_1f_opt_disp_struct_19.xyz,Nucleus 20H :,-0.003253,-0.605327,1.045668,28.51,34.41,24.39,26.74,-17.69,16.68,39.66,44.63,8.79,-6.53,24.39,26.74,34.41,0,10.02,-0.53
rw_cut_5_p1_1f_opt_disp_struct_19.xyz,Nucleus 21H :,-1.032627,-1.550696,0.867668,28.52,35.1,26.33,24.14,-17.13,16.96,41.5,44.52,7.72,-8.01,24.14,26.33,35.1,0,10.96,-0.6
rw_cut_5_p1_1f_opt_disp_struct_19.xyz,Nucleus 23H :,-1.352572,-1.990954,-0.3583,26.85,18.7,33.87,27.97,-6.43,51.95,27.33,25.72,-18.42,0.37,18.7,27.97,33.87,0,15.17,0.22
rw_cut_5_p1_1f_opt_disp_struct_19.xyz,Nucleus 26H :,-1.736981,-2.04536,1.96654,26.62,35.61,24.01,20.24,89.16,29.78,44.88,-68.9,-10.23,-4.85,20.24,24.01,35.61,0,15.37,-0.51
rw_cut_5_p1_1f_opt_disp_struct_19.xyz,Nucleus 28H :,-2.533142,-2.760518,1.790905,26.57,33.7,26.13,19.89,60.52,25.08,-2.88,-26.9,1.02,22.89,19.89,26.13,33.7,0,13.81,-0.1
rw_cut_5_p1_1f_opt_disp_struct_19.xyz,Nucleus 29H :,-1.429259,-1.606459,3.251806,26.28,34.72,20.09,24.03,68.88,42.7,31.94,-48.65,-8.26,-7.78,20.09,24.03,34.72,0,14.63,-0.46
rw_cut_5_p1_1f_opt_disp_struct_19.xyz,Nucleus 30H :,-2.007671,-1.969482,4.095292,28.14,34.9,25.96,23.56,-36.41,38.11,9.22,60.07,-3.24,16.67,23.56,25.96,34.9,0,11.34,-0.58
rw_cut_5_p1_1f_opt_disp_struct_19.xyz,Nucleus 31H :,-0.415061,-0.666269,3.466535,26.99,34.64,25.55,20.77,54.34,26.66,37.31,-26.81,-9.99,-0.56,20.77,25.55,34.64,0,13.87,-0.31
rw_cut_5_p1_1f_opt_disp_struct_19.xyz,Nucleus 0C :,-0.189736,-0.311995,4.466699,170.8,186.71,160.64,165.06,258.13,237.31,238.07,-79.54,-74.61,-66.96,160.64,165.06,186.71,0,26.07,-0.66
rw_cut_5_p1_1f_opt_disp_struct_19.xyz,Nucleus 3C :,2.459454,1.592486,0.678151,61.99,148.98,52.57,-15.59,240.16,273.73,262.92,-91.22,-221.05,-278.58,-15.59,52.57,148.98,0,164.57,-0.17
rw_cut_5_p1_1f_opt_disp_struct_19.xyz,Nucleus 4C :,0.02922,0.285751,-1.782187,56.5,-28.52,127.98,70.03,274.51,258.86,258.0,-293.03,-130.82,-198.04,-28.52,70.03,127.98,0,156.5,0.26
rw_cut_5_p1_1f_opt_disp_struct_19.xyz,Nucleus 7C :,5.916332,-9.622703,3.941255,38.22,136.46,-39.1,17.3,271.28,266.02,263.37,-128.03,-310.17,-247.81,-39.1,17.3,136.46,0,175.56,-0.36
rw_cut_5_p1_1f_opt_disp_struct_19.xyz,Nucleus 8C :,5.903939,-9.215023,4.957244,60.5,162.29,22.74,-3.53,235.16,268.35,263.95,-73.13,-242.42,-270.42,-3.53,22.74,162.29,0,165.82,-0.68
rw_cut_5_p1_1f_opt_disp_struct_19.xyz,Nucleus 9C :,5.060341,-10.292755,3.796276,11.87,-66.12,74.46,27.27,233.5,265.87,267.9,-159.12,-238.64,-333.91,-66.12,27.27,74.46,0,140.58,0.33
rw_cut_5_p1_1f_opt_disp_struct_19.xyz,Nucleus 11C :,5.940006,-8.545508,2.955067,69.94,165.03,-15.4,60.19,237.33,262.95,273.44,-72.87,-280.49,-210.53,-15.4,60.19,165.03,0,180.43,-0.16
rw_cut_5_p1_1f_opt_disp_struct_19.xyz,Nucleus 13C :,6.573959,-8.644526,2.179147,52.69,172.72,41.79,-56.43,219.28,273.53,254.62,-46.59,-231.59,-311.19,-56.43,41.79,172.72,0,229.15,-0.14
rw_cut_5_p1_1f_opt_disp_struct_19.xyz,Nucleus 15C :,5.043622,-7.550516,2.87827,70.45,172.49,57.14,-18.27,239.16,271.75,264.68,-67.33,-214.38,-282.53,-18.27,57.14,172.49,0,190.76,-0.21
rw_cut_5_p1_1f_opt_disp_struct_19.xyz,Nucleus 19C :,5.178282,-6.629919,1.923347,155.17,130.36,146.63,188.52,183.13,204.84,277.33,-36.7,-73.07,-90.04,130.36,146.63,188.52,0,58.16,-0.44
rw_cut_5_p1_1f_opt_disp_struct_19.xyz,Nucleus 24C :,4.518249,-5.864823,1.824843,21.27,115.73,-16.97,-34.95,243.17,274.65,262.06,-127.5,-280.9,-307.67,-34.95,-16.97,115.73,0,150.68,-0.76
rw_cut_5_p1_1f_opt_disp_struct_19.xyz,Nucleus 5N :,4.021486,-7.445445,3.727687,117.75,55.75,168.87,128.62,299.87,335.5,330.38,-131.08,-206.53,-274.91,55.75,128.62,168.87,0,113.12,0.29
rw_cut_5_p1_1f_opt_disp_struct_19.xyz,Nucleus 22N :,3.816124,-8.187779,4.374509,167.31,99.74,221.13,181.06,265.92,352.35,330.13,-239.27,-83.91,-123.29,99.74,181.06,221.13,0,121.39,0.34
rw_cut_5_p1_1f_opt_disp_struct_19.xyz,Nucleus 25N :,3.398609,-6.642057,3.704079,174.65,114.26,176.13,233.55,354.67,321.15,336.26,-213.59,-172.35,-102.19,114.26,176.13,233.55,0,119.29,0.04
rw_cut_5_p1_1f_opt_disp_struct_19.xyz,Nucleus 27N :,6.830215,-10.206047,3.829534,174.35,114.88,212.82,195.35,301.63,343.8,323.94,-210.74,-105.0,-130.58,114.88,195.35,212.82,0,97.94,0.64
rw_cut_5_p1_1f_opt_disp_struct_19.xyz,Nucleus 10F :,6.02465,-6.576429,1.382196,300.4,396.57,220.25,284.38,486.54,459.37,466.14,-69.57,-239.57,-201.7,220.25,284.38,396.57,0,176.32,-0.27
rw_cut_5_p1_1f_opt_disp_struct_2.xyz,Nucleus 1H :,0.963436,-0.037694,-1.311607,28.97,35.36,23.29,28.26,40.92,25.75,32.0,-0.88,-6.63,-4.27,23.29,28.26,35.36,0,12.07,-0.18
rw_cut_5_p1_1f_opt_disp_struct_2.xyz,Nucleus 2H :,1.771861,0.575686,-1.715415,28.93,24.05,28.27,34.48,48.05,28.82,26.44,1.93,-4.71,-13.75,24.05,28.27,34.48,0,10.43,-0.19
rw_cut_5_p1_1f_opt_disp_struct_2.xyz,Nucleus 6H :,1.131397,-1.072461,-1.629164,23.53,15.79,24.37,30.42,52.23,28.29,14.29,-22.34,-4.01,2.14,15.79,24.37,30.42,0,14.63,0.17
rw_cut_5_p1_1f_opt_disp_struct_2.xyz,Nucleus 12H :,0.893611,0.08523,0.167875,24.06,20.52,24.67,26.98,49.66,18.8,31.3,-25.31,2.48,-4.76,20.52,24.67,26.98,0,6.46,0.28
rw_cut_5_p1_1f_opt_disp_struct_2.xyz,Nucleus 14H :,1.679381,0.900459,0.959094,23.77,20.31,26.11,24.89,8.76,31.95,43.76,11.89,-5.88,-19.18,20.31,24.89,26.11,0,5.8,0.58
rw_cut_5_p1_1f_opt_disp_struct_2.xyz,Nucleus 16H :,1.303563,0.72871,2.263895,23.93,19.58,27.18,25.04,11.6,30.37,49.23,-24.56,-3.24,8.39,19.58,25.04,27.18,0,7.6,0.44
rw_cut_5_p1_1f_opt_disp_struct_2.xyz,Nucleus 17H :,1.685516,1.228929,3.049094,23.97,20.3,25.14,26.46,45.16,27.65,33.06,-19.88,-6.95,-7.12,20.3,25.14,26.46,0,6.16,0.57
rw_cut_5_p1_1f_opt_disp_struct_2.xyz,Nucleus 18H :,0.278966,-0.184654,2.347733,28.53,35.13,26.88,23.58,42.92,27.67,31.87,-0.65,-8.45,-7.77,23.58,26.88,35.13,0,11.55,-0.43
rw_cut_5_p1_1f_opt_disp_struct_2.xyz,Nucleus 20H :,-0.003253,-0.605327,1.045668,28.75,34.65,24.35,27.26,-3.29,17.85,38.93,29.61,8.05,-4.88,24.35,27.26,34.65,0,10.3,-0.43
rw_cut_5_p1_1f_opt_disp_struct_2.xyz,Nucleus 21H :,-1.032627,-1.550696,0.867668,28.73,35.37,26.68,24.15,-1.73,17.87,39.94,28.56,7.15,-5.59,24.15,26.68,35.37,0,11.22,-0.55
rw_cut_5_p1_1f_opt_disp_struct_2.xyz,Nucleus 23H :,-1.352572,-1.990954,-0.3583,27.3,18.57,34.47,28.85,48.54,15.3,30.09,-14.3,4.29,-2.03,18.57,28.85,34.47,0,15.9,0.29
rw_cut_5_p1_1f_opt_disp_struct_2.xyz,Nucleus 26H :,-1.736981,-2.04536,1.96654,28.11,43.14,18.29,22.9,20.0,56.13,52.54,-36.66,3.09,-10.76,18.29,22.9,43.14,0,24.85,-0.63
rw_cut_5_p1_1f_opt_disp_struct_2.xyz,Nucleus 28H :,-2.533142,-2.760518,1.790905,27.17,19.84,27.4,34.28,-0.91,24.14,53.42,20.83,3.31,-19.29,19.84,27.4,34.28,0,14.44,0.05
rw_cut_5_p1_1f_opt_disp_struct_2.xyz,Nucleus 29H :,-1.429259,-1.606459,3.251806,27.41,41.19,18.2,22.83,23.56,36.71,45.44,-18.48,1.02,-6.02,18.2,22.83,41.19,0,22.99,-0.6
rw_cut_5_p1_1f_opt_disp_struct_2.xyz,Nucleus 30H :,-2.007671,-1.969482,4.095292,28.38,35.59,25.98,23.56,-13.49,38.76,14.41,37.14,-3.2,11.51,23.56,25.98,35.59,0,12.03,-0.6
rw_cut_5_p1_1f_opt_disp_struct_2.xyz,Nucleus 31H :,-0.415061,-0.666269,3.466535,27.79,20.4,34.58,28.39,49.2,30.79,34.46,-21.84,-7.1,-2.14,20.4,28.39,34.58,0,14.18,0.13
rw_cut_5_p1_1f_opt_disp_struct_2.xyz,Nucleus 0C :,-0.189736,-0.311995,4.466699,171.13,160.45,166.26,186.69,260.54,236.54,239.83,-82.84,-73.52,-67.15,160.45,166.26,186.69,0,26.24,-0.56
rw_cut_5_p1_1f_opt_disp_struct_2.xyz,Nucleus 3C :,2.459454,1.592486,0.678151,61.82,149.07,51.71,-15.32,240.61,277.78,263.39,-91.65,-226.06,-278.62,-15.32,51.71,149.07,0,164.39,-0.18
rw_cut_5_p1_1f_opt_disp_struct_2.xyz,Nucleus 4C :,0.02922,0.285751,-1.782187,52.71,-33.68,128.95,62.86,259.77,255.22,277.71,-297.75,-129.0,-207.82,-33.68,62.86,128.95,0,162.63,0.19
rw_cut_5_p1_1f_opt_disp_struct_2.xyz,Nucleus 7C :,3.088282,-6.476009,3.537587,38.82,137.57,-36.81,15.69,274.11,262.58,265.03,-126.08,-310.4,-248.79,-36.81,15.69,137.57,0,174.38,-0.4
rw_cut_5_p1_1f_opt_disp_struct_2.xyz,Nucleus 8C :,3.075889,-6.068329,4.553576,61.79,163.12,25.66,-3.4,235.35,273.64,259.94,-72.64,-236.47,-274.44,-3.4,25.66,163.12,0,166.52,-0.65
rw_cut_5_p1_1f_opt_disp_struct_2.xyz,Nucleus 9C :,2.232291,-7.146061,3.392608,12.21,-65.34,76.06,25.92,235.78,267.84,273.48,-160.35,-241.53,-338.57,-65.34,25.92,76.06,0,141.4,0.29
rw_cut_5_p1_1f_opt_disp_struct_2.xyz,Nucleus 11C :,3.111956,-5.398814,2.551399,69.17,167.02,-16.21,56.69,234.14,263.57,277.05,-70.08,-282.74,-214.45,-16.21,56.69,167.02,0,183.23,-0.2
rw_cut_5_p1_1f_opt_disp_struct_2.xyz,Nucleus 13C :,3.745909,-5.497832,1.775479,54.89,174.8,42.49,-52.61,220.74,274.67,254.13,-48.33,-231.98,-304.55,-52.61,42.49,174.8,0,227.41,-0.16
rw_cut_5_p1_1f_opt_disp_struct_2.xyz,Nucleus 15C :,2.215571,-4.403822,2.474602,69.22,174.48,52.49,-19.3,235.2,273.48,265.67,-64.44,-220.05,-282.19,-19.3,52.49,174.48,0,193.78,-0.26
rw_cut_5_p1_1f_opt_disp_struct_2.xyz,Nucleus 19C :,2.350232,-3.483225,1.519678,155.47,130.92,146.57,188.92,199.23,212.2,267.26,-52.75,-85.16,-74.37,130.92,146.57,188.92,0,58.0,-0.46
rw_cut_5_p1_1f_opt_disp_struct_2.xyz,Nucleus 24C :,1.690199,-2.718129,1.421175,21.88,115.72,-17.4,-32.69,236.83,266.53,265.47,-121.16,-283.71,-298.33,-32.69,-17.4,115.72,0,148.41,-0.79
rw_cut_5_p1_1f_opt_disp_struct_2.xyz,Nucleus 5N :,1.193435,-4.298751,3.324019,113.2,47.97,170.32,121.3,299.75,335.85,331.56,-130.22,-212.66,-284.68,47.97,121.3,170.32,0,122.35,0.2
rw_cut_5_p1_1f_opt_disp_struct_2.xyz,Nucleus 22N :,0.988074,-5.041085,3.970841,170.78,105.36,227.07,179.9,292.72,346.14,330.65,-227.44,-110.78,-118.96,105.36,179.9,227.07,0,121.71,0.22
rw_cut_5_p1_1f_opt_disp_struct_2.xyz,Nucleus 25N :,0.570559,-3.495363,3.300411,174.16,115.01,176.51,230.95,318.37,332.55,337.67,-209.71,-152.25,-104.16,115.01,176.51,230.95,0,115.94,0.06
rw_cut_5_p1_1f_opt_disp_struct_2.xyz,Nucleus 27N :,4.002164,-7.059352,3.425866,172.6,115.34,207.0,195.47,288.56,335.82,324.97,-211.94,-127.56,-92.05,115.34,195.47,207.0,0,91.66,0.75
rw_cut_5_p1_1f_opt_disp_struct_2.xyz,Nucleus 10F :,3.1966,-3.429734,0.978528,292.89,395.78,207.52,275.36,486.38,457.08,465.66,-69.94,-252.32,-208.19,207.52,275.36,395.78,0,188.26,-0.28
rw_cut_5_p1_1f_opt_disp_struct_3.xyz,Nucleus 1H :,0.963436,-0.037694,-1.311607,28.98,35.31,23.32,28.32,40.93,25.88,31.98,-0.95,-6.7,-4.19,23.32,28.32,35.31,0,11.99,-0.17
rw_cut_5_p1_1f_opt_disp_struct_3.xyz,Nucleus 2H :,1.771861,0.575686,-1.715415,28.93,24.07,28.2,34.51,47.93,28.87,26.4,1.88,-4.71,-13.59,24.07,28.2,34.51,0,10.44,-0.21
rw_cut_5_p1_1f_opt_disp_struct_3.xyz,Nucleus 6H :,1.131397,-1.072461,-1.629164,23.58,15.85,24.43,30.45,52.15,28.44,14.38,-22.25,-4.07,2.09,15.85,24.43,30.45,0,14.6,0.17
rw_cut_5_p1_1f_opt_disp_struct_3.xyz,Nucleus 12H :,0.893611,0.08523,0.167875,24.09,20.56,24.64,27.08,49.69,18.75,31.63,-25.33,2.53,-4.98,20.56,24.64,27.08,0,6.52,0.25
rw_cut_5_p1_1f_opt_disp_struct_3.xyz,Nucleus 14H :,1.679381,0.900459,0.959094,23.78,20.3,26.24,24.8,8.31,32.27,43.82,12.25,-6.06,-19.24,20.3,24.8,26.24,0,5.94,0.52
rw_cut_5_p1_1f_opt_disp_struct_3.xyz,Nucleus 16H :,1.303563,0.72871,2.263895,23.97,19.64,27.28,25.0,11.56,30.6,49.32,-24.64,-3.36,8.44,19.64,25.0,27.28,0,7.64,0.4
rw_cut_5_p1_1f_opt_disp_struct_3.xyz,Nucleus 17H :,1.685516,1.228929,3.049094,24.01,20.37,25.16,26.51,45.22,27.8,33.0,-19.97,-7.12,-6.9,20.37,25.16,26.51,0,6.14,0.56
rw_cut_5_p1_1f_opt_disp_struct_3.xyz,Nucleus 18H :,0.278966,-0.184654,2.347733,28.53,35.09,26.9,23.61,42.86,27.7,31.85,-0.7,-8.47,-7.65,23.61,26.9,35.09,0,11.48,-0.43
rw_cut_5_p1_1f_opt_disp_struct_3.xyz,Nucleus 20H :,-0.003253,-0.605327,1.045668,28.73,34.62,24.35,27.21,-4.23,17.75,38.93,30.59,8.09,-4.97,24.35,27.21,34.62,0,10.27,-0.44
rw_cut_5_p1_1f_opt_disp_struct_3.xyz,Nucleus 21H :,-1.032627,-1.550696,0.867668,28.7,35.33,26.64,24.14,-2.71,17.79,40.0,29.59,7.18,-5.73,24.14,26.64,35.33,0,11.19,-0.55
rw_cut_5_p1_1f_opt_disp_struct_3.xyz,Nucleus 23H :,-1.352572,-1.990954,-0.3583,27.23,18.59,34.37,28.74,48.72,13.96,29.85,-14.59,5.57,-1.82,18.59,28.74,34.37,0,15.78,0.29
rw_cut_5_p1_1f_opt_disp_struct_3.xyz,Nucleus 26H :,-1.736981,-2.04536,1.96654,27.97,41.92,18.75,23.23,21.59,58.05,52.24,-38.97,1.71,-10.71,18.75,23.23,41.92,0,23.17,-0.61
rw_cut_5_p1_1f_opt_disp_struct_3.xyz,Nucleus 28H :,-2.533142,-2.760518,1.790905,27.09,19.8,27.26,34.22,-1.13,24.23,53.76,21.02,3.06,-19.66,19.8,27.26,34.22,0,14.42,0.04
rw_cut_5_p1_1f_opt_disp_struct_3.xyz,Nucleus 29H :,-1.429259,-1.606459,3.251806,27.31,39.96,18.68,23.3,25.01,39.1,44.78,-20.37,-0.14,-6.45,18.68,23.3,39.96,0,21.28,-0.57
rw_cut_5_p1_1f_opt_disp_struct_3.xyz,Nucleus 30H :,-2.007671,-1.969482,4.095292,28.34,35.5,25.96,23.55,-14.94,38.68,14.07,38.58,-3.2,11.83,23.55,25.96,35.5,0,11.95,-0.6
rw_cut_5_p1_1f_opt_disp_struct_3.xyz,Nucleus 31H :,-0.415061,-0.666269,3.466535,27.68,20.46,34.59,28.0,49.52,30.34,34.81,-22.13,-7.46,-2.03,20.46,28.0,34.59,0,14.13,0.07
rw_cut_5_p1_1f_opt_disp_struct_3.xyz,Nucleus 0C :,-0.189736,-0.311995,4.466699,171.06,186.62,160.46,166.11,260.26,236.58,239.72,-82.54,-73.65,-67.18,160.46,166.11,186.62,0,26.16,-0.57
rw_cut_5_p1_1f_opt_disp_struct_3.xyz,Nucleus 3C :,2.459454,1.592486,0.678151,61.87,149.1,51.86,-15.36,240.46,277.46,263.42,-91.41,-225.6,-278.75,-15.36,51.86,149.1,0,164.46,-0.18
rw_cut_5_p1_1f_opt_disp_struct_3.xyz,Nucleus 4C :,0.02922,0.285751,-1.782187,53.35,-32.77,128.82,63.99,260.35,254.68,277.42,-296.76,-129.15,-206.5,-32.77,63.99,128.82,0,161.59,0.2
rw_cut_5_p1_1f_opt_disp_struct_3.xyz,Nucleus 7C :,3.254638,-6.661109,3.561332,38.75,137.43,-37.21,16.03,274.32,262.85,264.63,-125.98,-311.0,-248.57,-37.21,16.03,137.43,0,174.64,-0.39
rw_cut_5_p1_1f_opt_disp_struct_3.xyz,Nucleus 8C :,3.242245,-6.253428,4.577321,61.54,162.99,25.06,-3.44,235.77,274.42,260.82,-73.24,-238.19,-274.97,-3.44,25.06,162.99,0,166.43,-0.66
rw_cut_5_p1_1f_opt_disp_struct_3.xyz,Nucleus 9C :,2.398646,-7.331161,3.416353,12.26,-65.41,75.81,26.38,234.56,268.42,273.24,-159.52,-241.49,-338.42,-65.41,26.38,75.81,0,141.22,0.3
rw_cut_5_p1_1f_opt_disp_struct_3.xyz,Nucleus 11C :,3.278312,-5.583914,2.575144,69.52,166.74,-15.87,57.7,234.42,263.51,277.5,-70.34,-282.85,-213.66,-15.87,57.7,166.74,0,182.61,-0.19
rw_cut_5_p1_1f_opt_disp_struct_3.xyz,Nucleus 13C :,3.912265,-5.682932,1.799224,54.48,174.47,42.44,-53.48,220.94,275.14,254.14,-48.54,-232.48,-305.79,-53.48,42.44,174.47,0,227.95,-0.16
rw_cut_5_p1_1f_opt_disp_struct_3.xyz,Nucleus 15C :,2.381927,-4.588921,2.498347,69.68,174.21,53.77,-18.95,235.36,273.98,265.66,-64.64,-218.96,-282.36,-18.95,53.77,174.21,0,193.16,-0.25
rw_cut_5_p1_1f_opt_disp_struct_3.xyz,Nucleus 19C :,2.516587,-3.668324,1.543424,155.42,130.81,146.57,188.88,198.18,211.74,267.91,-51.71,-85.21,-74.65,130.81,146.57,188.88,0,58.07,-0.46
rw_cut_5_p1_1f_opt_disp_struct_3.xyz,Nucleus 24C :,1.856554,-2.903229,1.44492,21.77,115.53,-17.05,-33.17,237.28,266.95,265.29,-121.8,-283.09,-299.33,-33.17,-17.05,115.53,0,148.7,-0.78
rw_cut_5_p1_1f_opt_disp_struct_3.xyz,Nucleus 5N :,1.359791,-4.483851,3.347764,114.03,49.41,170.13,122.56,299.59,335.81,331.58,-130.31,-211.67,-282.91,49.41,122.56,170.13,0,120.72,0.21
rw_cut_5_p1_1f_opt_disp_struct_3.xyz,Nucleus 22N :,1.154429,-5.226185,3.994586,170.11,104.21,226.04,180.09,290.85,346.31,330.62,-228.86,-109.11,-119.47,104.21,180.09,226.04,0,121.83,0.25
rw_cut_5_p1_1f_opt_disp_struct_3.xyz,Nucleus 25N :,0.736915,-3.680463,3.324156,174.57,115.02,176.6,232.09,319.49,338.12,333.67,-210.12,-154.25,-103.2,115.02,176.6,232.09,0,117.07,0.05
rw_cut_5_p1_1f_opt_disp_struct_3.xyz,Nucleus 27N :,4.16852,-7.244452,3.449611,173.6,115.69,209.2,195.9,289.74,336.48,324.91,-211.2,-126.4,-92.74,115.69,195.9,209.2,0,93.51,0.72
rw_cut_5_p1_1f_opt_disp_struct_3.xyz,Nucleus 10F :,3.362956,-3.614834,1.002273,294.21,396.02,209.81,276.79,486.66,457.46,465.62,-69.72,-250.11,-207.3,209.81,276.79,396.02,0,186.21,-0.28
rw_cut_5_p1_1f_opt_disp_struct_4.xyz,Nucleus 1H :,0.963436,-0.037694,-1.311607,29.0,35.28,23.34,28.37,40.94,25.98,31.92,-0.99,-6.78,-4.08,23.34,28.37,35.28,0,11.94,-0.16
rw_cut_5_p1_1f_opt_disp_struct_4.xyz,Nucleus 2H :,1.771861,0.575686,-1.715415,28.92,24.08,28.14,34.55,47.81,28.89,26.34,1.86,-4.69,-13.44,24.08,28.14,34.55,0,10.47,-0.22
rw_cut_5_p1_1f_opt_disp_struct_4.xyz,Nucleus 6H :,1.131397,-1.072461,-1.629164,23.63,15.91,24.48,30.5,52.05,28.6,14.46,-22.12,-4.14,2.03,15.91,24.48,30.5,0,14.59,0.17
rw_cut_5_p1_1f_opt_disp_struct_4.xyz,Nucleus 12H :,0.893611,0.08523,0.167875,24.13,20.59,24.61,27.18,49.67,18.68,31.81,-25.29,2.54,-5.04,20.59,24.61,27.18,0,6.59,0.22
rw_cut_5_p1_1f_opt_disp_struct_4.xyz,Nucleus 14H :,1.679381,0.900459,0.959094,23.8,20.29,26.36,24.74,7.83,32.59,43.87,12.66,-6.26,-19.3,20.29,24.74,26.36,0,6.07,0.46
rw_cut_5_p1_1f_opt_disp_struct_4.xyz,Nucleus 16H :,1.303563,0.72871,2.263895,24.0,19.66,27.37,24.98,11.44,30.82,49.34,-24.65,-3.48,8.54,19.66,24.98,27.37,0,7.71,0.38
rw_cut_5_p1_1f_opt_disp_struct_4.xyz,Nucleus 17H :,1.685516,1.228929,3.049094,24.04,20.42,25.17,26.54,45.27,27.95,32.92,-20.03,-7.18,-6.78,20.42,25.17,26.54,0,6.12,0.55
rw_cut_5_p1_1f_opt_disp_struct_4.xyz,Nucleus 18H :,0.278966,-0.184654,2.347733,28.54,35.05,26.92,23.64,42.8,27.69,31.86,-0.71,-8.51,-7.51,23.64,26.92,35.05,0,11.41,-0.43
rw_cut_5_p1_1f_opt_disp_struct_4.xyz,Nucleus 20H :,-0.003253,-0.605327,1.045668,28.69,34.58,24.35,27.15,-5.12,17.66,38.95,31.54,8.13,-5.07,24.35,27.15,34.58,0,10.23,-0.45
rw_cut_5_p1_1f_opt_disp_struct_4.xyz,Nucleus 21H :,-1.032627,-1.550696,0.867668,28.68,35.3,26.6,24.14,-3.67,17.72,40.06,30.59,7.21,-5.88,24.14,26.6,35.3,0,11.16,-0.56
rw_cut_5_p1_1f_opt_disp_struct_4.xyz,Nucleus 23H :,-1.352572,-1.990954,-0.3583,27.18,18.61,34.28,28.64,48.91,12.64,29.64,-14.87,6.84,-1.64,18.61,28.64,34.28,0,15.67,0.28
rw_cut_5_p1_1f_opt_disp_struct_4.xyz,Nucleus 26H :,-1.736981,-2.04536,1.96654,27.78,40.89,23.41,19.03,22.75,60.42,51.4,-41.25,0.67,-10.66,19.03,23.41,40.89,0,21.86,-0.6
rw_cut_5_p1_1f_opt_disp_struct_4.xyz,Nucleus 28H :,-2.533142,-2.760518,1.790905,27.02,19.79,27.13,34.15,-1.37,24.32,54.14,21.26,2.82,-20.1,19.79,27.13,34.15,0,14.36,0.02
rw_cut_5_p1_1f_opt_disp_struct_4.xyz,Nucleus 29H :,-1.429259,-1.606459,3.251806,27.18,38.98,18.98,23.57,26.05,41.37,44.32,-22.34,-1.09,-6.78,18.98,23.57,38.98,0,20.0,-0.54
rw_cut_5_p1_1f_opt_disp_struct_4.xyz,Nucleus 30H :,-2.007671,-1.969482,4.095292,28.3,35.43,25.95,23.53,-16.36,38.62,13.73,39.99,-3.21,12.16,23.53,25.95,35.43,0,11.9,-0.59
rw_cut_5_p1_1f_opt_disp_struct_4.xyz,Nucleus 31H :,-0.415061,-0.666269,3.466535,27.59,20.51,34.59,27.66,49.86,29.94,35.13,-22.44,-7.79,-1.94,20.51,27.66,34.59,0,14.08,0.01
rw_cut_5_p1_1f_opt_disp_struct_4.xyz,Nucleus 0C :,-0.189736,-0.311995,4.466699,171.0,186.57,160.46,165.97,260.0,236.66,239.59,-82.23,-73.83,-67.19,160.46,165.97,186.57,0,26.11,-0.58
rw_cut_5_p1_1f_opt_disp_struct_4.xyz,Nucleus 3C :,2.459454,1.592486,0.678151,61.87,149.09,51.96,-15.43,240.48,277.21,263.42,-91.43,-225.23,-278.84,-15.43,51.96,149.09,0,164.52,-0.18
rw_cut_5_p1_1f_opt_disp_struct_4.xyz,Nucleus 4C :,0.02922,0.285751,-1.782187,53.91,-31.99,128.75,64.96,260.79,254.42,277.07,-295.92,-129.31,-205.34,-31.99,64.96,128.75,0,160.74,0.21
rw_cut_5_p1_1f_opt_disp_struct_4.xyz,Nucleus 7C :,3.420994,-6.846209,3.585077,38.68,137.32,-37.56,16.27,274.39,262.97,264.65,-126.08,-311.42,-248.48,-37.56,16.27,137.32,0,174.88,-0.38
rw_cut_5_p1_1f_opt_disp_struct_4.xyz,Nucleus 8C :,3.408601,-6.438528,4.601066,61.27,162.83,24.52,-3.53,235.95,274.9,261.6,-73.64,-239.72,-275.27,-3.53,24.52,162.83,0,166.36,-0.66
rw_cut_5_p1_1f_opt_disp_struct_4.xyz,Nucleus 9C :,2.565002,-7.51626,3.440098,12.26,-65.51,75.61,26.68,233.77,268.74,272.88,-158.99,-241.45,-338.18,-65.51,26.68,75.61,0,141.12,0.31
rw_cut_5_p1_1f_opt_disp_struct_4.xyz,Nucleus 11C :,3.444668,-5.769013,2.598889,69.74,166.5,-15.66,58.37,234.76,263.53,277.64,-70.68,-282.88,-213.15,-15.66,58.37,166.5,0,182.16,-0.19
rw_cut_5_p1_1f_opt_disp_struct_4.xyz,Nucleus 13C :,4.078621,-5.868032,1.822969,54.08,174.18,42.29,-54.22,221.28,275.45,253.98,-48.48,-232.93,-307.06,-54.22,42.29,174.18,0,228.4,-0.15
rw_cut_5_p1_1f_opt_disp_struct_4.xyz,Nucleus 15C :,2.548283,-4.774021,2.522092,69.97,173.98,54.65,-18.71,235.56,274.21,265.7,-64.82,-218.19,-282.53,-18.71,54.65,173.98,0,192.69,-0.24
rw_cut_5_p1_1f_opt_disp_struct_4.xyz,Nucleus 19C :,2.682943,-3.853424,1.567169,155.39,130.75,146.58,188.84,197.13,211.26,268.55,-50.66,-85.25,-74.86,130.75,146.58,188.84,0,58.09,-0.45
rw_cut_5_p1_1f_opt_disp_struct_4.xyz,Nucleus 24C :,2.02291,-3.088329,1.468666,21.68,115.44,-16.87,-33.52,237.81,267.55,264.95,-122.42,-282.63,-300.2,-33.52,-16.87,115.44,0,148.96,-0.78
rw_cut_5_p1_1f_opt_disp_struct_4.xyz,Nucleus 5N :,1.526147,-4.668951,3.37151,114.78,50.68,170.0,123.65,299.57,335.78,331.59,-130.43,-210.78,-281.39,50.68,123.65,170.0,0,119.32,0.22
rw_cut_5_p1_1f_opt_disp_struct_4.xyz,Nucleus 22N :,1.320785,-5.411284,4.018331,169.59,103.32,225.18,180.26,289.02,346.55,330.61,-230.05,-107.33,-120.04,103.32,180.26,225.18,0,121.86,0.26
rw_cut_5_p1_1f_opt_disp_struct_4.xyz,Nucleus 25N :,0.903271,-3.865562,3.347901,174.77,115.0,176.6,232.7,320.32,339.01,334.53,-210.55,-156.23,-102.79,115.0,176.6,232.7,0,117.7,0.05
rw_cut_5_p1_1f_opt_disp_struct_4.xyz,Nucleus 27N :,4.334876,-7.429552,3.473357,174.13,115.85,210.5,196.05,290.84,337.26,324.85,-210.85,-126.07,-93.64,115.85,196.05,210.5,0,94.65,0.69
rw_cut_5_p1_1f_opt_disp_struct_4.xyz,Nucleus 10F :,3.529312,-3.799934,1.026019,295.24,396.18,211.67,277.86,486.84,457.83,465.64,-69.59,-248.3,-206.71,211.67,277.86,396.18,0,184.51,-0.28
rw_cut_5_p1_1f_opt_disp_struct_5.xyz,Nucleus 1H :,0.963436,-0.037694,-1.311607,29.01,35.25,23.36,28.42,40.93,26.06,31.83,-6.83,-1.01,-3.96,23.36,28.42,35.25,0,11.89,-0.15
rw_cut_5_p1_1f_opt_disp_struct_5.xyz,Nucleus 2H :,1.771861,0.575686,-1.715415,28.92,24.08,28.1,34.58,47.68,28.89,26.28,1.86,-4.65,-13.29,24.08,28.1,34.58,0,10.5,-0.23
rw_cut_5_p1_1f_opt_disp_struct_5.xyz,Nucleus 6H :,1.131397,-1.072461,-1.629164,23.67,15.95,24.52,30.53,51.93,28.75,14.53,-21.96,-4.22,1.98,15.95,24.52,30.53,0,14.58,0.17
rw_cut_5_p1_1f_opt_disp_struct_5.xyz,Nucleus 12H :,0.893611,0.08523,0.167875,24.16,20.61,24.6,27.26,49.58,18.62,31.92,-25.18,2.54,-5.01,20.61,24.6,27.26,0,6.65,0.2
rw_cut_5_p1_1f_opt_disp_struct_5.xyz,Nucleus 14H :,1.679381,0.900459,0.959094,23.81,20.26,26.46,24.71,7.43,32.91,43.92,12.99,-6.48,-19.34,20.26,24.71,26.46,0,6.2,0.44
rw_cut_5_p1_1f_opt_disp_struct_5.xyz,Nucleus 16H :,1.303563,0.72871,2.263895,24.04,19.69,27.46,24.97,11.3,31.02,49.31,-24.58,-3.6,8.65,19.69,24.97,27.46,0,7.77,0.36
rw_cut_5_p1_1f_opt_disp_struct_5.xyz,Nucleus 17H :,1.685516,1.228929,3.049094,24.08,20.47,25.18,26.58,45.29,28.07,32.84,-20.06,-7.26,-6.65,20.47,25.18,26.58,0,6.11,0.54
rw_cut_5_p1_1f_opt_disp_struct_5.xyz,Nucleus 18H :,0.278966,-0.184654,2.347733,28.54,35.03,26.94,23.66,42.74,27.66,31.87,-0.71,-8.56,-7.37,23.66,26.94,35.03,0,11.37,-0.42
rw_cut_5_p1_1f_opt_disp_struct_5.xyz,Nucleus 20H :,-0.003253,-0.605327,1.045668,28.67,34.56,24.35,27.1,-6.0,17.59,38.96,32.46,8.16,-5.16,24.35,27.1,34.56,0,10.21,-0.46
rw_cut_5_p1_1f_opt_disp_struct_5.xyz,Nucleus 21H :,-1.032627,-1.550696,0.867668,28.66,35.27,26.57,24.14,-4.6,17.65,40.13,31.57,7.24,-6.02,24.14,26.57,35.27,0,11.13,-0.56
rw_cut_5_p1_1f_opt_disp_struct_5.xyz,Nucleus 23H :,-1.352572,-1.990954,-0.3583,27.13,18.62,34.21,28.55,49.11,11.34,29.44,-15.14,8.11,-1.47,18.62,28.55,34.21,0,15.59,0.27
rw_cut_5_p1_1f_opt_disp_struct_5.xyz,Nucleus 26H :,-1.736981,-2.04536,1.96654,27.59,40.03,23.52,19.23,23.64,62.76,50.56,-43.45,-0.12,-10.6,19.23,23.52,40.03,0,20.8,-0.59
rw_cut_5_p1_1f_opt_disp_struct_5.xyz,Nucleus 28H :,-2.533142,-2.760518,1.790905,26.96,19.79,27.01,34.07,-1.6,24.41,54.55,21.48,2.6,-20.57,19.79,27.01,34.07,0,14.28,0.01
rw_cut_5_p1_1f_opt_disp_struct_5.xyz,Nucleus 29H :,-1.429259,-1.606459,3.251806,27.03,38.2,19.18,23.72,26.84,43.34,44.22,-24.37,-1.92,-7.01,19.18,23.72,38.2,0,19.02,-0.52
rw_cut_5_p1_1f_opt_disp_struct_5.xyz,Nucleus 30H :,-2.007671,-1.969482,4.095292,28.28,35.37,25.95,23.53,-17.77,38.56,13.41,41.4,-3.22,12.47,23.53,25.95,35.37,0,11.84,-0.59
rw_cut_5_p1_1f_opt_disp_struct_5.xyz,Nucleus 31H :,-0.415061,-0.666269,3.466535,27.5,20.54,34.59,27.37,50.2,29.58,35.4,-22.77,-8.08,-1.84,20.54,27.37,34.59,0,14.05,-0.03
rw_cut_5_p1_1f_opt_disp_struct_5.xyz,Nucleus 0C :,-0.189736,-0.311995,4.466699,170.96,186.54,160.47,165.86,259.77,236.73,239.45,-81.94,-73.99,-67.16,160.47,165.86,186.54,0,26.07,-0.59
rw_cut_5_p1_1f_opt_disp_struct_5.xyz,Nucleus 3C :,2.459454,1.592486,0.678151,61.87,149.09,52.01,-15.49,240.51,276.96,263.39,-91.46,-224.91,-278.88,-15.49,52.01,149.09,0,164.58,-0.18
rw_cut_5_p1_1f_opt_disp_struct_5.xyz,Nucleus 4C :,0.02922,0.285751,-1.782187,54.34,-31.4,128.67,65.76,261.04,254.37,276.75,-295.28,-129.5,-204.34,-31.4,65.76,128.67,0,160.07,0.21
rw_cut_5_p1_1f_opt_disp_struct_5.xyz,Nucleus 7C :,3.58735,-7.031308,3.608822,38.6,137.21,-37.87,16.47,274.32,263.09,264.76,-126.31,-311.69,-248.37,-37.87,16.47,137.21,0,175.08,-0.38
rw_cut_5_p1_1f_opt_disp_struct_5.xyz,Nucleus 8C :,3.574957,-6.623628,4.624812,61.08,162.73,24.1,-3.6,235.91,274.96,262.17,-73.75,-240.86,-275.21,-3.6,24.1,162.73,0,166.33,-0.67
rw_cut_5_p1_1f_opt_disp_struct_5.xyz,Nucleus 9C :,2.731358,-7.70136,3.463843,12.23,-65.63,75.43,26.89,233.35,268.82,272.44,-158.73,-241.32,-337.87,-65.63,26.89,75.43,0,141.06,0.31
rw_cut_5_p1_1f_opt_disp_struct_5.xyz,Nucleus 11C :,3.611024,-5.954113,2.622634,69.86,166.29,-15.55,58.83,235.04,263.53,277.53,-70.97,-282.77,-212.79,-15.55,58.83,166.29,0,181.84,-0.18
rw_cut_5_p1_1f_opt_disp_struct_5.xyz,Nucleus 13C :,4.244977,-6.053131,1.846715,53.76,173.95,42.13,-54.8,221.47,275.57,253.94,-48.33,-233.21,-308.16,-54.8,42.13,173.95,0,228.75,-0.15
rw_cut_5_p1_1f_opt_disp_struct_5.xyz,Nucleus 15C :,2.714639,-4.959121,2.545837,70.15,173.77,55.26,-18.57,235.76,274.2,265.74,-65.02,-217.62,-282.6,-18.57,55.26,173.77,0,192.34,-0.23
rw_cut_5_p1_1f_opt_disp_struct_5.xyz,Nucleus 19C :,2.849299,-4.038523,1.590914,155.36,130.69,146.59,188.81,196.09,210.79,269.18,-49.62,-85.33,-75.01,130.69,146.59,188.81,0,58.12,-0.45
rw_cut_5_p1_1f_opt_disp_struct_5.xyz,Nucleus 24C :,2.189266,-3.273428,1.492411,21.62,115.42,-16.76,-33.79,238.37,268.18,264.59,-122.99,-282.27,-301.01,-33.79,-16.76,115.42,0,149.21,-0.77
rw_cut_5_p1_1f_opt_disp_struct_5.xyz,Nucleus 5N :,1.692503,-4.85405,3.395255,115.33,51.63,169.86,124.51,299.68,335.73,331.58,-130.65,-210.08,-280.27,51.63,124.51,169.86,0,118.23,0.23
rw_cut_5_p1_1f_opt_disp_struct_5.xyz,Nucleus 22N :,1.487141,-5.596384,4.042076,169.18,102.66,224.49,180.39,287.24,346.82,330.6,-231.03,-105.55,-120.54,102.66,180.39,224.49,0,121.83,0.28
rw_cut_5_p1_1f_opt_disp_struct_5.xyz,Nucleus 25N :,1.069627,-4.050662,3.371646,174.81,114.91,176.52,232.99,320.86,340.15,335.04,-210.99,-158.02,-102.63,114.91,176.52,232.99,0,118.08,0.04
rw_cut_5_p1_1f_opt_disp_struct_5.xyz,Nucleus 27N :,4.501232,-7.614651,3.497102,174.37,115.85,211.23,196.02,291.78,337.98,324.8,-210.73,-126.17,-94.56,115.85,196.02,211.23,0,95.38,0.68
rw_cut_5_p1_1f_opt_disp_struct_5.xyz,Nucleus 10F :,3.695668,-3.985033,1.049764,296.1,396.3,213.16,278.83,486.95,458.16,465.7,-69.52,-246.85,-206.15,213.16,278.83,396.3,0,183.14,-0.28
rw_cut_5_p1_1f_opt_disp_struct_6.xyz,Nucleus 1H :,0.963436,-0.037694,-1.311607,29.02,35.23,23.38,28.46,40.91,26.11,31.74,-6.85,-1.02,-3.83,23.38,28.46,35.23,0,11.85,-0.14
rw_cut_5_p1_1f_opt_disp_struct_6.xyz,Nucleus 2H :,1.771861,0.575686,-1.715415,28.92,24.08,28.06,34.62,47.54,28.85,26.22,1.86,-4.58,-13.13,24.08,28.06,34.62,0,10.54,-0.24
rw_cut_5_p1_1f_opt_disp_struct_6.xyz,Nucleus 6H :,1.131397,-1.072461,-1.629164,23.71,15.99,24.56,30.57,51.8,28.89,14.59,-21.78,-4.3,1.92,15.99,24.56,30.57,0,14.58,0.17
rw_cut_5_p1_1f_opt_disp_struct_6.xyz,Nucleus 12H :,0.893611,0.08523,0.167875,24.19,20.62,24.6,27.34,49.46,18.56,31.98,-25.03,2.54,-4.95,20.62,24.6,27.34,0,6.72,0.18
rw_cut_5_p1_1f_opt_disp_struct_6.xyz,Nucleus 14H :,1.679381,0.900459,0.959094,23.82,20.24,26.54,24.69,7.12,33.18,43.95,13.23,-6.66,-19.35,20.24,24.69,26.54,0,6.3,0.41
rw_cut_5_p1_1f_opt_disp_struct_6.xyz,Nucleus 16H :,1.303563,0.72871,2.263895,24.07,19.7,27.53,24.97,11.19,31.21,49.23,-24.47,-3.71,8.75,19.7,24.97,27.53,0,7.83,0.34
rw_cut_5_p1_1f_opt_disp_struct_6.xyz,Nucleus 17H :,1.685516,1.228929,3.049094,24.11,20.52,25.19,26.61,45.29,28.16,32.77,-20.05,-7.33,-6.53,20.52,25.19,26.61,0,6.09,0.53
rw_cut_5_p1_1f_opt_disp_struct_6.xyz,Nucleus 18H :,0.278966,-0.184654,2.347733,28.55,35.01,26.96,23.68,42.68,27.62,31.89,-0.69,-8.61,-7.24,23.68,26.96,35.01,0,11.33,-0.42
rw_cut_5_p1_1f_opt_disp_struct_6.xyz,Nucleus 20H :,-0.003253,-0.605327,1.045668,28.65,34.53,24.36,27.06,-6.86,17.52,38.99,33.36,8.19,-5.25,24.36,27.06,34.53,0,10.17,-0.47
rw_cut_5_p1_1f_opt_disp_struct_6.xyz,Nucleus 21H :,-1.032627,-1.550696,0.867668,28.64,35.24,26.54,24.14,-5.52,17.59,40.2,32.53,7.27,-6.16,24.14,26.54,35.24,0,11.1,-0.57
rw_cut_5_p1_1f_opt_disp_struct_6.xyz,Nucleus 23H :,-1.352572,-1.990954,-0.3583,27.08,18.62,34.16,28.47,49.32,10.04,29.25,-15.42,9.38,-1.31,18.62,28.47,34.16,0,15.54,0.27
rw_cut_5_p1_1f_opt_disp_struct_6.xyz,Nucleus 26H :,-1.736981,-2.04536,1.96654,27.43,39.31,23.59,19.38,24.39,65.0,49.78,-45.56,-0.78,-10.54,19.38,23.59,39.31,0,19.93,-0.58
rw_cut_5_p1_1f_opt_disp_struct_6.xyz,Nucleus 28H :,-2.533142,-2.760518,1.790905,26.9,19.79,26.9,34.01,-1.74,24.51,54.95,21.63,2.38,-21.03,19.79,26.9,34.01,0,14.22,0.0
rw_cut_5_p1_1f_opt_disp_struct_6.xyz,Nucleus 29H :,-1.429259,-1.606459,3.251806,26.91,37.58,19.33,23.82,27.52,43.51,45.95,-26.41,-2.66,-7.19,19.33,23.82,37.58,0,18.25,-0.51
rw_cut_5_p1_1f_opt_disp_struct_6.xyz,Nucleus 30H :,-2.007671,-1.969482,4.095292,28.26,35.31,25.95,23.53,-19.16,38.5,13.1,42.79,-3.22,12.78,23.53,25.95,35.31,0,11.78,-0.59
rw_cut_5_p1_1f_opt_disp_struct_6.xyz,Nucleus 31H :,-0.415061,-0.666269,3.466535,27.42,34.58,27.11,20.56,50.53,29.24,35.62,-23.08,-8.33,-1.73,20.56,27.11,34.58,0,14.02,-0.07
rw_cut_5_p1_1f_opt_disp_struct_6.xyz,Nucleus 0C :,-0.189736,-0.311995,4.466699,170.92,186.54,160.47,165.75,259.58,236.79,239.3,-81.67,-74.13,-67.11,160.47,165.75,186.54,0,26.07,-0.59
rw_cut_5_p1_1f_opt_disp_struct_6.xyz,Nucleus 3C :,2.459454,1.592486,0.678151,61.86,149.09,52.04,-15.54,240.51,276.68,263.36,-91.47,-224.59,-278.9,-15.54,52.04,149.09,0,164.63,-0.18
rw_cut_5_p1_1f_opt_disp_struct_6.xyz,Nucleus 4C :,0.02922,0.285751,-1.782187,54.71,-30.91,128.59,66.45,261.09,254.5,276.47,-294.79,-129.67,-203.47,-30.91,66.45,128.59,0,159.5,0.22
rw_cut_5_p1_1f_opt_disp_struct_6.xyz,Nucleus 7C :,3.753706,-7.216408,3.632568,38.53,137.1,-38.12,16.62,274.13,263.26,264.82,-126.57,-311.81,-248.24,-38.12,16.62,137.1,0,175.22,-0.38
rw_cut_5_p1_1f_opt_disp_struct_6.xyz,Nucleus 8C :,3.741312,-6.808727,4.648557,60.93,162.65,23.78,-3.65,235.78,274.64,262.54,-73.73,-241.6,-274.87,-3.65,23.78,162.65,0,166.3,-0.67
rw_cut_5_p1_1f_opt_disp_struct_6.xyz,Nucleus 9C :,2.897714,-7.886459,3.487588,12.18,-65.74,75.27,27.02,233.15,268.71,271.95,-158.63,-241.12,-337.51,-65.74,27.02,75.27,0,141.01,0.32
rw_cut_5_p1_1f_opt_disp_struct_6.xyz,Nucleus 11C :,3.777379,-6.139213,2.64638,69.93,166.11,-15.48,59.15,235.3,263.5,277.29,-71.2,-282.6,-212.51,-15.48,59.15,166.11,0,181.59,-0.18
rw_cut_5_p1_1f_opt_disp_struct_6.xyz,Nucleus 13C :,4.411332,-6.238231,1.87046,53.5,173.75,42.0,-55.24,221.43,275.56,254.0,-48.15,-233.34,-308.98,-55.24,42.0,173.75,0,228.99,-0.15
rw_cut_5_p1_1f_opt_disp_struct_6.xyz,Nucleus 15C :,2.880995,-5.14422,2.569582,70.26,173.58,55.68,-18.49,236.03,274.02,265.74,-65.23,-217.16,-282.62,-18.49,55.68,173.58,0,192.07,-0.23
rw_cut_5_p1_1f_opt_disp_struct_6.xyz,Nucleus 19C :,3.015655,-4.223623,1.614659,155.34,130.64,146.6,188.78,195.06,210.33,269.79,-48.59,-75.12,-85.45,130.64,146.6,188.78,0,58.14,-0.45
rw_cut_5_p1_1f_opt_disp_struct_6.xyz,Nucleus 24C :,2.355622,-3.458528,1.516156,21.57,115.44,-16.72,-34.01,238.9,268.8,264.26,-123.51,-282.0,-301.74,-34.01,-16.72,115.44,0,149.45,-0.77
rw_cut_5_p1_1f_opt_disp_struct_6.xyz,Nucleus 5N :,1.858859,-5.03915,3.419,115.79,52.4,169.73,125.23,299.86,335.67,331.54,-130.86,-209.47,-279.38,52.4,125.23,169.73,0,117.33,0.24
rw_cut_5_p1_1f_opt_disp_struct_6.xyz,Nucleus 22N :,1.653497,-5.781483,4.065821,168.85,102.13,223.93,180.5,285.52,347.13,330.58,-231.89,-103.79,-120.98,102.13,180.5,223.93,0,121.8,0.29
rw_cut_5_p1_1f_opt_disp_struct_6.xyz,Nucleus 25N :,1.235983,-4.235762,3.395391,174.8,114.81,176.44,233.14,321.16,341.3,335.26,-211.34,-159.49,-102.51,114.81,176.44,233.14,0,118.33,0.04
rw_cut_5_p1_1f_opt_disp_struct_6.xyz,Nucleus 27N :,4.667588,-7.799751,3.520847,174.47,115.8,211.67,195.94,292.62,338.56,324.74,-210.66,-126.4,-95.45,115.8,195.94,211.67,0,95.87,0.67
rw_cut_5_p1_1f_opt_disp_struct_6.xyz,Nucleus 10F :,3.862024,-4.170133,1.073509,296.81,396.38,214.39,279.67,487.02,458.42,465.76,-69.48,-245.63,-205.64,214.39,279.67,396.38,0,181.99,-0.28
rw_cut_5_p1_1f_opt_disp_struct_7.xyz,Nucleus 1H :,0.963436,-0.037694,-1.311607,29.04,35.22,23.39,28.5,40.89,26.15,31.66,-6.84,-1.01,-3.73,23.39,28.5,35.22,0,11.83,-0.14
rw_cut_5_p1_1f_opt_disp_struct_7.xyz,Nucleus 2H :,1.771861,0.575686,-1.715415,28.91,24.07,28.02,34.65,47.4,28.8,26.17,1.87,-4.5,-12.99,24.07,28.02,34.65,0,10.58,-0.25
rw_cut_5_p1_1f_opt_disp_struct_7.xyz,Nucleus 6H :,1.131397,-1.072461,-1.629164,23.74,16.02,24.6,30.6,51.67,29.02,14.64,-21.6,-4.38,1.88,16.02,24.6,30.6,0,14.58,0.18
rw_cut_5_p1_1f_opt_disp_struct_7.xyz,Nucleus 12H :,0.893611,0.08523,0.167875,24.21,20.62,24.6,27.4,49.33,18.5,32.0,-24.86,2.53,-4.88,20.62,24.6,27.4,0,6.78,0.17
rw_cut_5_p1_1f_opt_disp_struct_7.xyz,Nucleus 14H :,1.679381,0.900459,0.959094,23.83,20.21,26.61,24.68,6.88,33.38,43.95,13.42,-6.8,-19.34,20.21,24.68,26.61,0,6.4,0.4
rw_cut_5_p1_1f_opt_disp_struct_7.xyz,Nucleus 16H :,1.303563,0.72871,2.263895,24.09,19.71,27.59,24.97,11.09,31.37,49.14,-24.34,-3.8,8.82,19.71,24.97,27.59,0,7.88,0.34
rw_cut_5_p1_1f_opt_disp_struct_7.xyz,Nucleus 17H :,1.685516,1.228929,3.049094,24.13,20.55,25.2,26.64,45.27,28.23,32.71,-20.01,-7.39,-6.43,20.55,25.2,26.64,0,6.09,0.53
rw_cut_5_p1_1f_opt_disp_struct_7.xyz,Nucleus 18H :,0.278966,-0.184654,2.347733,28.56,34.99,26.97,23.71,42.62,27.57,31.91,-0.65,-8.66,-7.11,23.71,26.97,34.99,0,11.28,-0.42
rw_cut_5_p1_1f_opt_disp_struct_7.xyz,Nucleus 20H :,-0.003253,-0.605327,1.045668,28.63,34.51,24.36,27.02,-7.71,17.45,39.02,34.26,8.22,-5.35,24.36,27.02,34.51,0,10.15,-0.48
rw_cut_5_p1_1f_opt_disp_struct_7.xyz,Nucleus 21H :,-1.032627,-1.550696,0.867668,28.62,35.22,26.51,24.14,-6.44,17.54,40.28,33.49,7.29,-6.3,24.14,26.51,35.22,0,11.08,-0.57
rw_cut_5_p1_1f_opt_disp_struct_7.xyz,Nucleus 23H :,-1.352572,-1.990954,-0.3583,27.05,18.63,34.11,28.41,49.53,8.73,29.06,-15.68,10.66,-1.16,18.63,28.41,34.11,0,15.48,0.26
rw_cut_5_p1_1f_opt_disp_struct_7.xyz,Nucleus 26H :,-1.736981,-2.04536,1.96654,27.29,38.7,23.65,19.51,25.05,67.15,49.07,-47.6,-10.46,-1.35,19.51,23.65,38.7,0,19.19,-0.57
rw_cut_5_p1_1f_opt_disp_struct_7.xyz,Nucleus 28H :,-2.533142,-2.760518,1.790905,26.85,19.79,26.81,33.95,-1.83,24.6,55.35,21.72,2.19,-21.48,19.79,26.81,33.95,0,14.16,-0.01
rw_cut_5_p1_1f_opt_disp_struct_7.xyz,Nucleus 29H :,-1.429259,-1.606459,3.251806,26.8,37.07,19.45,23.88,28.11,43.32,48.02,-28.38,-3.33,-7.33,19.45,23.88,37.07,0,17.62,-0.5
rw_cut_5_p1_1f_opt_disp_struct_7.xyz,Nucleus 30H :,-2.007671,-1.969482,4.095292,28.24,35.26,25.94,23.53,-20.54,38.45,12.79,44.17,-3.23,13.09,23.53,25.94,35.26,0,11.73,-0.59
rw_cut_5_p1_1f_opt_disp_struct_7.xyz,Nucleus 31H :,-0.415061,-0.666269,3.466535,27.35,34.58,26.89,20.59,50.84,28.92,35.82,-23.38,-8.53,-1.62,20.59,26.89,34.58,0,13.99,-0.1
rw_cut_5_p1_1f_opt_disp_struct_7.xyz,Nucleus 0C :,-0.189736,-0.311995,4.466699,170.89,186.54,160.48,165.66,259.41,236.83,239.15,-81.43,-74.22,-67.05,160.48,165.66,186.54,0,26.06,-0.6
rw_cut_5_p1_1f_opt_disp_struct_7.xyz,Nucleus 3C :,2.459454,1.592486,0.678151,61.86,149.08,52.08,-15.58,240.49,276.38,263.32,-91.47,-224.25,-278.91,-15.58,52.08,149.08,0,164.66,-0.18
rw_cut_5_p1_1f_opt_disp_struct_7.xyz,Nucleus 4C :,0.02922,0.285751,-1.782187,55.01,-30.5,128.51,67.03,261.02,254.74,276.23,-294.4,-129.83,-202.72,-30.5,67.03,128.51,0,159.01,0.23
rw_cut_5_p1_1f_opt_disp_struct_7.xyz,Nucleus 7C :,3.920062,-7.401508,3.656313,38.47,137.01,-38.33,16.74,273.89,263.46,264.84,-126.82,-311.83,-248.11,-38.33,16.74,137.01,0,175.34,-0.37
rw_cut_5_p1_1f_opt_disp_struct_7.xyz,Nucleus 8C :,3.907668,-6.993827,4.672302,60.82,162.59,23.54,-3.68,235.65,274.09,262.81,-73.65,-242.05,-274.4,-3.68,23.54,162.59,0,166.27,-0.67
rw_cut_5_p1_1f_opt_disp_struct_7.xyz,Nucleus 9C :,3.06407,-8.071559,3.511334,12.14,-65.83,75.14,27.1,233.06,268.48,271.47,-158.6,-240.86,-337.14,-65.83,27.1,75.14,0,140.97,0.32
rw_cut_5_p1_1f_opt_disp_struct_7.xyz,Nucleus 11C :,3.943735,-6.324312,2.670125,69.96,165.94,-15.44,59.38,235.55,263.45,276.95,-71.41,-282.4,-212.26,-15.44,59.38,165.94,0,181.38,-0.17
rw_cut_5_p1_1f_opt_disp_struct_7.xyz,Nucleus 13C :,4.577688,-6.423331,1.894205,53.31,173.59,41.89,-55.55,221.27,275.46,254.11,-47.99,-233.35,-309.57,-55.55,41.89,173.59,0,229.14,-0.15
rw_cut_5_p1_1f_opt_disp_struct_7.xyz,Nucleus 15C :,3.047351,-5.32932,2.593328,70.33,173.42,56.0,-18.43,236.35,273.77,265.72,-65.46,-216.78,-282.62,-18.43,56.0,173.42,0,191.85,-0.22
rw_cut_5_p1_1f_opt_disp_struct_7.xyz,Nucleus 19C :,3.182011,-4.408723,1.638404,155.31,130.6,146.6,188.74,194.05,209.88,270.39,-47.58,-75.17,-85.62,130.6,146.6,188.74,0,58.14,-0.45
rw_cut_5_p1_1f_opt_disp_struct_7.xyz,Nucleus 24C :,2.521978,-3.643628,1.539901,21.52,115.46,-16.7,-34.19,239.39,269.38,263.97,-123.97,-281.8,-302.4,-34.19,-16.7,115.46,0,149.65,-0.77
rw_cut_5_p1_1f_opt_disp_struct_7.xyz,Nucleus 5N :,2.025215,-5.22425,3.442745,116.15,53.02,169.61,125.83,300.05,335.6,331.47,-131.04,-208.93,-278.69,53.02,125.83,169.61,0,116.59,0.25
rw_cut_5_p1_1f_opt_disp_struct_7.xyz,Nucleus 22N :,1.819853,-5.966583,4.089567,168.59,101.71,223.47,180.6,283.84,347.45,330.56,-232.65,-102.07,-121.36,101.71,180.6,223.47,0,121.76,0.3
rw_cut_5_p1_1f_opt_disp_struct_7.xyz,Nucleus 25N :,1.402339,-4.420861,3.419137,174.77,114.73,176.37,233.22,321.3,342.35,335.34,-211.58,-160.7,-102.39,114.73,176.37,233.22,0,118.49,0.04
rw_cut_5_p1_1f_opt_disp_struct_7.xyz,Nucleus 27N :,4.833944,-7.984851,3.544592,174.5,115.71,211.95,195.84,293.46,339.05,324.67,-210.61,-126.69,-96.37,115.71,195.84,211.95,0,96.24,0.67
rw_cut_5_p1_1f_opt_disp_struct_7.xyz,Nucleus 10F :,4.02838,-4.355233,1.097254,297.42,396.44,215.41,280.41,487.06,458.64,465.81,-69.46,-244.62,-205.17,215.41,280.41,396.44,0,181.03,-0.28
rw_cut_5_p1_1f_opt_disp_struct_8.xyz,Nucleus 1H :,0.963436,-0.037694,-1.311607,29.05,35.21,23.4,28.53,40.86,26.17,31.58,-6.83,-1.01,-3.63,23.4,28.53,35.21,0,11.81,-0.13
rw_cut_5_p1_1f_opt_disp_struct_8.xyz,Nucleus 2H :,1.771861,0.575686,-1.715415,28.91,24.06,28.0,34.67,47.26,28.72,26.13,1.88,-4.41,-12.86,24.06,28.0,34.67,0,10.61,-0.26
rw_cut_5_p1_1f_opt_disp_struct_8.xyz,Nucleus 6H :,1.131397,-1.072461,-1.629164,23.77,16.04,24.63,30.64,51.54,29.13,14.67,-21.41,-4.46,1.83,16.04,24.63,30.64,0,14.6,0.18
rw_cut_5_p1_1f_opt_disp_struct_8.xyz,Nucleus 12H :,0.893611,0.08523,0.167875,24.22,20.62,24.61,27.44,49.18,18.46,31.99,-24.69,2.53,-4.79,20.62,24.61,27.44,0,6.82,0.17
rw_cut_5_p1_1f_opt_disp_struct_8.xyz,Nucleus 14H :,1.679381,0.900459,0.959094,23.84,20.18,26.67,24.68,6.69,33.52,43.95,13.57,-6.87,-19.32,20.18,24.68,26.67,0,6.49,0.39
rw_cut_5_p1_1f_opt_disp_struct_8.xyz,Nucleus 16H :,1.303563,0.72871,2.263895,24.11,19.71,27.65,24.98,11.02,31.51,49.03,-24.2,-3.88,8.87,19.71,24.98,27.65,0,7.94,0.33
rw_cut_5_p1_1f_opt_disp_struct_8.xyz,Nucleus 17H :,1.685516,1.228929,3.049094,24.15,20.58,25.21,26.67,45.24,28.29,32.67,-19.96,-7.44,-6.34,20.58,25.21,26.67,0,6.09,0.52
rw_cut_5_p1_1f_opt_disp_struct_8.xyz,Nucleus 18H :,0.278966,-0.184654,2.347733,28.57,34.98,26.99,23.73,42.56,27.52,31.94,-0.61,-8.71,-7.0,23.73,26.99,34.98,0,11.25,-0.42
rw_cut_5_p1_1f_opt_disp_struct_8.xyz,Nucleus 20H :,-0.003253,-0.605327,1.045668,28.61,34.49,24.36,26.98,-8.56,17.39,39.05,35.15,8.25,-5.44,24.36,26.98,34.49,0,10.13,-0.48
rw_cut_5_p1_1f_opt_disp_struct_8.xyz,Nucleus 21H :,-1.032627,-1.550696,0.867668,28.61,35.2,26.49,24.14,-7.35,17.5,40.36,34.44,7.32,-6.44,24.14,26.49,35.2,0,11.06,-0.58
rw_cut_5_p1_1f_opt_disp_struct_8.xyz,Nucleus 23H :,-1.352572,-1.990954,-0.3583,27.02,18.64,34.07,28.35,49.74,7.43,28.88,-15.94,11.94,-1.0,18.64,28.35,34.07,0,15.43,0.26
rw_cut_5_p1_1f_opt_disp_struct_8.xyz,Nucleus 26H :,-1.736981,-2.04536,1.96654,27.17,38.19,23.7,19.62,25.66,69.22,48.45,-49.56,-10.39,-1.86,19.62,23.7,38.19,0,18.57,-0.56
rw_cut_5_p1_1f_opt_disp_struct_8.xyz,Nucleus 28H :,-2.533142,-2.760518,1.790905,26.81,19.8,26.72,33.9,-1.85,24.68,55.75,21.76,2.01,-21.93,19.8,26.72,33.9,0,14.1,-0.02
rw_cut_5_p1_1f_opt_disp_struct_8.xyz,Nucleus 29H :,-1.429259,-1.606459,3.251806,26.71,36.66,19.55,23.93,28.64,43.16,50.01,-30.29,-3.94,-7.44,19.55,23.93,36.66,0,17.11,-0.49
rw_cut_5_p1_1f_opt_disp_struct_8.xyz,Nucleus 30H :,-2.007671,-1.969482,4.095292,28.23,35.21,25.94,23.54,-21.9,38.41,12.49,45.54,-3.23,13.39,23.54,25.94,35.21,0,11.67,-0.59
rw_cut_5_p1_1f_opt_disp_struct_8.xyz,Nucleus 31H :,-0.415061,-0.666269,3.466535,27.29,34.58,26.69,20.61,51.14,28.64,36.01,-23.69,-8.71,-1.51,20.61,26.69,34.58,0,13.97,-0.13
rw_cut_5_p1_1f_opt_disp_struct_8.xyz,Nucleus 0C :,-0.189736,-0.311995,4.466699,170.87,186.55,160.49,165.57,259.26,236.85,239.01,-81.21,-74.3,-67.0,160.49,165.57,186.55,0,26.06,-0.61
rw_cut_5_p1_1f_opt_disp_struct_8.xyz,Nucleus 3C :,2.459454,1.592486,0.678151,61.86,149.07,52.11,-15.61,240.46,276.08,263.3,-91.45,-223.9,-278.91,-15.61,52.11,149.07,0,164.68,-0.18
rw_cut_5_p1_1f_opt_disp_struct_8.xyz,Nucleus 4C :,0.02922,0.285751,-1.782187,55.27,-30.16,128.45,67.52,260.85,255.06,276.04,-294.1,-129.99,-202.06,-30.16,67.52,128.45,0,158.61,0.23
rw_cut_5_p1_1f_opt_disp_struct_8.xyz,Nucleus 7C :,4.086417,-7.586607,3.680058,38.43,136.93,-38.49,16.84,273.62,263.62,264.86,-127.03,-311.76,-248.03,-38.49,16.84,136.93,0,175.42,-0.37
rw_cut_5_p1_1f_opt_disp_struct_8.xyz,Nucleus 8C :,4.074024,-7.178927,4.696047,60.74,162.54,23.36,-3.69,235.56,273.4,263.03,-73.59,-242.31,-273.89,-3.69,23.36,162.54,0,166.23,-0.67
rw_cut_5_p1_1f_opt_disp_struct_8.xyz,Nucleus 9C :,3.230426,-8.256659,3.535079,12.09,-65.9,75.03,27.15,233.04,268.19,271.01,-158.62,-240.59,-336.76,-65.9,27.15,75.03,0,140.93,0.32
rw_cut_5_p1_1f_opt_disp_struct_8.xyz,Nucleus 11C :,4.110091,-6.509412,2.69387,69.98,165.8,-15.41,59.56,235.78,263.4,276.59,-71.61,-282.2,-212.03,-15.41,59.56,165.8,0,181.21,-0.17
rw_cut_5_p1_1f_opt_disp_struct_8.xyz,Nucleus 13C :,4.744044,-6.60843,1.91795,53.16,173.45,41.82,-55.79,221.07,275.32,254.21,-47.82,-233.28,-310.0,-55.79,41.82,173.45,0,229.24,-0.15
rw_cut_5_p1_1f_opt_disp_struct_8.xyz,Nucleus 15C :,3.213707,-5.51442,2.617073,70.38,173.28,56.23,-18.38,236.7,273.51,265.67,-65.7,-216.44,-282.62,-18.38,56.23,173.28,0,191.66,-0.22
rw_cut_5_p1_1f_opt_disp_struct_8.xyz,Nucleus 19C :,3.348367,-4.593822,1.66215,155.29,130.56,146.6,188.71,193.05,209.44,270.98,-46.59,-75.18,-85.82,130.56,146.6,188.71,0,58.15,-0.45
rw_cut_5_p1_1f_opt_disp_struct_8.xyz,Nucleus 24C :,2.688334,-3.828727,1.563646,21.48,115.49,-16.71,-34.33,239.81,269.92,263.72,-124.36,-281.64,-302.99,-34.33,-16.71,115.49,0,149.82,-0.76
rw_cut_5_p1_1f_opt_disp_struct_8.xyz,Nucleus 5N :,2.191571,-5.409349,3.46649,116.46,53.53,169.51,126.34,300.2,335.54,331.4,-131.17,-208.45,-278.15,53.53,126.34,169.51,0,115.98,0.26
rw_cut_5_p1_1f_opt_disp_struct_8.xyz,Nucleus 22N :,1.986209,-6.151683,4.113312,168.37,101.36,223.08,180.68,282.19,347.79,330.54,-233.34,-100.39,-121.67,101.36,180.68,223.08,0,121.72,0.3
rw_cut_5_p1_1f_opt_disp_struct_8.xyz,Nucleus 25N :,1.568694,-4.605961,3.442882,174.75,114.65,176.31,233.28,321.34,343.33,335.36,-211.76,-161.76,-102.28,114.65,176.31,233.28,0,118.63,0.04
rw_cut_5_p1_1f_opt_disp_struct_8.xyz,Nucleus 27N :,5.0003,-8.16995,3.568337,174.5,115.62,212.13,195.74,294.31,339.46,324.58,-210.55,-97.32,-126.99,115.62,195.74,212.13,0,96.51,0.66
rw_cut_5_p1_1f_opt_disp_struct_8.xyz,Nucleus 10F :,4.194736,-4.540332,1.120999,297.94,396.48,216.27,281.06,487.08,458.82,465.85,-69.44,-243.76,-204.73,216.27,281.06,396.48,0,180.21,-0.28
rw_cut_5_p1_1f_opt_disp_struct_9.xyz,Nucleus 1H :,0.963436,-0.037694,-1.311607,29.06,35.21,23.42,28.56,40.83,26.19,31.52,-6.8,-1.0,-3.55,23.42,28.56,35.21,0,11.79,-0.13
rw_cut_5_p1_1f_opt_disp_struct_9.xyz,Nucleus 2H :,1.771861,0.575686,-1.715415,28.9,24.04,27.97,34.69,47.14,28.65,26.09,1.89,-4.31,-12.74,24.04,27.97,34.69,0,10.65,-0.26
rw_cut_5_p1_1f_opt_disp_struct_9.xyz,Nucleus 6H :,1.131397,-1.072461,-1.629164,23.79,16.06,24.66,30.66,51.41,29.23,14.69,-21.23,-4.52,1.8,16.06,24.66,30.66,0,14.6,0.18
rw_cut_5_p1_1f_opt_disp_struct_9.xyz,Nucleus 12H :,0.893611,0.08523,0.167875,24.24,20.62,24.62,27.49,49.04,18.42,31.97,-24.51,2.52,-4.7,20.62,24.62,27.49,0,6.87,0.17
rw_cut_5_p1_1f_opt_disp_struct_9.xyz,Nucleus 14H :,1.679381,0.900459,0.959094,23.85,20.16,26.71,24.69,6.54,33.59,43.94,13.68,-6.9,-19.29,20.16,24.69,26.71,0,6.55,0.38
rw_cut_5_p1_1f_opt_disp_struct_9.xyz,Nucleus 16H :,1.303563,0.72871,2.263895,24.13,19.71,27.69,24.99,10.96,31.61,48.93,-24.07,-3.94,8.91,19.71,24.99,27.69,0,7.98,0.32
rw_cut_5_p1_1f_opt_disp_struct_9.xyz,Nucleus 17H :,1.685516,1.228929,3.049094,24.17,20.6,25.21,26.7,45.2,28.33,32.63,-19.91,-7.48,-6.26,20.6,25.21,26.7,0,6.1,0.51
rw_cut_5_p1_1f_opt_disp_struct_9.xyz,Nucleus 18H :,0.278966,-0.184654,2.347733,28.57,34.97,27.01,23.74,42.51,27.47,31.98,-0.57,-8.77,-6.9,23.74,27.01,34.97,0,11.23,-0.42
rw_cut_5_p1_1f_opt_disp_struct_9.xyz,Nucleus 20H :,-0.003253,-0.605327,1.045668,28.6,34.48,24.37,26.95,-9.4,17.34,39.08,36.03,8.28,-5.53,24.37,26.95,34.48,0,10.11,-0.49
rw_cut_5_p1_1f_opt_disp_struct_9.xyz,Nucleus 21H :,-1.032627,-1.550696,0.867668,28.6,35.18,26.47,24.14,-8.25,17.45,40.45,35.38,7.34,-6.58,24.14,26.47,35.18,0,11.04,-0.58
rw_cut_5_p1_1f_opt_disp_struct_9.xyz,Nucleus 23H :,-1.352572,-1.990954,-0.3583,26.99,18.64,34.03,28.29,6.14,49.96,28.71,-16.2,13.22,-0.86,18.64,28.29,34.03,0,15.39,0.25
rw_cut_5_p1_1f_opt_disp_struct_9.xyz,Nucleus 26H :,-1.736981,-2.04536,1.96654,27.07,37.75,23.75,19.72,71.21,26.22,47.89,-51.46,-10.33,-2.32,19.72,23.75,37.75,0,18.03,-0.55
rw_cut_5_p1_1f_opt_disp_struct_9.xyz,Nucleus 28H :,-2.533142,-2.760518,1.790905,26.77,19.81,26.64,33.86,-1.87,24.76,56.15,21.78,1.86,-22.37,19.81,26.64,33.86,0,14.05,-0.03
rw_cut_5_p1_1f_opt_disp_struct_9.xyz,Nucleus 29H :,-1.429259,-1.606459,3.251806,26.64,36.31,19.64,23.96,29.1,43.03,51.92,-32.12,-4.49,-7.53,19.64,23.96,36.31,0,16.67,-0.48
rw_cut_5_p1_1f_opt_disp_struct_9.xyz,Nucleus 30H :,-2.007671,-1.969482,4.095292,28.22,35.17,25.94,23.54,-23.26,38.37,12.19,46.89,-3.23,13.69,23.54,25.94,35.17,0,11.63,-0.59
rw_cut_5_p1_1f_opt_disp_struct_9.xyz,Nucleus 31H :,-0.415061,-0.666269,3.466535,27.24,34.58,26.52,20.63,51.45,28.37,36.19,-24.0,-8.88,-1.4,20.63,26.52,34.58,0,13.95,-0.15
rw_cut_5_p1_1f_opt_disp_struct_9.xyz,Nucleus 0C :,-0.189736,-0.311995,4.466699,170.86,186.57,160.51,165.5,259.13,236.88,238.88,-81.0,-74.34,-66.96,160.51,165.5,186.57,0,26.06,-0.62
rw_cut_5_p1_1f_opt_disp_struct_9.xyz,Nucleus 3C :,2.459454,1.592486,0.678151,61.87,149.07,52.16,-15.62,240.43,275.78,263.27,-91.43,-223.54,-278.9,-15.62,52.16,149.07,0,164.69,-0.18
rw_cut_5_p1_1f_opt_disp_struct_9.xyz,Nucleus 4C :,0.02922,0.285751,-1.782187,55.48,-29.87,128.38,67.94,260.64,255.44,275.85,-293.88,-130.13,-201.47,-29.87,67.94,128.38,0,158.25,0.24
rw_cut_5_p1_1f_opt_disp_struct_9.xyz,Nucleus 7C :,4.252773,-7.771707,3.703803,38.39,136.86,-38.62,16.92,273.33,263.75,264.89,-127.19,-311.65,-247.96,-38.62,16.92,136.86,0,175.48,-0.37
rw_cut_5_p1_1f_opt_disp_struct_9.xyz,Nucleus 8C :,4.24038,-7.364026,4.719792,60.68,162.5,23.22,-3.69,235.51,272.68,263.21,-73.53,-242.45,-273.4,-3.69,23.22,162.5,0,166.19,-0.68
rw_cut_5_p1_1f_opt_disp_struct_9.xyz,Nucleus 9C :,3.396782,-8.441758,3.558824,12.05,-65.96,74.93,27.19,233.06,267.86,270.58,-158.64,-240.3,-336.39,-65.96,27.19,74.93,0,140.89,0.32
rw_cut_5_p1_1f_opt_disp_struct_9.xyz,Nucleus 11C :,4.276447,-6.694512,2.717615,69.99,165.68,-15.39,59.69,236.01,263.36,276.2,-71.79,-282.0,-211.81,-15.39,59.69,165.68,0,181.07,-0.17
rw_cut_5_p1_1f_opt_disp_struct_9.xyz,Nucleus 13C :,4.9104,-6.79353,1.941695,53.05,173.33,41.78,-55.95,220.84,275.15,254.29,-47.65,-233.17,-310.3,-55.95,41.78,173.33,0,229.28,-0.15
rw_cut_5_p1_1f_opt_disp_struct_9.xyz,Nucleus 15C :,3.380063,-5.699519,2.640818,70.4,173.15,56.41,-18.36,237.07,273.24,265.61,-65.94,-216.14,-282.63,-18.36,56.41,173.15,0,191.51,-0.22
rw_cut_5_p1_1f_opt_disp_struct_9.xyz,Nucleus 19C :,3.514723,-4.778922,1.685895,155.27,130.53,146.6,188.69,192.08,209.01,271.57,-45.62,-75.14,-86.06,130.53,146.6,188.69,0,58.16,-0.45
rw_cut_5_p1_1f_opt_disp_struct_9.xyz,Nucleus 24C :,2.85469,-4.013827,1.587391,21.45,115.53,-16.73,-34.44,240.18,270.43,263.49,-124.7,-281.52,-303.52,-34.44,-16.73,115.53,0,149.97,-0.76
rw_cut_5_p1_1f_opt_disp_struct_9.xyz,Nucleus 5N :,2.357927,-5.594449,3.490235,116.7,53.94,169.41,126.76,300.29,335.49,331.33,-131.23,-208.04,-277.71,53.94,126.76,169.41,0,115.47,0.26
rw_cut_5_p1_1f_opt_disp_struct_9.xyz,Nucleus 22N :,2.152565,-6.336782,4.137057,168.19,101.08,222.75,180.74,280.6,348.16,330.51,-233.99,-98.77,-121.93,101.08,180.74,222.75,0,121.67,0.31
rw_cut_5_p1_1f_opt_disp_struct_9.xyz,Nucleus 25N :,1.73505,-4.79106,3.466627,174.73,114.59,176.26,233.33,321.35,344.33,335.38,-211.9,-162.78,-102.19,114.59,176.26,233.33,0,118.74,0.04
rw_cut_5_p1_1f_opt_disp_struct_9.xyz,Nucleus 27N :,5.166656,-8.35505,3.592083,174.49,115.53,212.27,195.67,295.2,339.87,324.49,-210.49,-98.28,-127.32,115.53,195.67,212.27,0,96.74,0.66
rw_cut_5_p1_1f_opt_disp_struct_9.xyz,Nucleus 10F :,4.361091,-4.725432,1.144745,298.38,396.51,216.99,281.63,487.08,458.97,465.89,-69.43,-243.05,-204.33,216.99,281.63,396.51,0,179.52,-0.28
rw_cut_5_p1_2f_opt.xyz,Nucleus 1H :,0.978308,-0.026527,-1.315789,28.91,35.57,23.16,27.99,41.09,25.3,31.47,-0.56,-6.54,-4.04,23.16,27.99,35.57,0,12.41,-0.22
rw_cut_5_p1_2f_opt.xyz,Nucleus 2H :,1.793625,0.584543,-1.708662,29.0,23.99,28.53,34.49,48.44,28.41,26.56,2.16,-4.34,-14.22,23.99,28.53,34.49,0,10.5,-0.13
rw_cut_5_p1_2f_opt.xyz,Nucleus 6H :,1.14252,-1.060049,-1.638933,23.17,14.85,24.52,30.14,52.38,28.39,10.72,-22.64,-4.06,4.72,14.85,24.52,30.14,0,15.29,0.26
rw_cut_5_p1_2f_opt.xyz,Nucleus 12H :,0.898381,0.087734,0.164136,24.06,20.22,25.25,26.7,48.91,19.07,29.03,-24.04,1.86,-2.66,20.22,25.25,26.7,0,6.48,0.55
rw_cut_5_p1_2f_opt.xyz,Nucleus 14H :,1.679258,0.897402,0.967472,24.09,20.68,26.25,25.35,7.55,31.55,43.67,13.58,-5.65,-18.43,20.68,25.35,26.25,0,5.57,0.68
rw_cut_5_p1_2f_opt.xyz,Nucleus 17H :,1.294062,0.718193,2.269168,23.81,20.0,26.25,25.19,45.02,26.29,32.35,-19.55,-6.02,-6.65,20.0,25.19,26.25,0,6.25,0.66
rw_cut_5_p1_2f_opt.xyz,Nucleus 18H :,1.668162,1.20678,3.066035,28.54,35.33,26.8,23.48,43.1,27.52,32.22,-0.57,-7.88,-8.79,23.48,26.8,35.33,0,11.85,-0.44
rw_cut_5_p1_2f_opt.xyz,Nucleus 20H :,0.26957,-0.193923,2.334108,28.86,35.47,24.17,26.93,-0.18,16.8,39.59,26.75,8.28,-4.67,24.17,26.93,35.47,0,11.3,-0.51
rw_cut_5_p1_2f_opt.xyz,Nucleus 21H :,-0.00586,-0.608235,1.029485,28.81,34.82,27.24,24.36,0.96,19.77,39.39,25.22,6.4,-5.31,24.36,27.24,34.82,0,10.46,-0.45
rw_cut_5_p1_2f_opt.xyz,Nucleus 23H :,-1.036586,-1.55293,0.842672,27.52,18.43,34.84,29.3,48.69,18.22,30.41,-13.99,-2.29,1.54,18.43,29.3,34.84,0,16.41,0.33
rw_cut_5_p1_2f_opt.xyz,Nucleus 26H :,-1.349498,-1.987175,-0.386731,27.29,48.48,14.14,19.26,11.97,59.86,42.63,8.35,-28.98,-11.95,14.14,19.26,48.48,0,34.34,-0.7
rw_cut_5_p1_2f_opt.xyz,Nucleus 28H :,-1.749496,-2.053018,1.937033,27.28,20.0,27.74,34.1,0.61,24.06,52.48,19.66,3.68,-18.63,20.0,27.74,34.1,0,14.1,0.1
rw_cut_5_p1_2f_opt.xyz,Nucleus 29H :,-2.548433,-2.763978,1.759427,26.28,46.38,18.41,14.06,52.54,14.09,26.44,6.03,-12.54,-7.7,14.06,18.41,46.38,0,32.32,-0.73
rw_cut_5_p1_2f_opt.xyz,Nucleus 30H :,-1.448696,-1.620198,3.226445,28.46,35.83,23.53,26.02,-9.19,15.79,39.13,32.89,10.17,-3.39,23.53,26.02,35.83,0,12.3,-0.6
rw_cut_5_p1_2f_opt.xyz,Nucleus 31H :,-2.02209,-1.967737,4.080008,28.03,20.25,34.4,29.43,44.14,37.87,32.98,-18.06,-9.46,-3.38,20.25,29.43,34.4,0,14.15,0.3
rw_cut_5_p1_2f_opt.xyz,Nucleus 0C :,-0.43562,-0.685215,3.434672,171.68,160.37,167.67,187.01,261.28,236.94,240.4,-83.64,-72.82,-67.11,160.37,167.67,187.01,0,26.64,-0.45
rw_cut_5_p1_2f_opt.xyz,Nucleus 3C :,-0.149463,-0.269606,4.674974,60.39,147.87,49.2,-15.89,244.75,279.45,264.28,-97.03,-230.19,-280.09,-15.89,49.2,147.87,0,163.76,-0.2
rw_cut_5_p1_2f_opt.xyz,Nucleus 4C :,2.463568,1.589288,0.69854,48.78,-38.21,128.82,55.74,277.33,256.67,258.35,-301.78,-128.81,-215.41,-38.21,55.74,128.82,0,167.03,0.13
rw_cut_5_p1_2f_opt.xyz,Nucleus 7C :,0.04962,0.305709,-1.790956,52.16,138.99,-2.3,19.79,276.36,267.51,262.16,-123.7,-278.25,-247.61,-2.3,19.79,138.99,0,141.29,-0.69
rw_cut_5_p1_2f_opt.xyz,Nucleus 8C :,2.587781,-5.921781,3.463373,59.18,159.76,24.85,-7.06,233.42,256.25,269.62,-74.1,-231.93,-275.7,-7.06,24.85,159.76,0,166.82,-0.62
rw_cut_5_p1_2f_opt.xyz,Nucleus 9C :,2.77347,-5.554279,4.479701,16.06,-59.55,78.68,29.06,240.28,265.57,273.12,-331.91,-162.16,-236.71,-59.55,29.06,78.68,0,138.23,0.28
rw_cut_5_p1_2f_opt.xyz,Nucleus 11C :,1.632089,-6.454909,3.426812,67.79,164.2,-15.43,54.61,237.61,261.57,275.44,-76.82,-281.01,-213.42,-15.43,54.61,164.2,0,179.63,-0.22
rw_cut_5_p1_2f_opt.xyz,Nucleus 13C :,2.614322,-4.841586,2.480545,69.83,166.6,54.17,-11.28,225.42,276.75,255.91,-59.87,-220.05,-268.66,-11.28,54.17,166.6,0,177.88,-0.26
rw_cut_5_p1_2f_opt.xyz,Nucleus 15C :,3.433459,-4.762084,1.900867,25.1,85.03,30.33,-40.07,235.44,273.04,263.25,-151.41,-239.14,-305.9,-40.07,30.33,85.03,0,125.1,0.13
rw_cut_5_p1_2f_opt.xyz,Nucleus 19C :,1.716306,-3.848195,2.402103,155.53,131.18,146.39,189.03,213.52,202.22,265.11,-55.22,-84.81,-74.23,131.18,146.39,189.03,0,57.85,-0.47
rw_cut_5_p1_2f_opt.xyz,Nucleus 24C :,1.853992,-2.924465,1.450643,22.91,118.68,-19.69,-30.26,234.53,268.67,263.63,-116.06,-287.66,-294.39,-30.26,-19.69,118.68,0,148.94,-0.86
rw_cut_5_p1_2f_opt.xyz,Nucleus 5N :,1.201442,-2.153541,1.357851,114.4,40.91,184.87,117.42,295.12,337.08,331.78,-110.43,-215.83,-294.52,40.91,117.42,184.87,0,143.96,0.06
rw_cut_5_p1_2f_opt.xyz,Nucleus 22N :,0.689597,-3.747754,3.246551,173.47,110.59,231.16,178.66,296.83,346.32,330.68,-221.33,-122.49,-109.6,110.59,178.66,231.16,0,120.57,0.13
rw_cut_5_p1_2f_opt.xyz,Nucleus 25N :,0.611003,-4.36922,4.033523,167.96,114.02,172.17,217.68,320.28,325.69,340.24,-208.65,-154.38,-119.31,114.02,172.17,217.68,0,103.66,0.12
rw_cut_5_p1_2f_opt.xyz,Nucleus 27N :,-0.030002,-3.041525,3.118061,163.88,111.27,187.16,193.2,290.84,327.52,333.93,-99.32,-141.4,-219.94,111.27,187.16,193.2,0,81.93,0.85
rw_cut_5_p1_2f_opt.xyz,Nucleus 10F :,3.373663,-6.632631,3.208539,293.44,401.0,201.87,277.44,484.08,455.34,466.04,-64.21,-257.31,-203.64,201.87,277.44,401.0,0,199.13,-0.24
rw_cut_5_p1_2f_opt.xyz,Nucleus 16F :,2.520893,-3.051326,0.708317,309.43,410.52,228.52,289.26,453.25,483.92,479.3,-68.9,-226.89,-192.38,228.52,289.26,410.52,0,182.0,-0.33
rw_cut_5_p1_2f_opt_disp_struct_0.xyz,Nucleus 1H :,0.978308,-0.026527,-1.315789,28.93,35.51,23.21,28.07,41.03,25.26,31.76,-0.54,-6.48,-4.25,23.21,28.07,35.51,0,12.3,-0.21
rw_cut_5_p1_2f_opt_disp_struct_0.xyz,Nucleus 2H :,1.793625,0.584543,-1.708662,29.0,24.01,28.48,34.5,48.37,28.61,26.59,2.07,-4.56,-14.09,24.01,28.48,34.5,0,10.49,-0.15
rw_cut_5_p1_2f_opt_disp_struct_0.xyz,Nucleus 6H :,1.14252,-1.060049,-1.638933,23.23,14.93,24.63,30.12,52.45,28.52,10.86,-22.75,-4.01,4.63,14.93,24.63,30.12,0,15.19,0.28
rw_cut_5_p1_2f_opt_disp_struct_0.xyz,Nucleus 12H :,0.898381,0.087734,0.164136,24.09,20.33,25.2,26.73,49.04,19.36,29.38,-24.21,1.67,-2.97,20.33,25.2,26.73,0,6.4,0.52
rw_cut_5_p1_2f_opt_disp_struct_0.xyz,Nucleus 14H :,1.679258,0.897402,0.967472,24.12,20.7,26.29,25.38,8.28,31.68,43.72,12.84,-5.64,-18.51,20.7,25.38,26.29,0,5.59,0.68
rw_cut_5_p1_2f_opt_disp_struct_0.xyz,Nucleus 17H :,1.294062,0.718193,2.269168,23.85,20.06,25.22,26.27,45.08,26.29,32.74,-19.62,-5.94,-6.98,20.06,25.22,26.27,0,6.21,0.66
rw_cut_5_p1_2f_opt_disp_struct_0.xyz,Nucleus 18H :,1.668162,1.20678,3.066035,28.55,35.3,26.81,23.53,43.0,27.62,32.06,-0.63,-7.89,-8.52,23.53,26.81,35.3,0,11.77,-0.44
rw_cut_5_p1_2f_opt_disp_struct_0.xyz,Nucleus 20H :,0.26957,-0.193923,2.334108,28.81,35.41,24.14,26.88,-1.43,16.82,39.54,28.02,8.21,-4.74,24.14,26.88,35.41,0,11.27,-0.51
rw_cut_5_p1_2f_opt_disp_struct_0.xyz,Nucleus 21H :,-0.00586,-0.608235,1.029485,28.77,34.77,27.2,24.33,-0.16,19.74,39.39,26.41,6.33,-5.42,24.33,27.2,34.77,0,10.44,-0.45
rw_cut_5_p1_2f_opt_disp_struct_0.xyz,Nucleus 23H :,-1.036586,-1.55293,0.842672,27.43,18.49,34.67,29.12,48.79,17.04,30.02,-14.21,-1.93,2.57,18.49,29.12,34.67,0,16.18,0.31
rw_cut_5_p1_2f_opt_disp_struct_0.xyz,Nucleus 26H :,-1.349498,-1.987175,-0.386731,28.01,46.39,16.33,21.32,15.27,47.82,57.6,-31.61,6.59,-11.62,16.33,21.32,46.39,0,30.06,-0.67
rw_cut_5_p1_2f_opt_disp_struct_0.xyz,Nucleus 28H :,-1.749496,-2.053018,1.937033,27.24,19.86,27.6,34.25,-0.73,24.38,52.61,20.81,3.17,-18.52,19.86,27.6,34.25,0,14.39,0.08
rw_cut_5_p1_2f_opt_disp_struct_0.xyz,Nucleus 29H :,-2.548433,-2.763978,1.759427,27.02,44.03,20.78,16.26,49.95,18.37,30.56,3.9,-14.33,-7.38,16.26,20.78,44.03,0,27.77,-0.67
rw_cut_5_p1_2f_opt_disp_struct_0.xyz,Nucleus 30H :,-1.448696,-1.620198,3.226445,28.42,35.74,23.54,25.99,-10.73,15.49,39.0,34.42,10.43,-3.35,23.54,25.99,35.74,0,12.2,-0.6
rw_cut_5_p1_2f_opt_disp_struct_0.xyz,Nucleus 31H :,-2.02209,-1.967737,4.080008,27.94,20.28,34.56,28.99,44.38,38.51,32.28,-18.93,-9.43,-2.98,20.28,28.99,34.56,0,14.28,0.22
rw_cut_5_p1_2f_opt_disp_struct_0.xyz,Nucleus 0C :,-0.43562,-0.685215,3.434672,171.64,160.45,167.51,186.96,236.47,240.31,261.07,-83.46,-72.71,-66.76,160.45,167.51,186.96,0,26.51,-0.47
rw_cut_5_p1_2f_opt_disp_struct_0.xyz,Nucleus 3C :,-0.149463,-0.269606,4.674974,61.03,148.07,50.43,-15.42,243.12,279.27,263.77,-95.24,-228.79,-279.05,-15.42,50.43,148.07,0,163.49,-0.19
rw_cut_5_p1_2f_opt_disp_struct_0.xyz,Nucleus 4C :,2.463568,1.589288,0.69854,49.88,-36.49,128.72,57.41,277.81,257.05,257.26,-300.18,-128.47,-213.83,-36.49,57.41,128.72,0,165.21,0.14
rw_cut_5_p1_2f_opt_disp_struct_0.xyz,Nucleus 7C :,0.04962,0.305709,-1.790956,52.54,138.98,-1.4,20.04,276.56,261.54,266.49,-122.66,-277.83,-246.47,-1.4,20.04,138.98,0,140.38,-0.69
rw_cut_5_p1_2f_opt_disp_struct_0.xyz,Nucleus 8C :,2.753799,-6.107174,3.487199,59.67,159.32,25.43,-5.73,233.42,270.99,257.36,-74.47,-232.77,-275.5,-5.73,25.43,159.32,0,165.05,-0.62
rw_cut_5_p1_2f_opt_disp_struct_0.xyz,Nucleus 9C :,2.939488,-5.739671,4.503527,16.83,-58.45,78.39,30.55,239.46,266.04,273.36,-331.27,-161.57,-235.52,-58.45,30.55,78.39,0,136.84,0.3
rw_cut_5_p1_2f_opt_disp_struct_0.xyz,Nucleus 11C :,1.798107,-6.640302,3.450638,68.79,164.0,-14.63,56.99,236.23,261.63,275.98,-76.03,-280.19,-211.25,-14.63,56.99,164.0,0,178.63,-0.2
rw_cut_5_p1_2f_opt_disp_struct_0.xyz,Nucleus 13C :,2.78034,-5.026979,2.504371,70.58,166.08,55.96,-10.31,225.68,276.74,256.42,-61.08,-218.26,-267.76,-10.31,55.96,166.08,0,176.39,-0.25
rw_cut_5_p1_2f_opt_disp_struct_0.xyz,Nucleus 15C :,3.599477,-4.947477,1.924693,25.84,84.69,31.95,-39.11,234.06,272.08,262.95,-150.64,-236.74,-304.19,-39.11,31.95,84.69,0,123.8,0.15
rw_cut_5_p1_2f_opt_disp_struct_0.xyz,Nucleus 19C :,1.882324,-4.033587,2.425929,155.49,130.99,146.43,189.04,213.07,201.09,265.8,-54.09,-85.01,-74.39,130.99,146.43,189.04,0,58.05,-0.47
rw_cut_5_p1_2f_opt_disp_struct_0.xyz,Nucleus 24C :,2.02001,-3.109857,1.474469,22.46,117.11,-18.26,-31.48,235.74,267.77,264.35,-118.77,-285.88,-295.83,-31.48,-18.26,117.11,0,148.59,-0.82
rw_cut_5_p1_2f_opt_disp_struct_0.xyz,Nucleus 5N :,1.36746,-2.338934,1.381677,115.77,42.86,184.86,119.6,294.95,336.97,331.78,-110.46,-214.07,-291.84,42.86,119.6,184.86,0,142.0,0.08
rw_cut_5_p1_2f_opt_disp_struct_0.xyz,Nucleus 22N :,0.855615,-3.933147,3.270377,172.19,107.98,229.58,179.0,295.24,346.2,330.45,-224.06,-121.7,-109.56,107.98,179.0,229.58,0,121.6,0.17
rw_cut_5_p1_2f_opt_disp_struct_0.xyz,Nucleus 25N :,0.777021,-4.554612,4.057349,171.78,115.32,174.65,225.36,321.12,325.47,339.31,-208.02,-152.1,-110.46,115.32,174.65,225.36,0,110.04,0.08
rw_cut_5_p1_2f_opt_disp_struct_0.xyz,Nucleus 27N :,0.136016,-3.226917,3.141887,168.94,114.32,192.51,199.99,288.3,326.94,334.26,-215.22,-133.55,-93.92,114.32,192.51,199.99,0,85.67,0.83
rw_cut_5_p1_2f_opt_disp_struct_0.xyz,Nucleus 10F :,3.539681,-6.818024,3.232365,296.23,401.61,206.77,280.3,484.99,455.63,466.04,-63.85,-252.62,-201.5,206.77,280.3,401.61,0,194.84,-0.25
rw_cut_5_p1_2f_opt_disp_struct_0.xyz,Nucleus 16F :,2.686911,-3.236719,0.732143,312.55,411.18,234.13,292.34,454.18,477.42,483.92,-66.47,-221.34,-190.06,234.13,292.34,411.18,0,177.05,-0.34
rw_cut_5_p1_2f_opt_disp_struct_1.xyz,Nucleus 1H :,0.978308,-0.026527,-1.315789,28.95,35.45,23.25,28.14,41.0,25.3,31.91,-0.57,-6.49,-4.31,23.25,28.14,35.45,0,12.2,-0.2
rw_cut_5_p1_2f_opt_disp_struct_1.xyz,Nucleus 2H :,1.793625,0.584543,-1.708662,28.99,24.03,28.41,34.52,48.23,28.73,26.6,1.96,-4.66,-13.9,24.03,28.41,34.52,0,10.49,-0.17
rw_cut_5_p1_2f_opt_disp_struct_1.xyz,Nucleus 6H :,1.14252,-1.060049,-1.638933,23.29,15.0,24.72,30.14,52.43,28.65,10.94,-22.75,-4.0,4.59,15.0,24.72,30.14,0,15.14,0.28
rw_cut_5_p1_2f_opt_disp_struct_1.xyz,Nucleus 12H :,0.898381,0.087734,0.164136,24.12,20.4,25.15,26.8,49.12,19.44,29.86,-24.34,1.67,-3.41,20.4,25.15,26.8,0,6.4,0.48
rw_cut_5_p1_2f_opt_disp_struct_1.xyz,Nucleus 14H :,1.679258,0.897402,0.967472,24.13,20.71,26.36,25.32,8.64,32.04,43.75,12.44,-5.86,-18.61,20.71,25.32,26.36,0,5.65,0.63
rw_cut_5_p1_2f_opt_disp_struct_1.xyz,Nucleus 17H :,1.294062,0.718193,2.269168,23.9,20.14,25.25,26.31,45.13,26.31,32.89,-19.7,-5.88,-7.06,20.14,25.25,26.31,0,6.17,0.66
rw_cut_5_p1_2f_opt_disp_struct_1.xyz,Nucleus 18H :,1.668162,1.20678,3.066035,28.55,35.25,26.83,23.57,42.9,27.69,31.92,-0.69,-7.85,-8.33,23.57,26.83,35.25,0,11.68,-0.44
rw_cut_5_p1_2f_opt_disp_struct_1.xyz,Nucleus 20H :,0.26957,-0.193923,2.334108,28.77,35.36,24.14,26.82,-2.57,16.8,39.53,29.19,8.2,-4.83,24.14,26.82,35.36,0,11.22,-0.52
rw_cut_5_p1_2f_opt_disp_struct_1.xyz,Nucleus 21H :,-0.00586,-0.608235,1.029485,28.73,34.73,27.15,24.32,-1.18,19.69,39.41,27.51,6.29,-5.53,24.32,27.15,34.73,0,10.41,-0.46
rw_cut_5_p1_2f_opt_disp_struct_1.xyz,Nucleus 23H :,-1.036586,-1.55293,0.842672,27.34,18.53,34.53,28.96,48.91,15.75,29.69,-14.44,-1.61,3.72,18.53,28.96,34.53,0,16.0,0.3
rw_cut_5_p1_2f_opt_disp_struct_1.xyz,Nucleus 26H :,-1.349498,-1.987175,-0.386731,28.23,44.63,17.62,22.44,17.89,51.78,55.72,-34.16,4.8,-11.34,17.62,22.44,44.63,0,27.01,-0.64
rw_cut_5_p1_2f_opt_disp_struct_1.xyz,Nucleus 28H :,-1.749496,-2.053018,1.937033,27.16,19.77,27.45,34.27,-1.37,24.56,52.84,21.31,2.83,-18.68,19.77,27.45,34.27,0,14.5,0.06
rw_cut_5_p1_2f_opt_disp_struct_1.xyz,Nucleus 29H :,-2.548433,-2.763978,1.759427,27.31,42.18,22.16,17.58,48.18,21.44,33.92,-16.33,2.07,-7.36,17.58,22.16,42.18,0,24.6,-0.63
rw_cut_5_p1_2f_opt_disp_struct_1.xyz,Nucleus 30H :,-1.448696,-1.620198,3.226445,28.38,35.65,23.53,25.96,-12.23,15.2,38.89,35.91,10.71,-3.33,23.53,25.96,35.65,0,12.12,-0.6
rw_cut_5_p1_2f_opt_disp_struct_1.xyz,Nucleus 31H :,-2.02209,-1.967737,4.080008,27.84,20.33,34.63,28.56,31.67,38.87,44.79,-19.44,-9.63,-2.74,20.33,28.56,34.63,0,14.3,0.15
rw_cut_5_p1_2f_opt_disp_struct_1.xyz,Nucleus 0C :,-0.43562,-0.685215,3.434672,171.57,160.5,167.35,186.87,236.23,240.2,260.82,-83.24,-72.7,-66.58,160.5,167.35,186.87,0,26.37,-0.48
rw_cut_5_p1_2f_opt_disp_struct_1.xyz,Nucleus 3C :,-0.149463,-0.269606,4.674974,61.32,148.17,51.17,-15.37,241.78,278.76,263.6,-93.8,-227.55,-278.82,-15.37,51.17,148.17,0,163.54,-0.19
rw_cut_5_p1_2f_opt_disp_struct_1.xyz,Nucleus 4C :,2.463568,1.589288,0.69854,50.83,-35.09,128.62,58.97,277.93,257.73,256.04,-298.79,-128.26,-212.16,-35.09,58.97,128.62,0,163.71,0.15
rw_cut_5_p1_2f_opt_disp_struct_1.xyz,Nucleus 7C :,0.04962,0.305709,-1.790956,52.68,138.89,-1.03,20.19,276.86,260.46,266.02,-121.79,-277.85,-245.65,-1.03,20.19,138.89,0,139.92,-0.7
rw_cut_5_p1_2f_opt_disp_struct_1.xyz,Nucleus 8C :,2.919817,-6.292566,3.511025,59.69,159.03,25.25,-5.21,233.74,272.27,258.44,-75.12,-234.3,-275.97,-5.21,25.25,159.03,0,164.24,-0.63
rw_cut_5_p1_2f_opt_disp_struct_1.xyz,Nucleus 9C :,3.105506,-5.925064,4.527353,17.2,-57.98,78.08,31.51,238.47,266.62,273.55,-331.17,-160.95,-234.92,-57.98,31.51,78.08,0,136.06,0.32
rw_cut_5_p1_2f_opt_disp_struct_1.xyz,Nucleus 11C :,1.964125,-6.825694,3.474464,69.42,163.77,-14.05,58.55,235.48,261.35,276.72,-75.45,-279.84,-210.0,-14.05,58.55,163.77,0,177.82,-0.18
rw_cut_5_p1_2f_opt_disp_struct_1.xyz,Nucleus 13C :,2.946358,-5.212371,2.528197,70.63,165.65,56.68,-10.43,225.52,277.13,257.19,-62.15,-217.87,-267.91,-10.43,56.68,165.65,0,176.08,-0.24
rw_cut_5_p1_2f_opt_disp_struct_1.xyz,Nucleus 15C :,3.765495,-5.132869,1.948519,26.38,84.42,33.11,-38.4,233.21,271.69,262.66,-150.16,-235.25,-303.02,-38.4,33.11,84.42,0,122.82,0.16
rw_cut_5_p1_2f_opt_disp_struct_1.xyz,Nucleus 19C :,2.048342,-4.21898,2.449755,155.47,130.89,146.48,189.03,212.58,200.02,266.47,-53.02,-85.1,-74.56,130.89,146.48,189.03,0,58.14,-0.46
rw_cut_5_p1_2f_opt_disp_struct_1.xyz,Nucleus 24C :,2.186028,-3.295249,1.498295,22.21,116.29,-17.38,-32.29,236.27,267.25,264.95,-120.09,-284.62,-297.15,-32.29,-17.38,116.29,0,148.58,-0.8
rw_cut_5_p1_2f_opt_disp_struct_1.xyz,Nucleus 5N :,1.533478,-2.524326,1.405503,117.09,44.9,184.84,121.52,294.76,336.93,331.78,-110.49,-212.55,-289.16,44.9,121.52,184.84,0,139.94,0.09
rw_cut_5_p1_2f_opt_disp_struct_1.xyz,Nucleus 22N :,1.021633,-4.118539,3.294203,171.21,106.14,228.19,179.3,293.49,346.18,330.3,-226.09,-121.23,-109.03,106.14,179.3,228.19,0,122.05,0.2
rw_cut_5_p1_2f_opt_disp_struct_1.xyz,Nucleus 25N :,0.943039,-4.740005,4.081175,173.67,115.8,175.73,229.48,322.18,326.62,338.96,-208.22,-152.43,-106.09,115.8,175.73,229.48,0,113.68,0.05
rw_cut_5_p1_2f_opt_disp_struct_1.xyz,Nucleus 27N :,0.302034,-3.41231,3.165713,171.74,115.56,194.55,205.1,287.87,326.47,334.82,-212.82,-129.09,-92.02,115.56,194.55,205.1,0,89.54,0.76
rw_cut_5_p1_2f_opt_disp_struct_1.xyz,Nucleus 10F :,3.705699,-7.003416,3.256191,298.3,402.02,210.47,282.42,485.62,455.92,466.01,-63.64,-248.99,-200.0,210.47,282.42,402.02,0,191.55,-0.25
rw_cut_5_p1_2f_opt_disp_struct_1.xyz,Nucleus 16F :,2.852929,-3.422111,0.755969,315.11,411.71,238.91,294.71,454.89,475.81,484.26,-64.62,-216.85,-188.17,238.91,294.71,411.71,0,172.8,-0.35
rw_cut_5_p1_2f_opt_disp_struct_10.xyz,Nucleus 1H :,0.978308,-0.026527,-1.315789,29.07,35.25,23.42,28.55,40.84,25.9,31.38,-6.64,-0.81,-3.45,23.42,28.55,35.25,0,11.83,-0.13
rw_cut_5_p1_2f_opt_disp_struct_10.xyz,Nucleus 2H :,1.793625,0.584543,-1.708662,28.92,24.02,27.98,34.77,46.94,28.55,26.07,1.91,-4.23,-12.47,24.02,27.98,34.77,0,10.75,-0.26
rw_cut_5_p1_2f_opt_disp_struct_10.xyz,Nucleus 6H :,1.14252,-1.060049,-1.638933,23.62,15.32,25.1,30.45,51.37,11.41,29.75,-21.39,-4.51,4.23,15.32,25.1,30.45,0,15.13,0.29
rw_cut_5_p1_2f_opt_disp_struct_10.xyz,Nucleus 12H :,0.898381,0.087734,0.164136,24.33,20.54,25.05,27.4,48.63,18.72,31.31,-23.65,2.14,-4.16,20.54,25.05,27.4,0,6.86,0.31
rw_cut_5_p1_2f_opt_disp_struct_10.xyz,Nucleus 14H :,1.679258,0.897402,0.967472,24.25,20.55,27.1,25.09,6.73,34.23,43.96,13.87,-7.23,-18.83,20.55,25.09,27.1,0,6.55,0.38
rw_cut_5_p1_2f_opt_disp_struct_10.xyz,Nucleus 17H :,1.294062,0.718193,2.269168,24.16,20.52,25.34,26.61,45.23,27.08,32.37,-19.81,-6.36,-6.04,20.52,25.34,26.61,0,6.09,0.58
rw_cut_5_p1_2f_opt_disp_struct_10.xyz,Nucleus 18H :,1.668162,1.20678,3.066035,28.6,35.03,26.99,23.79,42.44,27.49,31.89,-0.6,-8.58,-6.82,23.79,26.99,35.03,0,11.24,-0.43
rw_cut_5_p1_2f_opt_disp_struct_10.xyz,Nucleus 20H :,0.26957,-0.193923,2.334108,28.59,35.12,24.15,26.49,-11.19,16.19,39.86,38.09,8.6,-5.8,24.15,26.49,35.12,0,10.97,-0.57
rw_cut_5_p1_2f_opt_disp_struct_10.xyz,Nucleus 21H :,-0.00586,-0.608235,1.029485,28.57,34.52,26.84,24.34,-8.92,19.08,39.86,35.8,6.46,-6.58,24.34,26.84,34.52,0,10.18,-0.51
rw_cut_5_p1_2f_opt_disp_struct_10.xyz,Nucleus 23H :,-1.036586,-1.55293,0.842672,26.95,18.64,33.98,28.22,50.36,4.14,27.73,-16.42,14.87,0.16,18.64,28.22,33.98,0,15.34,0.25
rw_cut_5_p1_2f_opt_disp_struct_10.xyz,Nucleus 26H :,-1.349498,-1.987175,-0.386731,27.03,37.41,23.84,19.83,73.52,47.5,26.49,-53.58,-10.44,-2.41,19.83,23.84,37.41,0,17.58,-0.54
rw_cut_5_p1_2f_opt_disp_struct_10.xyz,Nucleus 28H :,-1.749496,-2.053018,1.937033,26.7,19.77,26.54,33.79,-2.59,25.09,56.34,22.43,1.39,-22.56,19.77,26.54,33.79,0,14.02,-0.03
rw_cut_5_p1_2f_opt_disp_struct_10.xyz,Nucleus 29H :,-2.548433,-2.763978,1.759427,26.56,35.97,19.74,23.98,29.6,43.77,53.76,-33.99,-5.18,-8.26,19.74,23.98,35.97,0,16.23,-0.48
rw_cut_5_p1_2f_opt_disp_struct_10.xyz,Nucleus 30H :,-1.448696,-1.620198,3.226445,28.19,35.11,23.53,25.93,-24.85,12.47,38.35,48.51,13.41,-3.32,23.53,25.93,35.11,0,11.58,-0.59
rw_cut_5_p1_2f_opt_disp_struct_10.xyz,Nucleus 31H :,-2.02209,-1.967737,4.080008,27.19,34.59,20.64,26.34,28.54,40.72,48.33,-22.61,-11.74,-1.67,20.64,26.34,34.59,0,13.95,-0.18
rw_cut_5_p1_2f_opt_disp_struct_10.xyz,Nucleus 0C :,-0.43562,-0.685215,3.434672,171.25,186.73,160.62,166.41,259.08,236.48,238.81,-80.79,-73.46,-66.37,160.62,166.41,186.73,0,26.11,-0.56
rw_cut_5_p1_2f_opt_disp_struct_10.xyz,Nucleus 3C :,-0.149463,-0.269606,4.674974,61.47,148.29,52.07,-15.94,240.92,276.09,263.37,-92.69,-223.96,-279.31,-15.94,52.07,148.29,0,164.23,-0.17
rw_cut_5_p1_2f_opt_disp_struct_10.xyz,Nucleus 4C :,2.463568,1.589288,0.69854,54.56,-29.95,127.9,65.74,275.68,259.53,255.16,-293.59,-129.32,-203.78,-29.95,65.74,127.9,0,157.85,0.21
rw_cut_5_p1_2f_opt_disp_struct_10.xyz,Nucleus 7C :,0.04962,0.305709,-1.790956,52.46,138.17,-1.68,20.9,275.28,258.71,266.02,-120.62,-276.84,-245.15,-1.68,20.9,138.17,0,139.85,-0.68
rw_cut_5_p1_2f_opt_disp_struct_10.xyz,Nucleus 8C :,4.413979,-7.961098,3.725459,58.41,158.26,22.4,-5.42,234.52,271.5,263.25,-76.81,-242.06,-275.15,-5.42,22.4,158.26,0,163.68,-0.66
rw_cut_5_p1_2f_opt_disp_struct_10.xyz,Nucleus 9C :,4.599668,-7.593595,4.741787,17.03,-58.72,76.63,33.17,234.87,267.27,270.73,-329.33,-233.78,-158.67,-58.72,33.17,76.63,0,135.35,0.36
rw_cut_5_p1_2f_opt_disp_struct_10.xyz,Nucleus 11C :,3.458287,-8.494226,3.688898,70.05,162.23,-13.59,61.5,237.47,260.8,276.27,-76.24,-279.98,-208.18,-13.59,61.5,162.23,0,175.82,-0.15
rw_cut_5_p1_2f_opt_disp_struct_10.xyz,Nucleus 13C :,4.44052,-6.880903,2.742631,68.5,163.94,55.49,-13.93,226.79,258.29,278.01,-63.08,-220.42,-274.08,-13.93,55.49,163.94,0,177.87,-0.22
rw_cut_5_p1_2f_opt_disp_struct_10.xyz,Nucleus 15C :,5.259657,-6.801401,2.162953,27.08,83.14,35.46,-37.35,231.67,271.2,262.37,-149.03,-233.42,-301.53,-37.35,35.46,83.14,0,120.49,0.21
rw_cut_5_p1_2f_opt_disp_struct_10.xyz,Nucleus 19C :,3.542504,-5.887511,2.664189,155.26,130.44,146.58,188.77,208.0,191.19,272.0,-44.28,-74.67,-86.43,130.44,146.58,188.77,0,58.33,-0.45
rw_cut_5_p1_2f_opt_disp_struct_10.xyz,Nucleus 24C :,3.68019,-4.963781,1.71273,21.59,115.65,-16.38,-34.49,240.28,270.97,263.4,-124.7,-281.38,-303.79,-34.49,-16.38,115.65,0,150.14,-0.76
rw_cut_5_p1_2f_opt_disp_struct_10.xyz,Nucleus 5N :,3.02764,-4.192858,1.619937,122.02,52.99,184.45,128.63,295.45,336.57,331.44,-111.31,-206.66,-279.42,52.99,128.63,184.45,0,131.46,0.15
rw_cut_5_p1_2f_opt_disp_struct_10.xyz,Nucleus 22N :,2.515795,-5.787071,3.508637,168.02,100.81,222.82,180.44,278.1,348.41,329.59,-234.03,-122.06,-95.94,100.81,180.44,222.82,0,122.01,0.31
rw_cut_5_p1_2f_opt_disp_struct_10.xyz,Nucleus 25N :,2.437201,-6.408536,4.29561,175.09,115.34,176.13,233.81,324.31,345.26,334.96,-211.54,-165.36,-102.37,115.34,176.13,233.81,0,118.47,0.03
rw_cut_5_p1_2f_opt_disp_struct_10.xyz,Nucleus 27N :,1.796196,-5.080842,3.380147,174.75,115.89,195.82,212.54,295.75,340.17,324.7,-210.02,-126.98,-99.38,115.89,195.82,212.54,0,96.65,0.65
rw_cut_5_p1_2f_opt_disp_struct_10.xyz,Nucleus 10F :,5.199861,-8.671948,3.470625,305.3,402.96,222.76,290.19,486.45,458.67,466.16,-63.2,-237.03,-195.14,222.76,290.19,402.96,0,180.2,-0.25
rw_cut_5_p1_2f_opt_disp_struct_10.xyz,Nucleus 16F :,4.347091,-5.090643,0.970403,323.76,413.77,254.44,303.08,485.82,468.87,458.24,-55.05,-204.39,-182.21,254.44,303.08,413.77,0,159.33,-0.39
rw_cut_5_p1_2f_opt_disp_struct_11.xyz,Nucleus 1H :,0.978308,-0.026527,-1.315789,29.08,35.25,23.43,28.57,40.81,25.92,31.32,-6.61,-0.8,-3.38,23.43,28.57,35.25,0,11.82,-0.13
rw_cut_5_p1_2f_opt_disp_struct_11.xyz,Nucleus 2H :,1.793625,0.584543,-1.708662,28.91,24.0,27.96,34.78,46.82,28.45,26.03,1.93,-4.12,-12.36,24.0,27.96,34.78,0,10.78,-0.26
rw_cut_5_p1_2f_opt_disp_struct_11.xyz,Nucleus 6H :,1.14252,-1.060049,-1.638933,23.64,15.33,25.12,30.47,51.24,11.42,29.82,-21.22,-4.55,4.21,15.33,25.12,30.47,0,15.14,0.29
rw_cut_5_p1_2f_opt_disp_struct_11.xyz,Nucleus 12H :,0.898381,0.087734,0.164136,24.34,20.53,25.06,27.44,48.5,18.69,31.26,-23.5,2.13,-4.05,20.53,25.06,27.44,0,6.91,0.31
rw_cut_5_p1_2f_opt_disp_struct_11.xyz,Nucleus 14H :,1.679258,0.897402,0.967472,24.25,20.53,27.13,25.1,6.67,34.21,43.95,13.92,-7.18,-18.81,20.53,25.1,27.13,0,6.6,0.39
rw_cut_5_p1_2f_opt_disp_struct_11.xyz,Nucleus 17H :,1.294062,0.718193,2.269168,24.17,20.53,25.35,26.63,45.2,27.11,32.33,-19.75,-6.39,-5.98,20.53,25.35,26.63,0,6.1,0.58
rw_cut_5_p1_2f_opt_disp_struct_11.xyz,Nucleus 18H :,1.668162,1.20678,3.066035,28.62,35.03,27.01,23.81,42.4,27.45,31.91,-0.56,-8.63,-6.73,23.81,27.01,35.03,0,11.22,-0.43
rw_cut_5_p1_2f_opt_disp_struct_11.xyz,Nucleus 20H :,0.26957,-0.193923,2.334108,28.58,35.11,24.15,26.47,-12.1,16.13,39.92,39.02,8.65,-5.9,24.15,26.47,35.11,0,10.96,-0.58
rw_cut_5_p1_2f_opt_disp_struct_11.xyz,Nucleus 21H :,-0.00586,-0.608235,1.029485,28.56,34.51,26.82,24.34,-9.75,19.03,39.94,36.68,6.48,-6.7,24.34,26.82,34.51,0,10.17,-0.51
rw_cut_5_p1_2f_opt_disp_struct_11.xyz,Nucleus 23H :,-1.036586,-1.55293,0.842672,26.93,18.65,33.95,28.18,2.88,50.54,27.57,-16.63,16.12,0.3,18.65,28.18,33.95,0,15.3,0.25
rw_cut_5_p1_2f_opt_disp_struct_11.xyz,Nucleus 26H :,-1.349498,-1.987175,-0.386731,26.95,37.08,23.87,19.9,75.44,47.06,26.93,-55.43,-10.38,-2.76,19.9,23.87,37.08,0,17.18,-0.54
rw_cut_5_p1_2f_opt_disp_struct_11.xyz,Nucleus 28H :,-1.749496,-2.053018,1.937033,26.67,19.78,26.48,33.76,-2.63,25.12,56.76,22.48,1.3,-23.0,19.78,26.48,33.76,0,13.98,-0.04
rw_cut_5_p1_2f_opt_disp_struct_11.xyz,Nucleus 29H :,-2.548433,-2.763978,1.759427,26.51,35.75,19.8,23.99,29.96,43.66,55.57,-35.75,-5.61,-8.29,19.8,23.99,35.75,0,15.95,-0.47
rw_cut_5_p1_2f_opt_disp_struct_11.xyz,Nucleus 30H :,-1.448696,-1.620198,3.226445,28.18,35.08,23.54,25.93,-26.19,12.19,38.32,49.85,13.7,-3.32,23.54,25.93,35.08,0,11.54,-0.58
rw_cut_5_p1_2f_opt_disp_struct_11.xyz,Nucleus 31H :,-2.02209,-1.967737,4.080008,27.16,34.6,20.66,26.21,28.32,40.89,48.64,-22.93,-11.89,-1.57,20.66,26.21,34.6,0,13.94,-0.2
rw_cut_5_p1_2f_opt_disp_struct_11.xyz,Nucleus 0C :,-0.43562,-0.685215,3.434672,171.25,186.76,160.64,166.36,258.97,236.51,238.7,-80.6,-73.47,-66.36,160.64,166.36,186.76,0,26.12,-0.56
rw_cut_5_p1_2f_opt_disp_struct_11.xyz,Nucleus 3C :,-0.149463,-0.269606,4.674974,61.49,148.28,52.14,-15.94,240.91,275.82,263.35,-92.67,-223.63,-279.29,-15.94,52.14,148.28,0,164.22,-0.17
rw_cut_5_p1_2f_opt_disp_struct_11.xyz,Nucleus 4C :,2.463568,1.589288,0.69854,54.74,-29.72,127.88,66.06,275.51,259.3,255.53,-293.43,-129.39,-203.3,-29.72,66.06,127.88,0,157.6,0.22
rw_cut_5_p1_2f_opt_disp_struct_11.xyz,Nucleus 7C :,0.04962,0.305709,-1.790956,52.44,138.14,-1.74,20.92,274.95,258.69,266.06,-120.62,-276.56,-245.21,-1.74,20.92,138.14,0,139.88,-0.68
rw_cut_5_p1_2f_opt_disp_struct_11.xyz,Nucleus 8C :,4.579997,-8.14649,3.749285,58.36,158.19,22.31,-5.42,234.57,270.84,263.36,-76.86,-242.07,-274.77,-5.42,22.31,158.19,0,163.61,-0.66
rw_cut_5_p1_2f_opt_disp_struct_11.xyz,Nucleus 9C :,4.765686,-7.778988,4.765613,16.99,-58.77,76.57,33.18,234.91,266.97,270.36,-329.02,-233.54,-158.69,-58.77,33.18,76.57,0,135.34,0.36
rw_cut_5_p1_2f_opt_disp_struct_11.xyz,Nucleus 11C :,3.624305,-8.679618,3.712724,70.03,162.16,-13.62,61.55,237.55,260.79,275.91,-76.29,-279.82,-208.06,-13.62,61.55,162.16,0,175.78,-0.14
rw_cut_5_p1_2f_opt_disp_struct_11.xyz,Nucleus 13C :,4.606538,-7.066295,2.766457,68.43,163.87,55.45,-14.04,226.64,258.37,277.75,-62.97,-220.3,-274.21,-14.04,55.45,163.87,0,177.91,-0.22
rw_cut_5_p1_2f_opt_disp_struct_11.xyz,Nucleus 15C :,5.425675,-6.986793,2.186779,27.08,83.1,35.49,-37.34,231.72,270.98,262.43,-149.07,-233.31,-301.49,-37.34,35.49,83.1,0,120.44,0.21
rw_cut_5_p1_2f_opt_disp_struct_11.xyz,Nucleus 19C :,3.708522,-6.072904,2.688015,155.25,130.42,146.59,188.74,207.54,190.27,272.57,-43.37,-74.5,-86.76,130.42,146.59,188.74,0,58.32,-0.45
rw_cut_5_p1_2f_opt_disp_struct_11.xyz,Nucleus 24C :,3.846208,-5.149174,1.736556,21.57,115.68,-16.43,-34.55,240.58,271.42,263.21,-124.97,-281.29,-304.24,-34.55,-16.43,115.68,0,150.23,-0.76
rw_cut_5_p1_2f_opt_disp_struct_11.xyz,Nucleus 5N :,3.193658,-4.37825,1.643763,122.21,53.28,184.44,128.91,295.46,336.54,331.37,-111.26,-206.38,-279.09,53.28,128.91,184.44,0,131.16,0.15
rw_cut_5_p1_2f_opt_disp_struct_11.xyz,Nucleus 22N :,2.681813,-5.972463,3.532463,167.92,100.66,222.62,180.48,276.58,348.78,329.53,-234.55,-122.12,-94.47,100.66,180.48,222.62,0,121.96,0.31
rw_cut_5_p1_2f_opt_disp_struct_11.xyz,Nucleus 25N :,2.603219,-6.593929,4.319436,175.08,115.27,176.13,233.83,324.2,346.33,335.14,-211.69,-166.4,-102.34,115.27,176.13,233.83,0,118.56,0.03
rw_cut_5_p1_2f_opt_disp_struct_11.xyz,Nucleus 27N :,1.962214,-5.266234,3.403973,174.74,115.8,195.8,212.62,296.56,340.55,324.57,-209.97,-127.25,-100.23,115.8,195.8,212.62,0,96.82,0.65
rw_cut_5_p1_2f_opt_disp_struct_11.xyz,Nucleus 10F :,5.365879,-8.85734,3.494451,305.56,402.96,223.23,290.48,486.4,458.77,466.19,-63.22,-236.56,-194.92,223.23,290.48,402.96,0,179.73,-0.25
rw_cut_5_p1_2f_opt_disp_struct_11.xyz,Nucleus 16F :,4.513109,-5.276035,0.994229,324.07,413.86,254.94,303.4,485.88,468.4,458.51,-54.52,-204.09,-181.98,254.94,303.4,413.86,0,158.92,-0.39
rw_cut_5_p1_2f_opt_disp_struct_12.xyz,Nucleus 1H :,0.978308,-0.026527,-1.315789,29.09,35.25,23.44,28.59,40.78,25.93,31.25,-6.59,-0.8,-3.3,23.44,28.59,35.25,0,11.81,-0.13
rw_cut_5_p1_2f_opt_disp_struct_12.xyz,Nucleus 2H :,1.793625,0.584543,-1.708662,28.91,23.98,27.95,34.8,46.7,28.37,26.0,-12.26,-4.03,1.94,23.98,27.95,34.8,0,10.82,-0.27
rw_cut_5_p1_2f_opt_disp_struct_12.xyz,Nucleus 6H :,1.14252,-1.060049,-1.638933,23.66,15.34,25.14,30.49,51.12,11.42,29.88,-21.07,-4.58,4.19,15.34,25.14,30.49,0,15.15,0.29
rw_cut_5_p1_2f_opt_disp_struct_12.xyz,Nucleus 12H :,0.898381,0.087734,0.164136,24.35,20.52,25.07,27.47,48.38,18.66,31.21,-23.36,2.12,-3.96,20.52,25.07,27.47,0,6.95,0.31
rw_cut_5_p1_2f_opt_disp_struct_12.xyz,Nucleus 14H :,1.679258,0.897402,0.967472,24.26,20.52,27.16,25.11,6.61,34.18,43.94,13.95,-7.12,-18.78,20.52,25.11,27.16,0,6.64,0.38
rw_cut_5_p1_2f_opt_disp_struct_12.xyz,Nucleus 17H :,1.294062,0.718193,2.269168,24.18,20.54,25.36,26.65,45.17,27.13,32.28,-19.71,-6.41,-5.91,20.54,25.36,26.65,0,6.11,0.58
rw_cut_5_p1_2f_opt_disp_struct_12.xyz,Nucleus 18H :,1.668162,1.20678,3.066035,28.62,35.02,27.02,23.82,42.37,27.41,31.93,-0.53,-8.67,-6.65,23.82,27.02,35.02,0,11.2,-0.43
rw_cut_5_p1_2f_opt_disp_struct_12.xyz,Nucleus 20H :,0.26957,-0.193923,2.334108,28.57,35.1,24.15,26.45,-13.0,16.06,39.99,39.95,8.71,-6.02,24.15,26.45,35.1,0,10.95,-0.58
rw_cut_5_p1_2f_opt_disp_struct_12.xyz,Nucleus 21H :,-0.00586,-0.608235,1.029485,28.55,34.5,26.8,24.35,-10.58,18.98,40.02,37.54,6.5,-6.83,24.35,26.8,34.5,0,10.15,-0.52
rw_cut_5_p1_2f_opt_disp_struct_12.xyz,Nucleus 23H :,-1.036586,-1.55293,0.842672,26.91,18.65,33.93,28.14,1.63,50.72,27.4,-16.83,17.36,0.45,18.65,28.14,33.93,0,15.28,0.24
rw_cut_5_p1_2f_opt_disp_struct_12.xyz,Nucleus 26H :,-1.349498,-1.987175,-0.386731,26.89,36.81,23.9,19.96,77.31,46.66,27.33,-57.24,-10.33,-3.07,19.96,23.9,36.81,0,16.85,-0.53
rw_cut_5_p1_2f_opt_disp_struct_12.xyz,Nucleus 28H :,-1.749496,-2.053018,1.937033,26.65,19.79,26.42,33.74,-2.7,25.15,57.18,22.55,1.21,-23.45,19.79,26.42,33.74,0,13.95,-0.05
rw_cut_5_p1_2f_opt_disp_struct_12.xyz,Nucleus 29H :,-2.548433,-2.763978,1.759427,26.47,35.55,19.85,24.0,57.33,43.56,30.28,-37.46,-6.0,-8.31,19.85,24.0,35.55,0,15.7,-0.47
rw_cut_5_p1_2f_opt_disp_struct_12.xyz,Nucleus 30H :,-1.448696,-1.620198,3.226445,28.17,35.05,23.54,25.93,-27.52,11.9,38.29,51.19,13.99,-3.32,23.54,25.93,35.05,0,11.51,-0.58
rw_cut_5_p1_2f_opt_disp_struct_12.xyz,Nucleus 31H :,-2.02209,-1.967737,4.080008,27.12,34.6,20.68,26.09,28.12,41.05,48.94,-23.23,-12.04,-1.47,20.68,26.09,34.6,0,13.92,-0.22
rw_cut_5_p1_2f_opt_disp_struct_12.xyz,Nucleus 0C :,-0.43562,-0.685215,3.434672,171.24,186.77,160.65,166.31,258.87,236.55,238.59,-80.42,-73.48,-66.37,160.65,166.31,186.77,0,26.12,-0.57
rw_cut_5_p1_2f_opt_disp_struct_12.xyz,Nucleus 3C :,-0.149463,-0.269606,4.674974,61.5,148.28,52.18,-15.95,240.89,275.57,263.32,-92.65,-223.34,-279.27,-15.95,52.18,148.28,0,164.23,-0.17
rw_cut_5_p1_2f_opt_disp_struct_12.xyz,Nucleus 4C :,2.463568,1.589288,0.69854,54.87,-29.54,127.83,66.33,275.34,259.09,255.87,-293.31,-129.48,-202.89,-29.54,66.33,127.83,0,157.37,0.22
rw_cut_5_p1_2f_opt_disp_struct_12.xyz,Nucleus 7C :,0.04962,0.305709,-1.790956,52.42,138.1,-1.8,20.95,258.67,274.67,266.1,-120.63,-276.32,-245.24,-1.8,20.95,138.1,0,139.9,-0.67
rw_cut_5_p1_2f_opt_disp_struct_12.xyz,Nucleus 8C :,4.746015,-8.331883,3.773111,58.34,158.17,22.26,-5.41,234.6,270.31,263.45,-76.86,-242.04,-274.43,-5.41,22.26,158.17,0,163.58,-0.66
rw_cut_5_p1_2f_opt_disp_struct_12.xyz,Nucleus 9C :,4.931704,-7.96438,4.789439,16.96,-58.81,76.51,33.19,234.94,266.73,270.03,-328.74,-158.73,-233.35,-58.81,33.19,76.51,0,135.32,0.36
rw_cut_5_p1_2f_opt_disp_struct_12.xyz,Nucleus 11C :,3.790323,-8.865011,3.73655,70.02,162.08,-13.63,61.6,237.62,260.78,275.6,-76.34,-279.66,-207.95,-13.63,61.6,162.08,0,175.71,-0.14
rw_cut_5_p1_2f_opt_disp_struct_12.xyz,Nucleus 13C :,4.772556,-7.251688,2.790283,68.36,163.81,55.41,-14.13,226.51,258.44,277.53,-62.88,-220.19,-274.32,-14.13,55.41,163.81,0,177.94,-0.22
rw_cut_5_p1_2f_opt_disp_struct_12.xyz,Nucleus 15C :,5.591693,-7.172186,2.210605,27.07,83.04,35.51,-37.33,231.77,270.76,262.47,-149.11,-233.22,-301.45,-37.33,35.51,83.04,0,120.37,0.21
rw_cut_5_p1_2f_opt_disp_struct_12.xyz,Nucleus 19C :,3.87454,-6.258296,2.711841,155.24,130.4,146.59,188.72,207.09,189.37,273.15,-42.48,-74.3,-87.11,130.4,146.59,188.72,0,58.32,-0.44
rw_cut_5_p1_2f_opt_disp_struct_12.xyz,Nucleus 24C :,4.012226,-5.334566,1.760382,21.55,115.71,-16.47,-34.6,240.87,271.85,263.05,-125.24,-281.22,-304.66,-34.6,-16.47,115.71,0,150.31,-0.76
rw_cut_5_p1_2f_opt_disp_struct_12.xyz,Nucleus 5N :,3.359676,-4.563643,1.667589,122.36,53.53,184.4,129.14,295.43,336.53,331.28,-111.22,-206.17,-278.78,53.53,129.14,184.4,0,130.87,0.16
rw_cut_5_p1_2f_opt_disp_struct_12.xyz,Nucleus 22N :,2.847831,-6.157856,3.556289,167.82,100.51,222.43,180.52,275.1,349.17,329.47,-235.07,-122.18,-93.02,100.51,180.52,222.43,0,121.92,0.31
rw_cut_5_p1_2f_opt_disp_struct_12.xyz,Nucleus 25N :,2.769237,-6.779321,4.343262,175.06,115.21,176.12,233.85,324.1,347.42,335.32,-211.86,-167.46,-102.33,115.21,176.12,233.85,0,118.64,0.03
rw_cut_5_p1_2f_opt_disp_struct_12.xyz,Nucleus 27N :,2.128232,-5.451626,3.427799,174.73,115.73,195.77,212.69,297.3,340.94,324.46,-209.95,-127.53,-101.02,115.73,195.77,212.69,0,96.96,0.65
rw_cut_5_p1_2f_opt_disp_struct_12.xyz,Nucleus 10F :,5.531897,-9.042733,3.518277,305.78,402.96,223.59,290.79,486.35,458.85,466.21,-63.24,-236.18,-194.64,223.59,290.79,402.96,0,179.37,-0.25
rw_cut_5_p1_2f_opt_disp_struct_12.xyz,Nucleus 16F :,4.679127,-5.461428,1.018055,324.34,413.93,255.37,303.73,485.91,468.04,458.72,-54.12,-203.83,-181.71,255.37,303.73,413.93,0,158.56,-0.39
rw_cut_5_p1_2f_opt_disp_struct_13.xyz,Nucleus 1H :,0.978308,-0.026527,-1.315789,29.1,35.25,23.44,28.61,40.76,25.95,31.18,-6.57,-0.79,-3.23,23.44,28.61,35.25,0,11.81,-0.12
rw_cut_5_p1_2f_opt_disp_struct_13.xyz,Nucleus 2H :,1.793625,0.584543,-1.708662,28.9,23.97,27.93,34.81,46.59,28.28,25.97,-12.16,-3.93,1.96,23.97,27.93,34.81,0,10.84,-0.27
rw_cut_5_p1_2f_opt_disp_struct_13.xyz,Nucleus 6H :,1.14252,-1.060049,-1.638933,23.67,15.34,25.17,30.51,50.99,11.42,29.93,-20.92,-4.6,4.18,15.34,25.17,30.51,0,15.17,0.3
rw_cut_5_p1_2f_opt_disp_struct_13.xyz,Nucleus 12H :,0.898381,0.087734,0.164136,24.36,20.51,25.08,27.49,48.26,18.63,31.16,-23.21,2.1,-3.87,20.51,25.08,27.49,0,6.98,0.31
rw_cut_5_p1_2f_opt_disp_struct_13.xyz,Nucleus 14H :,1.679258,0.897402,0.967472,24.27,20.5,27.19,25.12,6.56,34.14,43.92,13.99,-7.06,-18.75,20.5,25.12,27.19,0,6.69,0.38
rw_cut_5_p1_2f_opt_disp_struct_13.xyz,Nucleus 17H :,1.294062,0.718193,2.269168,24.19,20.55,25.36,26.66,45.14,27.14,32.23,-19.67,-6.43,-5.83,20.55,25.36,26.66,0,6.11,0.57
rw_cut_5_p1_2f_opt_disp_struct_13.xyz,Nucleus 18H :,1.668162,1.20678,3.066035,28.63,35.02,27.03,23.83,42.35,27.37,31.94,-0.5,-8.71,-6.56,23.83,27.03,35.02,0,11.19,-0.43
rw_cut_5_p1_2f_opt_disp_struct_13.xyz,Nucleus 20H :,0.26957,-0.193923,2.334108,28.56,35.09,24.15,26.43,-13.89,16.0,40.06,40.87,8.76,-6.13,24.15,26.43,35.09,0,10.94,-0.58
rw_cut_5_p1_2f_opt_disp_struct_13.xyz,Nucleus 21H :,-0.00586,-0.608235,1.029485,28.54,34.49,26.78,24.35,-11.4,18.94,40.1,38.41,6.52,-6.95,24.35,26.78,34.49,0,10.14,-0.52
rw_cut_5_p1_2f_opt_disp_struct_13.xyz,Nucleus 23H :,-1.036586,-1.55293,0.842672,26.9,18.66,33.92,28.11,0.39,50.9,27.25,-17.03,18.6,0.58,18.66,28.11,33.92,0,15.26,0.24
rw_cut_5_p1_2f_opt_disp_struct_13.xyz,Nucleus 26H :,-1.349498,-1.987175,-0.386731,26.84,36.57,23.93,20.02,79.14,46.32,27.7,-59.02,-10.28,-3.34,20.02,23.93,36.57,0,16.55,-0.53
rw_cut_5_p1_2f_opt_disp_struct_13.xyz,Nucleus 28H :,-1.749496,-2.053018,1.937033,26.63,19.8,26.37,33.72,-2.78,25.17,57.62,22.65,1.14,-23.9,19.8,26.37,33.72,0,13.92,-0.06
rw_cut_5_p1_2f_opt_disp_struct_13.xyz,Nucleus 29H :,-2.548433,-2.763978,1.759427,26.43,35.38,19.9,24.01,59.06,43.49,30.57,-39.14,-6.36,-8.33,19.9,24.01,35.38,0,15.48,-0.47
rw_cut_5_p1_2f_opt_disp_struct_13.xyz,Nucleus 30H :,-1.448696,-1.620198,3.226445,28.16,35.02,23.54,25.93,-28.84,11.62,38.26,52.51,14.27,-3.32,23.54,25.93,35.02,0,11.48,-0.58
rw_cut_5_p1_2f_opt_disp_struct_13.xyz,Nucleus 31H :,-2.02209,-1.967737,4.080008,27.1,34.61,20.69,25.99,27.93,41.2,49.24,-23.53,-12.18,-1.38,20.69,25.99,34.61,0,13.92,-0.24
rw_cut_5_p1_2f_opt_disp_struct_13.xyz,Nucleus 0C :,-0.43562,-0.685215,3.434672,171.24,186.79,160.66,166.27,258.76,236.6,238.5,-80.26,-73.5,-66.38,160.66,166.27,186.79,0,26.13,-0.57
rw_cut_5_p1_2f_opt_disp_struct_13.xyz,Nucleus 3C :,-0.149463,-0.269606,4.674974,61.51,148.27,52.23,-15.96,240.87,275.34,263.28,-92.63,-223.07,-279.24,-15.96,52.23,148.27,0,164.23,-0.17
rw_cut_5_p1_2f_opt_disp_struct_13.xyz,Nucleus 4C :,2.463568,1.589288,0.69854,54.99,-29.39,127.79,66.57,275.18,258.9,256.17,-293.22,-129.55,-202.51,-29.39,66.57,127.79,0,157.18,0.22
rw_cut_5_p1_2f_opt_disp_struct_13.xyz,Nucleus 7C :,0.04962,0.305709,-1.790956,52.4,138.07,-1.85,20.97,258.66,274.41,266.13,-120.65,-276.11,-245.25,-1.85,20.97,138.07,0,139.92,-0.67
rw_cut_5_p1_2f_opt_disp_struct_13.xyz,Nucleus 8C :,4.912033,-8.517275,3.796937,58.33,158.15,22.22,-5.39,234.61,263.52,269.84,-76.85,-242.01,-274.12,-5.39,22.22,158.15,0,163.54,-0.66
rw_cut_5_p1_2f_opt_disp_struct_13.xyz,Nucleus 9C :,5.097722,-8.149773,4.813265,16.93,-58.85,76.46,33.19,234.99,266.5,269.73,-328.48,-158.77,-233.17,-58.85,33.19,76.46,0,135.31,0.36
rw_cut_5_p1_2f_opt_disp_struct_13.xyz,Nucleus 11C :,3.956341,-9.050403,3.760376,70.01,162.02,-13.64,61.65,237.69,260.76,275.3,-76.4,-279.49,-207.84,-13.64,61.65,162.02,0,175.66,-0.14
rw_cut_5_p1_2f_opt_disp_struct_13.xyz,Nucleus 13C :,4.938574,-7.43708,2.814109,68.31,163.75,55.39,-14.2,226.4,258.49,277.32,-62.81,-220.06,-274.4,-14.2,55.39,163.75,0,177.95,-0.22
rw_cut_5_p1_2f_opt_disp_struct_13.xyz,Nucleus 15C :,5.757711,-7.357578,2.234431,27.07,83.0,35.52,-37.32,231.81,270.55,262.51,-149.15,-233.12,-301.4,-37.32,35.52,83.0,0,120.32,0.21
rw_cut_5_p1_2f_opt_disp_struct_13.xyz,Nucleus 19C :,4.040558,-6.443689,2.735667,155.23,130.39,146.59,188.7,206.64,188.48,273.72,-41.61,-74.08,-87.49,130.39,146.59,188.7,0,58.31,-0.44
rw_cut_5_p1_2f_opt_disp_struct_13.xyz,Nucleus 24C :,4.178244,-5.519958,1.784208,21.53,115.73,-16.5,-34.65,241.15,272.26,262.9,-125.51,-281.15,-305.07,-34.65,-16.5,115.73,0,150.38,-0.76
rw_cut_5_p1_2f_opt_disp_struct_13.xyz,Nucleus 5N :,3.525694,-4.749035,1.691415,122.48,53.74,184.37,129.33,295.38,336.52,331.19,-111.18,-206.0,-278.47,53.74,129.33,184.37,0,130.63,0.16
rw_cut_5_p1_2f_opt_disp_struct_13.xyz,Nucleus 22N :,3.013849,-6.343248,3.580115,167.74,100.39,222.27,180.55,273.63,349.57,329.41,-235.58,-122.23,-91.58,100.39,180.55,222.27,0,121.88,0.32
rw_cut_5_p1_2f_opt_disp_struct_13.xyz,Nucleus 25N :,2.935255,-6.964714,4.367088,175.05,115.16,176.12,233.87,324.01,348.54,335.49,-212.03,-168.52,-102.35,115.16,176.12,233.87,0,118.71,0.03
rw_cut_5_p1_2f_opt_disp_struct_13.xyz,Nucleus 27N :,2.29425,-5.637019,3.451625,174.72,115.66,195.75,212.75,297.98,341.32,324.36,-209.94,-127.81,-101.75,115.66,195.75,212.75,0,97.09,0.65
rw_cut_5_p1_2f_opt_disp_struct_13.xyz,Nucleus 10F :,5.697915,-9.228125,3.542103,305.98,402.97,223.91,291.07,486.28,458.91,466.24,-63.26,-235.85,-194.38,223.91,291.07,402.97,0,179.06,-0.25
rw_cut_5_p1_2f_opt_disp_struct_13.xyz,Nucleus 16F :,4.845145,-5.64682,1.041881,324.57,413.97,255.74,304.0,485.91,467.77,458.89,-53.81,-203.59,-181.45,255.74,304.0,413.97,0,158.23,-0.39
rw_cut_5_p1_2f_opt_disp_struct_14.xyz,Nucleus 1H :,0.978308,-0.026527,-1.315789,29.1,35.25,23.43,28.62,40.75,25.94,31.09,-6.55,-0.78,-3.16,23.43,28.62,35.25,0,11.82,-0.12
rw_cut_5_p1_2f_opt_disp_struct_14.xyz,Nucleus 2H :,1.793625,0.584543,-1.708662,28.88,23.93,27.91,34.81,46.47,28.19,25.94,-12.08,-3.84,1.97,23.93,27.91,34.81,0,10.88,-0.27
rw_cut_5_p1_2f_opt_disp_struct_14.xyz,Nucleus 6H :,1.14252,-1.060049,-1.638933,23.68,15.35,25.17,30.52,50.87,11.42,29.96,-20.78,-4.61,4.18,15.35,25.17,30.52,0,15.17,0.29
rw_cut_5_p1_2f_opt_disp_struct_14.xyz,Nucleus 12H :,0.898381,0.087734,0.164136,24.38,20.51,25.12,27.51,48.15,18.61,31.14,-23.06,2.1,-3.81,20.51,25.12,27.51,0,7.0,0.32
rw_cut_5_p1_2f_opt_disp_struct_14.xyz,Nucleus 14H :,1.679258,0.897402,0.967472,24.28,20.5,27.2,25.15,6.53,34.1,43.9,14.01,-7.0,-18.7,20.5,25.15,27.2,0,6.7,0.39
rw_cut_5_p1_2f_opt_disp_struct_14.xyz,Nucleus 17H :,1.294062,0.718193,2.269168,24.19,20.56,25.36,26.66,45.1,27.14,32.17,-19.63,-6.43,-5.76,20.56,25.36,26.66,0,6.1,0.58
rw_cut_5_p1_2f_opt_disp_struct_14.xyz,Nucleus 18H :,1.668162,1.20678,3.066035,28.62,35.0,27.04,23.81,42.31,27.34,31.92,-0.48,-8.74,-6.49,23.81,27.04,35.0,0,11.19,-0.42
rw_cut_5_p1_2f_opt_disp_struct_14.xyz,Nucleus 20H :,0.26957,-0.193923,2.334108,28.56,35.09,24.16,26.43,-14.78,15.94,40.13,41.79,8.83,-6.24,24.16,26.43,35.09,0,10.93,-0.58
rw_cut_5_p1_2f_opt_disp_struct_14.xyz,Nucleus 21H :,-0.00586,-0.608235,1.029485,28.54,34.49,26.77,24.36,-12.22,18.89,40.19,39.28,6.56,-7.08,24.36,26.77,34.49,0,10.13,-0.52
rw_cut_5_p1_2f_opt_disp_struct_14.xyz,Nucleus 23H :,-1.036586,-1.55293,0.842672,26.89,18.67,33.91,28.08,-0.84,51.08,27.1,19.83,-17.23,0.72,18.67,28.08,33.91,0,15.24,0.23
rw_cut_5_p1_2f_opt_disp_struct_14.xyz,Nucleus 26H :,-1.349498,-1.987175,-0.386731,26.78,36.36,23.94,20.04,80.93,46.01,28.02,-60.79,-10.25,-3.59,20.04,23.94,36.36,0,16.32,-0.52
rw_cut_5_p1_2f_opt_disp_struct_14.xyz,Nucleus 28H :,-1.749496,-2.053018,1.937033,26.61,19.8,26.32,33.7,-2.91,25.18,58.05,22.78,1.08,-24.36,19.8,26.32,33.7,0,13.9,-0.06
rw_cut_5_p1_2f_opt_disp_struct_14.xyz,Nucleus 29H :,-2.548433,-2.763978,1.759427,26.39,35.24,19.92,24.0,60.75,43.43,30.83,-40.81,-6.69,-8.36,19.92,24.0,35.24,0,15.32,-0.47
rw_cut_5_p1_2f_opt_disp_struct_14.xyz,Nucleus 30H :,-1.448696,-1.620198,3.226445,28.18,34.99,23.59,25.95,-30.15,11.34,38.23,53.86,14.57,-3.32,23.59,25.95,34.99,0,11.4,-0.59
rw_cut_5_p1_2f_opt_disp_struct_14.xyz,Nucleus 31H :,-2.02209,-1.967737,4.080008,27.07,34.61,20.69,25.9,27.76,41.34,49.52,-23.81,-12.32,-1.29,20.69,25.9,34.61,0,13.92,-0.25
rw_cut_5_p1_2f_opt_disp_struct_14.xyz,Nucleus 0C :,-0.43562,-0.685215,3.434672,171.22,186.82,160.65,166.18,258.68,236.6,238.4,-80.13,-73.54,-66.38,160.65,166.18,186.82,0,26.17,-0.58
rw_cut_5_p1_2f_opt_disp_struct_14.xyz,Nucleus 3C :,-0.149463,-0.269606,4.674974,61.53,148.27,52.23,-15.91,240.84,275.15,263.26,-92.61,-222.87,-279.17,-15.91,52.23,148.27,0,164.18,-0.17
rw_cut_5_p1_2f_opt_disp_struct_14.xyz,Nucleus 4C :,2.463568,1.589288,0.69854,55.07,-29.28,127.66,66.83,275.07,258.8,256.27,-293.11,-129.69,-202.13,-29.28,66.83,127.66,0,156.94,0.22
rw_cut_5_p1_2f_opt_disp_struct_14.xyz,Nucleus 7C :,0.04962,0.305709,-1.790956,52.39,138.0,-1.86,21.02,258.64,274.22,266.11,-120.7,-275.92,-245.2,-1.86,21.02,138.0,0,139.86,-0.67
rw_cut_5_p1_2f_opt_disp_struct_14.xyz,Nucleus 8C :,5.078051,-8.702668,3.820763,58.37,158.18,22.24,-5.32,234.58,263.53,269.54,-76.79,-241.95,-273.81,-5.32,22.24,158.18,0,163.5,-0.66
rw_cut_5_p1_2f_opt_disp_struct_14.xyz,Nucleus 9C :,5.26374,-8.335165,4.837091,16.96,-58.8,76.4,33.27,234.97,266.41,269.5,-328.21,-158.81,-233.0,-58.8,33.27,76.4,0,135.2,0.36
rw_cut_5_p1_2f_opt_disp_struct_14.xyz,Nucleus 11C :,4.122359,-9.235796,3.784202,70.04,161.94,-13.6,61.77,237.7,260.7,275.15,-76.46,-279.29,-207.69,-13.6,61.77,161.94,0,175.54,-0.14
rw_cut_5_p1_2f_opt_disp_struct_14.xyz,Nucleus 13C :,5.104592,-7.622473,2.837935,68.32,163.72,55.45,-14.2,226.33,258.5,277.17,-62.76,-219.89,-274.39,-14.2,55.45,163.72,0,177.92,-0.22
rw_cut_5_p1_2f_opt_disp_struct_14.xyz,Nucleus 15C :,5.923729,-7.54297,2.258257,27.06,82.92,35.58,-37.31,231.8,270.39,262.5,-149.2,-232.99,-301.3,-37.31,35.58,82.92,0,120.23,0.21
rw_cut_5_p1_2f_opt_disp_struct_14.xyz,Nucleus 19C :,4.206576,-6.629081,2.759493,155.24,130.41,146.64,188.68,206.21,187.62,274.28,-40.71,-73.81,-87.87,130.41,146.64,188.68,0,58.27,-0.44
rw_cut_5_p1_2f_opt_disp_struct_14.xyz,Nucleus 24C :,4.344262,-5.705351,1.808034,21.53,115.8,-16.53,-34.69,241.46,272.68,262.77,-125.76,-281.09,-305.47,-34.69,-16.53,115.8,0,150.49,-0.76
rw_cut_5_p1_2f_opt_disp_struct_14.xyz,Nucleus 5N :,3.691712,-4.934428,1.715241,122.6,53.96,184.31,129.52,295.35,336.52,331.07,-111.19,-205.85,-278.11,53.96,129.52,184.31,0,130.35,0.16
rw_cut_5_p1_2f_opt_disp_struct_14.xyz,Nucleus 22N :,3.179867,-6.528641,3.603941,167.69,100.32,222.15,180.61,272.2,349.98,329.34,-236.04,-122.26,-90.16,100.32,180.61,222.15,0,121.83,0.32
rw_cut_5_p1_2f_opt_disp_struct_14.xyz,Nucleus 25N :,3.101273,-7.150106,4.390914,175.05,115.13,176.11,233.9,323.95,349.59,335.67,-212.2,-169.53,-102.35,115.13,176.11,233.9,0,118.77,0.03
rw_cut_5_p1_2f_opt_disp_struct_14.xyz,Nucleus 27N :,2.460268,-5.822411,3.475451,174.72,115.61,195.74,212.81,298.56,341.71,324.26,-209.94,-128.07,-102.36,115.61,195.74,212.81,0,97.2,0.65
rw_cut_5_p1_2f_opt_disp_struct_14.xyz,Nucleus 10F :,5.863933,-9.413517,3.565929,306.23,403.01,224.23,291.44,486.18,458.91,466.24,-63.21,-235.48,-193.95,224.23,291.44,403.01,0,178.78,-0.25
rw_cut_5_p1_2f_opt_disp_struct_14.xyz,Nucleus 16F :,5.011163,-5.832213,1.065707,324.87,414.15,256.11,304.36,485.84,467.69,458.97,-53.56,-203.28,-181.04,256.11,304.36,414.15,0,158.04,-0.39
rw_cut_5_p1_2f_opt_disp_struct_15.xyz,Nucleus 1H :,0.978308,-0.026527,-1.315789,29.12,35.25,23.45,28.65,40.73,25.97,31.02,-6.53,-0.77,-3.08,23.45,28.65,35.25,0,11.8,-0.12
rw_cut_5_p1_2f_opt_disp_struct_15.xyz,Nucleus 2H :,1.793625,0.584543,-1.708662,28.89,23.93,27.91,34.82,46.36,28.12,25.92,-11.99,-3.75,1.99,23.93,27.91,34.82,0,10.89,-0.27
rw_cut_5_p1_2f_opt_disp_struct_15.xyz,Nucleus 6H :,1.14252,-1.060049,-1.638933,23.7,15.35,25.2,30.54,50.76,11.42,30.01,-20.64,-4.62,4.16,15.35,25.2,30.54,0,15.19,0.3
rw_cut_5_p1_2f_opt_disp_struct_15.xyz,Nucleus 12H :,0.898381,0.087734,0.164136,24.38,20.49,25.11,27.53,48.04,18.58,31.06,-22.95,2.09,-3.71,20.49,25.11,27.53,0,7.04,0.31
rw_cut_5_p1_2f_opt_disp_struct_15.xyz,Nucleus 14H :,1.679258,0.897402,0.967472,24.28,20.48,27.23,25.14,6.46,34.03,43.9,14.05,-6.9,-18.69,20.48,25.14,27.23,0,6.75,0.38
rw_cut_5_p1_2f_opt_disp_struct_15.xyz,Nucleus 17H :,1.294062,0.718193,2.269168,24.21,20.57,25.37,26.7,45.08,27.15,32.13,-19.59,-6.44,-5.68,20.57,25.37,26.7,0,6.13,0.57
rw_cut_5_p1_2f_opt_disp_struct_15.xyz,Nucleus 18H :,1.668162,1.20678,3.066035,28.64,35.01,27.06,23.86,42.3,27.32,31.94,-0.46,-8.77,-6.4,23.86,27.06,35.01,0,11.15,-0.43
rw_cut_5_p1_2f_opt_disp_struct_15.xyz,Nucleus 20H :,0.26957,-0.193923,2.334108,28.54,35.08,24.15,26.4,-15.68,15.87,40.21,42.7,8.88,-6.35,24.15,26.4,35.08,0,10.93,-0.59
rw_cut_5_p1_2f_opt_disp_struct_15.xyz,Nucleus 21H :,-0.00586,-0.608235,1.029485,28.53,34.48,26.75,24.35,-13.05,18.84,40.28,40.13,6.58,-7.21,24.35,26.75,34.48,0,10.13,-0.53
rw_cut_5_p1_2f_opt_disp_struct_15.xyz,Nucleus 23H :,-1.036586,-1.55293,0.842672,26.87,18.67,33.89,28.05,-2.09,51.26,26.96,21.07,-17.43,0.85,18.67,28.05,33.89,0,15.22,0.23
rw_cut_5_p1_2f_opt_disp_struct_15.xyz,Nucleus 26H :,-1.349498,-1.987175,-0.386731,26.76,36.18,23.97,20.12,82.73,45.75,28.35,-62.51,-10.23,-3.81,20.12,23.97,36.18,0,16.06,-0.52
rw_cut_5_p1_2f_opt_disp_struct_15.xyz,Nucleus 28H :,-1.749496,-2.053018,1.937033,26.6,19.82,26.27,33.7,-3.01,25.19,58.49,22.9,1.03,-24.8,19.82,26.27,33.7,0,13.88,-0.07
rw_cut_5_p1_2f_opt_disp_struct_15.xyz,Nucleus 29H :,-2.548433,-2.763978,1.759427,26.37,35.11,19.98,24.02,62.44,43.39,31.1,-42.44,-8.38,-6.99,19.98,24.02,35.11,0,15.13,-0.47
rw_cut_5_p1_2f_opt_disp_struct_15.xyz,Nucleus 30H :,-1.448696,-1.620198,3.226445,28.15,34.97,23.55,25.94,-31.48,11.04,38.21,55.15,14.85,-3.32,23.55,25.94,34.97,0,11.42,-0.58
rw_cut_5_p1_2f_opt_disp_struct_15.xyz,Nucleus 31H :,-2.02209,-1.967737,4.080008,27.05,34.62,20.72,25.82,27.6,41.48,49.81,-1.21,-12.45,-24.07,20.72,25.82,34.62,0,13.9,-0.27
rw_cut_5_p1_2f_opt_disp_struct_15.xyz,Nucleus 0C :,-0.43562,-0.685215,3.434672,171.23,186.82,160.69,166.19,258.57,236.69,238.34,-79.96,-73.53,-66.41,160.69,166.19,186.82,0,26.13,-0.58
rw_cut_5_p1_2f_opt_disp_struct_15.xyz,Nucleus 3C :,-0.149463,-0.269606,4.674974,61.54,148.26,52.3,-15.95,240.82,274.95,263.21,-92.59,-222.6,-279.18,-15.95,52.3,148.26,0,164.21,-0.17
rw_cut_5_p1_2f_opt_disp_struct_15.xyz,Nucleus 4C :,2.463568,1.589288,0.69854,55.17,-29.15,127.7,66.96,258.58,256.64,274.9,-293.07,-129.68,-201.86,-29.15,66.96,127.7,0,156.85,0.23
rw_cut_5_p1_2f_opt_disp_struct_15.xyz,Nucleus 7C :,0.04962,0.305709,-1.790956,52.37,138.0,-1.92,21.02,258.66,274.01,266.17,-120.72,-275.76,-245.26,-1.92,21.02,138.0,0,139.92,-0.67
rw_cut_5_p1_2f_opt_disp_struct_15.xyz,Nucleus 8C :,5.244069,-8.88806,3.844589,58.32,158.13,22.17,-5.35,234.59,263.6,269.11,-76.81,-241.95,-273.6,-5.35,22.17,158.13,0,163.48,-0.66
rw_cut_5_p1_2f_opt_disp_struct_15.xyz,Nucleus 9C :,5.429758,-8.520557,4.860917,16.89,-58.89,76.37,33.19,235.08,266.15,269.22,-328.03,-158.87,-232.89,-58.89,33.19,76.37,0,135.26,0.36
rw_cut_5_p1_2f_opt_disp_struct_15.xyz,Nucleus 11C :,4.288377,-9.421188,3.808028,69.99,161.91,-13.66,61.72,237.8,260.72,274.78,-76.49,-279.19,-207.65,-13.66,61.72,161.91,0,175.57,-0.14
rw_cut_5_p1_2f_opt_disp_struct_15.xyz,Nucleus 13C :,5.27061,-7.807865,2.861761,68.24,163.65,55.36,-14.3,226.22,258.59,276.93,-62.7,-219.81,-274.52,-14.3,55.36,163.65,0,177.95,-0.22
rw_cut_5_p1_2f_opt_disp_struct_15.xyz,Nucleus 15C :,6.089747,-7.728363,2.282083,27.05,82.91,35.53,-37.3,231.85,270.13,262.57,-149.2,-232.92,-301.29,-37.3,35.53,82.91,0,120.21,0.21
rw_cut_5_p1_2f_opt_disp_struct_15.xyz,Nucleus 19C :,4.372594,-6.814473,2.783319,155.21,130.35,146.6,188.67,205.76,186.74,274.87,-39.88,-73.56,-88.31,130.35,146.6,188.67,0,58.32,-0.44
rw_cut_5_p1_2f_opt_disp_struct_15.xyz,Nucleus 24C :,4.51028,-5.890743,1.83186,21.49,115.77,-16.57,-34.72,241.72,273.07,262.64,-126.06,-281.04,-305.85,-34.72,-16.57,115.77,0,150.49,-0.76
rw_cut_5_p1_2f_opt_disp_struct_15.xyz,Nucleus 5N :,3.85773,-5.11982,1.739067,122.67,54.08,184.3,129.63,295.28,336.54,331.0,-111.11,-205.79,-277.91,54.08,129.63,184.3,0,130.22,0.16
rw_cut_5_p1_2f_opt_disp_struct_15.xyz,Nucleus 22N :,3.345885,-6.714033,3.627767,167.6,100.19,222.0,180.61,270.75,350.38,329.28,-236.55,-122.31,-88.74,100.19,180.61,222.0,0,121.81,0.32
rw_cut_5_p1_2f_opt_disp_struct_15.xyz,Nucleus 25N :,3.267291,-7.335498,4.41474,175.02,115.07,176.11,233.89,350.75,323.85,335.83,-212.39,-170.57,-102.39,115.07,176.11,233.89,0,118.82,0.03
rw_cut_5_p1_2f_opt_disp_struct_15.xyz,Nucleus 27N :,2.626286,-6.007804,3.499277,174.7,115.54,195.72,212.84,299.21,342.08,324.19,-209.97,-128.36,-103.04,115.54,195.72,212.84,0,97.3,0.65
rw_cut_5_p1_2f_opt_disp_struct_15.xyz,Nucleus 10F :,6.029951,-9.59891,3.589755,306.3,402.97,224.4,291.53,486.13,458.98,466.29,-63.3,-235.31,-193.88,224.4,291.53,402.97,0,178.57,-0.25
rw_cut_5_p1_2f_opt_disp_struct_15.xyz,Nucleus 16F :,5.177181,-6.017605,1.089534,324.95,414.05,256.33,304.47,485.84,467.44,459.14,-53.41,-203.19,-180.97,256.33,304.47,414.05,0,157.72,-0.39
rw_cut_5_p1_2f_opt_disp_struct_16.xyz,Nucleus 1H :,0.978308,-0.026527,-1.315789,29.12,35.25,23.45,28.67,40.72,25.97,30.94,-6.52,-0.75,-3.0,23.45,28.67,35.25,0,11.8,-0.11
rw_cut_5_p1_2f_opt_disp_struct_16.xyz,Nucleus 2H :,1.793625,0.584543,-1.708662,28.88,23.91,27.9,34.82,46.26,28.04,25.89,-11.91,-3.66,2.01,23.91,27.9,34.82,0,10.91,-0.27
rw_cut_5_p1_2f_opt_disp_struct_16.xyz,Nucleus 6H :,1.14252,-1.060049,-1.638933,23.71,15.35,25.22,30.55,50.65,11.42,30.04,-20.51,-4.63,4.16,15.35,25.22,30.55,0,15.2,0.3
rw_cut_5_p1_2f_opt_disp_struct_16.xyz,Nucleus 12H :,0.898381,0.087734,0.164136,24.38,20.47,25.12,27.54,47.93,18.56,31.02,-22.82,2.08,-3.65,20.47,25.12,27.54,0,7.07,0.31
rw_cut_5_p1_2f_opt_disp_struct_16.xyz,Nucleus 14H :,1.679258,0.897402,0.967472,24.28,20.45,27.24,25.16,6.41,33.96,43.89,14.07,-6.83,-18.66,20.45,25.16,27.24,0,6.79,0.39
rw_cut_5_p1_2f_opt_disp_struct_16.xyz,Nucleus 17H :,1.294062,0.718193,2.269168,24.22,20.58,25.38,26.71,45.05,27.16,32.08,-19.56,-6.45,-5.61,20.58,25.38,26.71,0,6.13,0.57
rw_cut_5_p1_2f_opt_disp_struct_16.xyz,Nucleus 18H :,1.668162,1.20678,3.066035,28.65,35.0,27.07,23.87,42.28,27.29,31.93,-0.44,-8.79,-6.33,23.87,27.07,35.0,0,11.13,-0.43
rw_cut_5_p1_2f_opt_disp_struct_16.xyz,Nucleus 20H :,0.26957,-0.193923,2.334108,28.54,35.07,24.15,26.39,-16.57,15.8,40.29,43.62,8.95,-6.47,24.15,26.39,35.07,0,10.92,-0.59
rw_cut_5_p1_2f_opt_disp_struct_16.xyz,Nucleus 21H :,-0.00586,-0.608235,1.029485,28.52,34.48,26.73,24.36,-13.88,18.8,40.38,41.01,6.61,-7.34,24.36,26.73,34.48,0,10.12,-0.53
rw_cut_5_p1_2f_opt_disp_struct_16.xyz,Nucleus 23H :,-1.036586,-1.55293,0.842672,26.86,18.67,33.88,28.02,-3.33,51.43,26.82,22.3,-17.62,0.98,18.67,28.02,33.88,0,15.21,0.23
rw_cut_5_p1_2f_opt_disp_struct_16.xyz,Nucleus 26H :,-1.349498,-1.987175,-0.386731,26.72,36.03,23.99,20.14,84.49,45.51,28.64,-64.25,-10.22,-4.01,20.14,23.99,36.03,0,15.89,-0.52
rw_cut_5_p1_2f_opt_disp_struct_16.xyz,Nucleus 28H :,-1.749496,-2.053018,1.937033,26.58,19.83,26.23,33.67,-3.15,25.19,58.93,23.04,0.98,-25.26,19.83,26.23,33.67,0,13.84,-0.08
rw_cut_5_p1_2f_opt_disp_struct_16.xyz,Nucleus 29H :,-2.548433,-2.763978,1.759427,26.34,35.0,19.99,24.02,64.1,43.36,31.33,-44.09,-8.42,-7.27,19.99,24.02,35.0,0,15.01,-0.46
rw_cut_5_p1_2f_opt_disp_struct_16.xyz,Nucleus 30H :,-1.448696,-1.620198,3.226445,28.16,34.94,23.58,25.95,-32.79,10.76,38.19,56.49,15.15,-3.32,23.58,25.95,34.94,0,11.36,-0.58
rw_cut_5_p1_2f_opt_disp_struct_16.xyz,Nucleus 31H :,-2.02209,-1.967737,4.080008,27.03,34.62,20.73,25.74,27.46,41.6,50.08,-1.13,-12.58,-24.33,20.73,25.74,34.62,0,13.89,-0.28
rw_cut_5_p1_2f_opt_disp_struct_16.xyz,Nucleus 0C :,-0.43562,-0.685215,3.434672,171.21,186.82,160.69,166.13,258.48,236.74,238.27,-79.84,-73.57,-66.43,160.69,166.13,186.82,0,26.13,-0.58
rw_cut_5_p1_2f_opt_disp_struct_16.xyz,Nucleus 3C :,-0.149463,-0.269606,4.674974,61.55,148.25,52.34,-15.95,240.79,274.78,263.18,-92.58,-222.39,-279.14,-15.95,52.34,148.25,0,164.2,-0.17
rw_cut_5_p1_2f_opt_disp_struct_16.xyz,Nucleus 4C :,2.463568,1.589288,0.69854,55.25,-29.03,127.66,67.13,258.45,256.82,274.79,-293.0,-129.73,-201.58,-29.03,67.13,127.66,0,156.69,0.23
rw_cut_5_p1_2f_opt_disp_struct_16.xyz,Nucleus 7C :,0.04962,0.305709,-1.790956,52.36,137.98,-1.95,21.05,258.68,273.85,266.17,-120.76,-275.63,-245.24,-1.95,21.05,137.98,0,139.93,-0.67
rw_cut_5_p1_2f_opt_disp_struct_16.xyz,Nucleus 8C :,5.410087,-9.073452,3.868415,58.32,158.11,22.16,-5.32,234.57,263.63,268.83,-76.79,-241.92,-273.38,-5.32,22.16,158.11,0,163.43,-0.66
rw_cut_5_p1_2f_opt_disp_struct_16.xyz,Nucleus 9C :,5.595776,-8.70595,4.884743,16.88,-58.9,76.34,33.19,235.11,266.03,269.02,-327.83,-158.91,-232.79,-58.9,33.19,76.34,0,135.24,0.36
rw_cut_5_p1_2f_opt_disp_struct_16.xyz,Nucleus 11C :,4.454395,-9.60658,3.831854,70.0,161.88,-13.64,61.76,237.84,260.69,274.57,-76.51,-279.03,-207.56,-13.64,61.76,161.88,0,175.52,-0.14
rw_cut_5_p1_2f_opt_disp_struct_16.xyz,Nucleus 13C :,5.436628,-7.993257,2.885587,68.23,163.63,55.36,-14.31,226.14,258.64,276.76,-62.64,-219.68,-274.55,-14.31,55.36,163.63,0,177.94,-0.22
rw_cut_5_p1_2f_opt_disp_struct_16.xyz,Nucleus 15C :,6.255765,-7.913755,2.305909,27.05,82.88,35.54,-37.28,231.85,269.95,262.59,-149.21,-232.82,-301.22,-37.28,35.54,82.88,0,120.16,0.21
rw_cut_5_p1_2f_opt_disp_struct_16.xyz,Nucleus 19C :,4.538612,-6.999866,2.807145,155.22,130.36,146.63,188.67,205.32,185.89,275.45,-39.0,-73.26,-88.73,130.36,146.63,188.67,0,58.31,-0.44
rw_cut_5_p1_2f_opt_disp_struct_16.xyz,Nucleus 24C :,4.676298,-6.076136,1.855686,21.48,115.79,-16.6,-34.75,242.01,273.47,262.54,-126.34,-280.99,-306.24,-34.75,-16.6,115.79,0,150.54,-0.76
rw_cut_5_p1_2f_opt_disp_struct_16.xyz,Nucleus 5N :,4.023748,-5.305212,1.762893,122.75,54.23,184.25,129.77,295.23,336.56,330.9,-111.09,-205.71,-277.63,54.23,129.77,184.25,0,130.02,0.16
rw_cut_5_p1_2f_opt_disp_struct_16.xyz,Nucleus 22N :,3.511903,-6.899425,3.651593,167.56,100.12,221.91,180.64,269.31,350.79,329.21,-237.0,-122.33,-87.32,100.12,180.64,221.91,0,121.79,0.32
rw_cut_5_p1_2f_opt_disp_struct_16.xyz,Nucleus 25N :,3.433309,-7.520891,4.438566,175.02,115.04,176.12,233.91,351.84,323.78,335.99,-212.57,-171.56,-102.42,115.04,176.12,233.91,0,118.87,0.03
rw_cut_5_p1_2f_opt_disp_struct_16.xyz,Nucleus 27N :,2.792304,-6.193196,3.523103,174.71,115.5,195.74,212.88,299.77,342.44,324.12,-209.99,-128.62,-103.6,115.5,195.74,212.88,0,97.38,0.65
rw_cut_5_p1_2f_opt_disp_struct_16.xyz,Nucleus 10F :,6.195969,-9.784302,3.613581,306.45,402.97,224.62,291.75,486.05,459.01,466.31,-63.32,-235.08,-193.64,224.62,291.75,402.97,0,178.35,-0.25
rw_cut_5_p1_2f_opt_disp_struct_16.xyz,Nucleus 16F :,5.343199,-6.202997,1.11336,325.12,414.1,256.59,304.68,485.79,467.34,459.23,-53.27,-203.0,-180.73,256.59,304.68,414.1,0,157.51,-0.39
rw_cut_5_p1_2f_opt_disp_struct_17.xyz,Nucleus 1H :,0.978308,-0.026527,-1.315789,29.13,35.25,23.45,28.68,40.71,25.98,30.86,-6.5,-0.73,-2.93,23.45,28.68,35.25,0,11.8,-0.11
rw_cut_5_p1_2f_opt_disp_struct_17.xyz,Nucleus 2H :,1.793625,0.584543,-1.708662,28.87,23.9,27.89,34.83,46.16,27.97,25.87,-11.83,-3.57,2.02,23.9,27.89,34.83,0,10.93,-0.27
rw_cut_5_p1_2f_opt_disp_struct_17.xyz,Nucleus 6H :,1.14252,-1.060049,-1.638933,23.71,15.35,25.23,30.56,50.54,11.42,30.06,-20.39,-4.64,4.15,15.35,25.23,30.56,0,15.21,0.3
rw_cut_5_p1_2f_opt_disp_struct_17.xyz,Nucleus 12H :,0.898381,0.087734,0.164136,24.38,20.47,25.12,27.56,47.83,18.54,30.98,-22.71,2.08,-3.57,20.47,25.12,27.56,0,7.09,0.31
rw_cut_5_p1_2f_opt_disp_struct_17.xyz,Nucleus 14H :,1.679258,0.897402,0.967472,24.29,20.46,27.26,25.15,6.37,33.89,43.87,14.11,-6.73,-18.65,20.46,25.15,27.26,0,6.8,0.38
rw_cut_5_p1_2f_opt_disp_struct_17.xyz,Nucleus 17H :,1.294062,0.718193,2.269168,24.23,20.58,25.38,26.72,45.03,27.16,32.02,-19.52,-6.46,-5.54,20.58,25.38,26.72,0,6.14,0.56
rw_cut_5_p1_2f_opt_disp_struct_17.xyz,Nucleus 18H :,1.668162,1.20678,3.066035,28.65,35.0,27.08,23.88,42.26,27.26,31.92,-0.41,-8.81,-6.26,23.88,27.08,35.0,0,11.12,-0.42
rw_cut_5_p1_2f_opt_disp_struct_17.xyz,Nucleus 20H :,0.26957,-0.193923,2.334108,28.53,35.06,24.15,26.37,-17.47,15.73,40.37,44.53,9.01,-6.59,24.15,26.37,35.06,0,10.91,-0.59
rw_cut_5_p1_2f_opt_disp_struct_17.xyz,Nucleus 21H :,-0.00586,-0.608235,1.029485,28.52,34.47,26.72,24.36,-14.72,18.75,40.47,41.86,6.65,-7.46,24.36,26.72,34.47,0,10.11,-0.53
rw_cut_5_p1_2f_opt_disp_struct_17.xyz,Nucleus 23H :,-1.036586,-1.55293,0.842672,26.85,18.68,33.87,28.0,-4.57,51.61,26.68,23.54,-17.81,1.1,18.68,28.0,33.87,0,15.19,0.23
rw_cut_5_p1_2f_opt_disp_struct_17.xyz,Nucleus 26H :,-1.349498,-1.987175,-0.386731,26.7,35.89,24.01,20.19,86.24,45.3,28.91,-65.95,-10.21,-4.19,20.19,24.01,35.89,0,15.7,-0.51
rw_cut_5_p1_2f_opt_disp_struct_17.xyz,Nucleus 28H :,-1.749496,-2.053018,1.937033,26.57,19.84,26.19,33.68,-3.3,25.2,59.38,23.2,0.94,-25.71,19.84,26.19,33.68,0,13.84,-0.08
rw_cut_5_p1_2f_opt_disp_struct_17.xyz,Nucleus 29H :,-2.548433,-2.763978,1.759427,26.32,34.9,20.04,24.03,65.75,43.34,31.55,-45.7,-8.46,-7.52,20.04,24.03,34.9,0,14.86,-0.46
rw_cut_5_p1_2f_opt_disp_struct_17.xyz,Nucleus 30H :,-1.448696,-1.620198,3.226445,28.14,34.92,23.55,25.94,-34.11,10.47,38.17,57.78,15.43,-3.32,23.55,25.94,34.92,0,11.37,-0.58
rw_cut_5_p1_2f_opt_disp_struct_17.xyz,Nucleus 31H :,-2.02209,-1.967737,4.080008,27.02,34.63,20.75,25.68,27.32,41.72,50.34,-1.05,-12.71,-24.56,20.75,25.68,34.63,0,13.88,-0.29
rw_cut_5_p1_2f_opt_disp_struct_17.xyz,Nucleus 0C :,-0.43562,-0.685215,3.434672,171.23,186.84,160.72,166.12,258.39,236.78,238.2,-79.69,-73.57,-66.43,160.72,166.12,186.84,0,26.12,-0.59
rw_cut_5_p1_2f_opt_disp_struct_17.xyz,Nucleus 3C :,-0.149463,-0.269606,4.674974,61.55,148.25,52.37,-15.96,240.77,274.61,263.15,-92.56,-222.19,-279.12,-15.96,52.37,148.25,0,164.21,-0.17
rw_cut_5_p1_2f_opt_disp_struct_17.xyz,Nucleus 4C :,2.463568,1.589288,0.69854,55.32,-28.95,127.65,67.27,258.34,256.97,274.68,-292.95,-129.75,-201.32,-28.95,67.27,127.65,0,156.6,0.23
rw_cut_5_p1_2f_opt_disp_struct_17.xyz,Nucleus 7C :,0.04962,0.305709,-1.790956,52.34,137.96,-1.98,21.05,258.7,273.71,266.17,-120.8,-275.5,-245.24,-1.98,21.05,137.96,0,139.94,-0.67
rw_cut_5_p1_2f_opt_disp_struct_17.xyz,Nucleus 8C :,5.576105,-9.258845,3.892241,58.3,158.1,22.12,-5.32,234.55,263.64,268.58,-76.77,-241.92,-273.19,-5.32,22.12,158.1,0,163.42,-0.66
rw_cut_5_p1_2f_opt_disp_struct_17.xyz,Nucleus 9C :,5.761794,-8.891342,4.908569,16.85,-58.93,76.31,33.18,235.15,265.92,268.82,-327.67,-158.96,-232.7,-58.93,33.18,76.31,0,135.24,0.36
rw_cut_5_p1_2f_opt_disp_struct_17.xyz,Nucleus 11C :,4.620413,-9.791973,3.85568,69.97,161.83,-13.68,61.76,237.87,260.66,274.37,-76.56,-278.93,-207.5,-13.68,61.76,161.83,0,175.51,-0.14
rw_cut_5_p1_2f_opt_disp_struct_17.xyz,Nucleus 13C :,5.602646,-8.17865,2.909413,68.18,163.58,55.33,-14.38,226.07,258.67,276.59,-62.62,-219.57,-274.62,-14.38,55.33,163.58,0,177.96,-0.22
rw_cut_5_p1_2f_opt_disp_struct_17.xyz,Nucleus 15C :,6.421783,-8.099148,2.329735,27.03,82.85,35.54,-37.29,231.85,269.77,262.61,-149.21,-232.73,-301.18,-37.29,35.54,82.85,0,120.14,0.21
rw_cut_5_p1_2f_opt_disp_struct_17.xyz,Nucleus 19C :,4.70463,-7.185258,2.830971,155.19,130.33,146.61,188.64,204.88,185.03,276.02,-38.18,-72.97,-89.2,130.33,146.61,188.64,0,58.31,-0.44
rw_cut_5_p1_2f_opt_disp_struct_17.xyz,Nucleus 24C :,4.842316,-6.261528,1.879512,21.47,115.8,-16.63,-34.77,242.3,273.85,262.44,-126.63,-280.95,-306.6,-34.77,-16.63,115.8,0,150.57,-0.76
rw_cut_5_p1_2f_opt_disp_struct_17.xyz,Nucleus 5N :,4.189766,-5.490605,1.786719,122.82,54.34,184.25,129.87,295.18,336.57,330.8,-111.04,-205.65,-277.39,54.34,129.87,184.25,0,129.91,0.16
rw_cut_5_p1_2f_opt_disp_struct_17.xyz,Nucleus 22N :,3.677921,-7.084818,3.675419,167.5,100.04,221.8,180.65,267.89,351.21,329.14,-237.46,-122.36,-85.92,100.04,180.65,221.8,0,121.76,0.32
rw_cut_5_p1_2f_opt_disp_struct_17.xyz,Nucleus 25N :,3.599327,-7.706283,4.462392,175.0,114.99,176.11,233.91,352.92,323.72,336.16,-212.77,-172.54,-102.47,114.99,176.11,233.91,0,118.92,0.03
rw_cut_5_p1_2f_opt_disp_struct_17.xyz,Nucleus 27N :,2.958322,-6.378588,3.546929,174.68,115.44,195.7,212.91,300.31,342.8,324.06,-210.03,-128.88,-104.2,115.44,195.7,212.91,0,97.47,0.65
rw_cut_5_p1_2f_opt_disp_struct_17.xyz,Nucleus 10F :,6.361987,-9.969695,3.637407,306.52,402.96,224.77,291.83,485.97,459.03,466.33,-63.35,-234.9,-193.53,224.77,291.83,402.96,0,178.19,-0.25
rw_cut_5_p1_2f_opt_disp_struct_17.xyz,Nucleus 16F :,5.509217,-6.38839,1.137186,325.21,414.1,256.77,304.76,485.73,467.26,459.3,-53.18,-202.87,-180.61,256.77,304.76,414.1,0,157.33,-0.39
rw_cut_5_p1_2f_opt_disp_struct_18.xyz,Nucleus 1H :,0.978308,-0.026527,-1.315789,29.13,35.25,23.44,28.69,40.7,25.97,30.78,-6.49,-0.71,-2.87,23.44,28.69,35.25,0,11.81,-0.11
rw_cut_5_p1_2f_opt_disp_struct_18.xyz,Nucleus 2H :,1.793625,0.584543,-1.708662,28.86,23.87,27.88,34.83,46.06,27.89,25.84,-11.77,-3.48,2.04,23.87,27.88,34.83,0,10.96,-0.27
rw_cut_5_p1_2f_opt_disp_struct_18.xyz,Nucleus 6H :,1.14252,-1.060049,-1.638933,23.72,15.35,25.23,30.58,50.43,11.42,30.07,-20.27,4.14,-4.64,15.35,25.23,30.58,0,15.23,0.3
rw_cut_5_p1_2f_opt_disp_struct_18.xyz,Nucleus 12H :,0.898381,0.087734,0.164136,24.39,20.47,25.14,27.57,47.74,18.53,30.95,-22.59,2.08,-3.52,20.47,25.14,27.57,0,7.1,0.32
rw_cut_5_p1_2f_opt_disp_struct_18.xyz,Nucleus 14H :,1.679258,0.897402,0.967472,24.3,20.46,27.27,25.17,6.35,33.83,43.86,14.14,-6.66,-18.62,20.46,25.17,27.27,0,6.81,0.38
rw_cut_5_p1_2f_opt_disp_struct_18.xyz,Nucleus 17H :,1.294062,0.718193,2.269168,24.23,20.59,25.38,26.72,44.99,27.16,31.97,-19.49,-6.46,-5.48,20.59,25.38,26.72,0,6.13,0.56
rw_cut_5_p1_2f_opt_disp_struct_18.xyz,Nucleus 18H :,1.668162,1.20678,3.066035,28.65,34.99,27.09,23.86,42.23,27.23,31.89,-0.39,-8.83,-6.19,23.86,27.09,34.99,0,11.13,-0.42
rw_cut_5_p1_2f_opt_disp_struct_18.xyz,Nucleus 20H :,0.26957,-0.193923,2.334108,28.53,35.06,24.16,26.37,-18.36,15.65,40.46,45.46,9.09,-6.71,24.16,26.37,35.06,0,10.9,-0.59
rw_cut_5_p1_2f_opt_disp_struct_18.xyz,Nucleus 21H :,-0.00586,-0.608235,1.029485,28.52,34.47,26.71,24.37,-15.55,18.7,40.57,42.74,6.68,-7.6,24.37,26.71,34.47,0,10.1,-0.54
rw_cut_5_p1_2f_opt_disp_struct_18.xyz,Nucleus 23H :,-1.036586,-1.55293,0.842672,26.84,18.69,33.86,27.98,-5.81,51.78,26.54,24.78,-18.0,1.23,18.69,27.98,33.86,0,15.17,0.23
rw_cut_5_p1_2f_opt_disp_struct_18.xyz,Nucleus 26H :,-1.349498,-1.987175,-0.386731,26.66,35.76,24.01,20.21,87.97,45.11,29.15,-67.67,-10.22,-4.36,20.21,24.01,35.76,0,15.55,-0.51
rw_cut_5_p1_2f_opt_disp_struct_18.xyz,Nucleus 28H :,-1.749496,-2.053018,1.937033,26.56,19.85,26.16,33.66,-3.46,25.2,59.82,23.36,0.91,-26.16,19.85,26.16,33.66,0,13.81,-0.09
rw_cut_5_p1_2f_opt_disp_struct_18.xyz,Nucleus 29H :,-2.548433,-2.763978,1.759427,26.3,34.82,20.05,24.02,67.39,43.32,31.76,-47.32,-8.52,-7.74,20.05,24.02,34.82,0,14.77,-0.46
rw_cut_5_p1_2f_opt_disp_struct_18.xyz,Nucleus 30H :,-1.448696,-1.620198,3.226445,28.15,34.91,23.58,25.95,-35.42,10.18,38.15,59.12,-3.32,15.73,23.58,25.95,34.91,0,11.33,-0.58
rw_cut_5_p1_2f_opt_disp_struct_18.xyz,Nucleus 31H :,-2.02209,-1.967737,4.080008,27.0,34.64,20.75,25.62,27.19,41.83,50.59,-0.98,-12.83,-24.8,20.75,25.62,34.64,0,13.89,-0.3
rw_cut_5_p1_2f_opt_disp_struct_18.xyz,Nucleus 0C :,-0.43562,-0.685215,3.434672,171.21,186.87,160.7,166.06,258.33,236.78,238.13,-79.58,-73.6,-66.43,160.7,166.06,186.87,0,26.17,-0.59
rw_cut_5_p1_2f_opt_disp_struct_18.xyz,Nucleus 3C :,-0.149463,-0.269606,4.674974,61.57,148.25,52.38,-15.92,240.75,274.46,263.13,-92.54,-222.04,-279.06,-15.92,52.38,148.25,0,164.17,-0.17
rw_cut_5_p1_2f_opt_disp_struct_18.xyz,Nucleus 4C :,2.463568,1.589288,0.69854,55.37,-28.88,127.57,67.42,258.26,257.02,274.6,-292.89,-129.82,-201.06,-28.88,67.42,127.57,0,156.45,0.23
rw_cut_5_p1_2f_opt_disp_struct_18.xyz,Nucleus 7C :,0.04962,0.305709,-1.790956,52.33,137.9,-2.01,21.09,258.69,273.58,266.14,-120.85,-275.39,-245.19,-2.01,21.09,137.9,0,139.91,-0.67
rw_cut_5_p1_2f_opt_disp_struct_18.xyz,Nucleus 8C :,5.742123,-9.444237,3.916067,58.33,158.12,22.13,-5.27,234.52,263.64,268.38,-76.71,-241.87,-272.98,-5.27,22.13,158.12,0,163.39,-0.66
rw_cut_5_p1_2f_opt_disp_struct_18.xyz,Nucleus 9C :,5.927812,-9.076735,4.932395,16.86,-58.91,76.26,33.23,235.14,265.87,268.66,-327.49,-158.99,-232.59,-58.91,33.23,76.26,0,135.17,0.36
rw_cut_5_p1_2f_opt_disp_struct_18.xyz,Nucleus 11C :,4.786431,-9.977365,3.879506,69.99,161.78,-13.65,61.84,237.87,260.61,274.25,-76.59,-278.77,-207.4,-13.65,61.84,161.78,0,175.43,-0.14
rw_cut_5_p1_2f_opt_disp_struct_18.xyz,Nucleus 13C :,5.768664,-8.364042,2.933239,68.19,163.56,55.38,-14.38,226.03,258.68,276.46,-62.59,-219.42,-274.6,-14.38,55.38,163.56,0,177.94,-0.22
rw_cut_5_p1_2f_opt_disp_struct_18.xyz,Nucleus 15C :,6.587801,-8.28454,2.353561,27.04,82.82,35.59,-37.28,231.84,269.63,262.59,-149.23,-232.62,-301.1,-37.28,35.59,82.82,0,120.1,0.21
rw_cut_5_p1_2f_opt_disp_struct_18.xyz,Nucleus 19C :,4.870648,-7.370651,2.854798,155.2,130.34,146.62,188.63,204.44,184.17,276.59,-37.31,-72.64,-89.66,130.34,146.62,188.63,0,58.29,-0.44
rw_cut_5_p1_2f_opt_disp_struct_18.xyz,Nucleus 24C :,5.008334,-6.446921,1.903338,21.46,115.83,-16.66,-34.79,242.6,274.23,262.34,-126.91,-280.91,-306.97,-34.79,-16.66,115.83,0,150.62,-0.76
rw_cut_5_p1_2f_opt_disp_struct_18.xyz,Nucleus 5N :,4.355784,-5.675997,1.810545,122.89,54.48,184.21,129.97,295.16,336.57,330.69,-111.06,-205.58,-277.13,54.48,129.97,184.21,0,129.73,0.16
rw_cut_5_p1_2f_opt_disp_struct_18.xyz,Nucleus 22N :,3.843939,-7.27021,3.699245,167.46,100.0,221.72,180.67,266.46,351.64,329.06,-237.89,-122.37,-84.51,100.0,180.67,221.72,0,121.72,0.33
rw_cut_5_p1_2f_opt_disp_struct_18.xyz,Nucleus 25N :,3.765345,-7.891676,4.486218,175.0,114.96,176.11,233.92,353.96,323.67,336.32,-212.96,-173.48,-102.5,114.96,176.11,233.92,0,118.96,0.03
rw_cut_5_p1_2f_opt_disp_struct_18.xyz,Nucleus 27N :,3.12434,-6.563981,3.570755,174.69,115.41,195.71,212.94,300.82,343.15,324.0,-210.07,-129.12,-104.71,115.41,195.71,212.94,0,97.53,0.65
rw_cut_5_p1_2f_opt_disp_struct_18.xyz,Nucleus 10F :,6.528005,-10.155087,3.661233,306.66,402.98,224.94,292.06,485.88,459.02,466.33,-63.33,-234.69,-193.24,224.94,292.06,402.98,0,178.04,-0.25
rw_cut_5_p1_2f_opt_disp_struct_18.xyz,Nucleus 16F :,5.675235,-6.573782,1.161012,325.38,414.18,256.98,304.97,485.66,467.23,459.34,-53.08,-202.68,-180.34,256.98,304.97,414.18,0,157.2,-0.39
rw_cut_5_p1_2f_opt_disp_struct_19.xyz,Nucleus 1H :,0.978308,-0.026527,-1.315789,29.14,35.25,23.46,28.71,40.69,25.98,30.71,-6.47,-0.68,-2.8,23.46,28.71,35.25,0,11.79,-0.11
rw_cut_5_p1_2f_opt_disp_struct_19.xyz,Nucleus 2H :,1.793625,0.584543,-1.708662,28.86,23.87,27.88,34.84,45.97,27.82,25.82,-11.7,-3.39,2.06,23.87,27.88,34.84,0,10.97,-0.27
rw_cut_5_p1_2f_opt_disp_struct_19.xyz,Nucleus 6H :,1.14252,-1.060049,-1.638933,23.73,15.35,25.25,30.59,50.33,11.42,30.1,-20.16,4.13,-4.64,15.35,25.25,30.59,0,15.24,0.3
rw_cut_5_p1_2f_opt_disp_struct_19.xyz,Nucleus 12H :,0.898381,0.087734,0.164136,24.4,20.46,25.14,27.59,47.64,18.51,30.89,-22.49,2.08,-3.44,20.46,25.14,27.59,0,7.13,0.31
rw_cut_5_p1_2f_opt_disp_struct_19.xyz,Nucleus 14H :,1.679258,0.897402,0.967472,24.3,20.44,27.29,25.16,6.3,33.74,43.85,14.17,-6.56,-18.61,20.44,25.16,27.29,0,6.85,0.38
rw_cut_5_p1_2f_opt_disp_struct_19.xyz,Nucleus 17H :,1.294062,0.718193,2.269168,24.24,20.59,25.39,26.74,44.97,27.17,31.92,-19.45,-6.47,-5.41,20.59,25.39,26.74,0,6.15,0.56
rw_cut_5_p1_2f_opt_disp_struct_19.xyz,Nucleus 18H :,1.668162,1.20678,3.066035,28.67,35.0,27.11,23.89,42.22,27.21,31.9,-0.37,-8.84,-6.12,23.89,27.11,35.0,0,11.11,-0.42
rw_cut_5_p1_2f_opt_disp_struct_19.xyz,Nucleus 20H :,0.26957,-0.193923,2.334108,28.52,35.06,24.15,26.35,-19.26,15.58,40.55,46.37,9.16,-6.83,24.15,26.35,35.06,0,10.91,-0.6
rw_cut_5_p1_2f_opt_disp_struct_19.xyz,Nucleus 21H :,-0.00586,-0.608235,1.029485,28.5,34.46,26.69,24.36,-16.39,18.65,40.68,43.6,6.72,-7.73,24.36,26.69,34.46,0,10.1,-0.54
rw_cut_5_p1_2f_opt_disp_struct_19.xyz,Nucleus 23H :,-1.036586,-1.55293,0.842672,26.83,18.69,33.85,27.96,-7.05,51.96,26.41,26.02,-18.19,1.35,18.69,27.96,33.85,0,15.16,0.22
rw_cut_5_p1_2f_opt_disp_struct_19.xyz,Nucleus 26H :,-1.349498,-1.987175,-0.386731,26.65,35.66,24.03,20.26,89.7,44.94,29.4,-69.36,-10.23,-4.51,20.26,24.03,35.66,0,15.4,-0.51
rw_cut_5_p1_2f_opt_disp_struct_19.xyz,Nucleus 28H :,-1.749496,-2.053018,1.937033,26.55,19.86,26.13,33.67,-3.62,25.19,60.27,23.53,0.88,-26.61,19.86,26.13,33.67,0,13.81,-0.09
rw_cut_5_p1_2f_opt_disp_struct_19.xyz,Nucleus 29H :,-2.548433,-2.763978,1.759427,26.29,34.74,20.09,24.03,69.02,43.31,31.97,-48.91,-8.61,-7.92,20.09,24.03,34.74,0,14.65,-0.46
rw_cut_5_p1_2f_opt_disp_struct_19.xyz,Nucleus 30H :,-1.448696,-1.620198,3.226445,28.13,34.89,23.56,25.95,-36.73,38.13,9.89,60.42,-3.32,16.02,23.56,25.95,34.89,0,11.33,-0.58
rw_cut_5_p1_2f_opt_disp_struct_19.xyz,Nucleus 31H :,-2.02209,-1.967737,4.080008,26.99,34.64,20.77,25.56,27.07,41.94,50.85,-0.91,-12.95,-25.02,20.77,25.56,34.64,0,13.87,-0.31
rw_cut_5_p1_2f_opt_disp_struct_19.xyz,Nucleus 0C :,-0.43562,-0.685215,3.434672,171.22,186.86,160.74,166.07,258.23,236.85,238.08,-79.45,-73.59,-66.45,160.74,166.07,186.86,0,26.12,-0.59
rw_cut_5_p1_2f_opt_disp_struct_19.xyz,Nucleus 3C :,-0.149463,-0.269606,4.674974,61.57,148.24,52.43,-15.95,240.73,274.31,263.09,-92.52,-221.83,-279.05,-15.95,52.43,148.24,0,164.19,-0.17
rw_cut_5_p1_2f_opt_disp_struct_19.xyz,Nucleus 4C :,2.463568,1.589288,0.69854,55.43,-28.8,127.59,67.51,258.14,257.2,274.5,-292.87,-129.81,-200.87,-28.8,67.51,127.59,0,156.39,0.23
rw_cut_5_p1_2f_opt_disp_struct_19.xyz,Nucleus 7C :,0.04962,0.305709,-1.790956,52.32,137.91,-2.03,21.09,258.73,273.45,266.17,-120.88,-275.28,-245.22,-2.03,21.09,137.91,0,139.94,-0.67
rw_cut_5_p1_2f_opt_disp_struct_19.xyz,Nucleus 8C :,5.908141,-9.62963,3.939893,58.29,158.08,22.09,-5.29,234.5,263.65,268.13,-76.71,-241.86,-272.83,-5.29,22.09,158.08,0,163.37,-0.66
rw_cut_5_p1_2f_opt_disp_struct_19.xyz,Nucleus 9C :,6.09383,-9.262127,4.956221,16.84,-58.95,76.26,33.2,235.21,265.73,268.47,-327.35,-159.04,-232.52,-58.95,33.2,76.26,0,135.21,0.36
rw_cut_5_p1_2f_opt_disp_struct_19.xyz,Nucleus 11C :,4.952449,-10.162758,3.903332,69.95,161.76,-13.69,61.79,237.92,260.6,274.0,-76.61,-278.68,-207.36,-13.69,61.79,161.76,0,175.45,-0.14
rw_cut_5_p1_2f_opt_disp_struct_19.xyz,Nucleus 13C :,5.934682,-8.549435,2.957065,68.13,163.51,55.32,-14.43,225.95,258.74,276.27,-62.55,-219.33,-274.67,-14.43,55.32,163.51,0,177.94,-0.22
rw_cut_5_p1_2f_opt_disp_struct_19.xyz,Nucleus 15C :,6.753819,-8.469933,2.377388,27.03,82.8,35.56,-37.28,231.84,269.43,262.63,-149.22,-232.54,-301.07,-37.28,35.56,82.8,0,120.08,0.21
rw_cut_5_p1_2f_opt_disp_struct_19.xyz,Nucleus 19C :,5.036666,-7.556043,2.878624,155.18,130.31,146.61,188.62,204.0,183.31,277.18,-36.48,-72.33,-90.15,130.31,146.61,188.62,0,58.31,-0.44
rw_cut_5_p1_2f_opt_disp_struct_19.xyz,Nucleus 24C :,5.174352,-6.632313,1.927164,21.45,115.83,-16.69,-34.8,242.88,274.61,262.26,-127.21,-280.88,-307.33,-34.8,-16.69,115.83,0,150.63,-0.76
rw_cut_5_p1_2f_opt_disp_struct_19.xyz,Nucleus 5N :,4.521802,-5.86139,1.834372,122.92,54.53,184.2,130.04,295.11,336.59,330.61,-111.01,-205.56,-276.97,54.53,130.04,184.2,0,129.67,0.16
rw_cut_5_p1_2f_opt_disp_struct_19.xyz,Nucleus 22N :,4.009957,-7.455603,3.723071,167.42,99.93,221.63,180.69,265.03,352.06,328.98,-238.34,-122.4,-83.1,99.93,180.69,221.63,0,121.7,0.33
rw_cut_5_p1_2f_opt_disp_struct_19.xyz,Nucleus 25N :,3.931363,-8.077068,4.510044,174.99,114.93,176.11,233.92,355.05,323.6,336.48,-213.17,-174.44,-102.56,114.93,176.11,233.92,0,118.99,0.03
rw_cut_5_p1_2f_opt_disp_struct_19.xyz,Nucleus 27N :,3.290358,-6.749373,3.594581,174.68,115.37,195.69,212.97,301.34,343.49,323.96,-210.12,-129.38,-105.28,115.37,195.69,212.97,0,97.6,0.65
rw_cut_5_p1_2f_opt_disp_struct_19.xyz,Nucleus 10F :,6.694023,-10.34048,3.685059,306.7,402.95,225.04,292.1,485.82,459.06,466.36,-63.39,-234.59,-193.17,225.04,292.1,402.95,0,177.91,-0.25
rw_cut_5_p1_2f_opt_disp_struct_19.xyz,Nucleus 16F :,5.841253,-6.759175,1.184838,325.42,414.14,257.09,305.03,485.62,467.13,459.42,-53.02,-202.63,-180.27,257.09,305.03,414.14,0,157.05,-0.39
rw_cut_5_p1_2f_opt_disp_struct_2.xyz,Nucleus 1H :,0.978308,-0.026527,-1.315789,28.96,35.39,23.28,28.2,40.99,25.4,31.95,-0.64,-6.53,-4.28,23.28,28.2,35.39,0,12.11,-0.19
rw_cut_5_p1_2f_opt_disp_struct_2.xyz,Nucleus 2H :,1.793625,0.584543,-1.708662,28.98,24.06,28.33,34.55,48.07,28.82,26.56,1.88,-4.7,-13.7,24.06,28.33,34.55,0,10.49,-0.19
rw_cut_5_p1_2f_opt_disp_struct_2.xyz,Nucleus 6H :,1.14252,-1.060049,-1.638933,23.34,15.07,24.78,30.17,52.35,28.79,11.01,-22.67,-4.03,4.56,15.07,24.78,30.17,0,15.1,0.29
rw_cut_5_p1_2f_opt_disp_struct_2.xyz,Nucleus 12H :,0.898381,0.087734,0.164136,24.14,20.45,25.09,26.89,49.19,19.37,30.36,-24.43,1.8,-3.86,20.45,25.09,26.89,0,6.44,0.44
rw_cut_5_p1_2f_opt_disp_struct_2.xyz,Nucleus 14H :,1.679258,0.897402,0.967472,24.14,20.7,26.47,25.25,8.52,32.43,43.77,12.5,-6.11,-18.7,20.7,25.25,26.47,0,5.77,0.58
rw_cut_5_p1_2f_opt_disp_struct_2.xyz,Nucleus 17H :,1.294062,0.718193,2.269168,23.94,20.2,25.27,26.35,45.18,26.4,32.89,-19.78,-5.88,-6.99,20.2,25.27,26.35,0,6.15,0.65
rw_cut_5_p1_2f_opt_disp_struct_2.xyz,Nucleus 18H :,1.668162,1.20678,3.066035,28.55,35.2,26.85,23.61,42.82,27.75,31.85,-0.74,-8.23,-7.78,23.61,26.85,35.2,0,11.59,-0.44
rw_cut_5_p1_2f_opt_disp_struct_2.xyz,Nucleus 20H :,0.26957,-0.193923,2.334108,28.74,35.31,24.13,26.77,-3.64,16.73,39.53,30.29,8.23,-4.93,24.13,26.77,35.31,0,11.18,-0.53
rw_cut_5_p1_2f_opt_disp_struct_2.xyz,Nucleus 21H :,-0.00586,-0.608235,1.029485,28.71,34.69,27.11,24.32,-2.12,19.61,39.43,28.53,6.3,-5.64,24.32,27.11,34.69,0,10.37,-0.46
rw_cut_5_p1_2f_opt_disp_struct_2.xyz,Nucleus 23H :,-1.036586,-1.55293,0.842672,27.27,18.56,34.41,28.83,49.03,14.41,29.41,-14.65,-1.34,4.93,18.56,28.83,34.41,0,15.85,0.3
rw_cut_5_p1_2f_opt_disp_struct_2.xyz,Nucleus 26H :,-1.349498,-1.987175,-0.386731,28.18,43.16,18.35,23.03,19.93,53.99,55.19,-36.59,3.2,-11.18,18.35,23.03,43.16,0,24.81,-0.62
rw_cut_5_p1_2f_opt_disp_struct_2.xyz,Nucleus 28H :,-1.749496,-2.053018,1.937033,27.09,19.73,27.31,34.22,-1.61,24.65,53.14,21.49,2.6,-19.0,19.73,27.31,34.22,0,14.49,0.05
rw_cut_5_p1_2f_opt_disp_struct_2.xyz,Nucleus 29H :,-2.548433,-2.763978,1.759427,27.33,40.73,22.93,18.34,23.6,46.95,36.67,-18.3,0.6,-7.51,18.34,22.93,40.73,0,22.39,-0.59
rw_cut_5_p1_2f_opt_disp_struct_2.xyz,Nucleus 30H :,-1.448696,-1.620198,3.226445,28.35,35.56,23.54,25.95,-13.71,14.89,38.79,37.39,11.01,-3.32,23.54,25.95,35.56,0,12.02,-0.6
rw_cut_5_p1_2f_opt_disp_struct_2.xyz,Nucleus 31H :,-2.02209,-1.967737,4.080008,27.73,20.38,34.64,28.18,31.16,39.12,45.25,-19.83,-9.91,-2.59,20.38,28.18,34.64,0,14.26,0.09
rw_cut_5_p1_2f_opt_disp_struct_2.xyz,Nucleus 0C :,-0.43562,-0.685215,3.434672,171.5,160.52,167.2,186.79,236.16,240.07,260.55,-82.96,-72.77,-66.53,160.52,167.2,186.79,0,26.27,-0.49
rw_cut_5_p1_2f_opt_disp_struct_2.xyz,Nucleus 3C :,-0.149463,-0.269606,4.674974,61.46,148.22,51.57,-15.42,241.07,278.3,263.59,-92.98,-226.7,-278.9,-15.42,51.57,148.22,0,163.64,-0.18
rw_cut_5_p1_2f_opt_disp_struct_2.xyz,Nucleus 4C :,2.463568,1.589288,0.69854,51.61,-33.98,128.54,60.28,277.79,258.46,255.03,-297.62,-128.18,-210.63,-33.98,60.28,128.54,0,162.52,0.16
rw_cut_5_p1_2f_opt_disp_struct_2.xyz,Nucleus 7C :,0.04962,0.305709,-1.790956,52.74,138.8,-0.91,20.32,277.08,259.67,265.8,-121.08,-277.96,-245.31,-0.91,20.32,138.8,0,139.71,-0.7
rw_cut_5_p1_2f_opt_disp_struct_2.xyz,Nucleus 8C :,3.085835,-6.477959,3.534851,59.46,158.79,24.72,-5.13,234.18,273.28,259.43,-75.86,-236.03,-276.62,-5.13,24.72,158.79,0,163.92,-0.64
rw_cut_5_p1_2f_opt_disp_struct_2.xyz,Nucleus 9C :,3.271524,-6.110456,4.551179,17.37,-57.86,77.82,32.15,237.28,267.35,273.63,-331.22,-160.17,-234.75,-57.86,32.15,77.82,0,135.68,0.33
rw_cut_5_p1_2f_opt_disp_struct_2.xyz,Nucleus 11C :,2.130143,-7.011087,3.49829,69.77,163.53,-13.75,59.53,235.51,261.01,277.44,-75.27,-280.0,-209.37,-13.75,59.53,163.53,0,177.28,-0.17
rw_cut_5_p1_2f_opt_disp_struct_2.xyz,Nucleus 13C :,3.112376,-5.397764,2.552023,70.4,165.3,56.84,-10.94,225.34,277.67,257.8,-62.84,-218.17,-268.6,-10.94,56.84,165.3,0,176.24,-0.23
rw_cut_5_p1_2f_opt_disp_struct_2.xyz,Nucleus 15C :,3.931513,-5.318261,1.972345,26.71,84.19,33.92,-37.99,232.77,271.82,262.4,-149.84,-234.5,-302.53,-37.99,33.92,84.19,0,122.18,0.18
rw_cut_5_p1_2f_opt_disp_struct_2.xyz,Nucleus 19C :,2.21436,-4.404372,2.473581,155.45,130.81,146.53,189.02,212.05,199.0,267.13,-51.98,-85.13,-74.71,130.81,146.53,189.02,0,58.21,-0.46
rw_cut_5_p1_2f_opt_disp_struct_2.xyz,Nucleus 24C :,2.352046,-3.480642,1.522121,22.05,115.86,-16.85,-32.86,236.6,267.12,265.26,-120.82,-283.74,-298.26,-32.86,-16.85,115.86,0,148.72,-0.78
rw_cut_5_p1_2f_opt_disp_struct_2.xyz,Nucleus 5N :,1.699496,-2.709719,1.429329,118.16,46.61,184.83,123.05,294.58,336.92,331.79,-110.48,-211.39,-286.92,46.61,123.05,184.83,0,138.22,0.11
rw_cut_5_p1_2f_opt_disp_struct_2.xyz,Nucleus 22N :,1.187651,-4.303932,3.318029,170.46,104.82,227.03,179.54,291.64,346.24,330.19,-227.63,-121.04,-108.0,104.82,179.54,227.03,0,122.21,0.22
rw_cut_5_p1_2f_opt_disp_struct_2.xyz,Nucleus 25N :,1.109057,-4.925397,4.105001,174.61,115.97,176.22,231.65,323.03,328.32,339.0,-208.66,-153.8,-104.06,115.97,176.22,231.65,0,115.68,0.04
rw_cut_5_p1_2f_opt_disp_struct_2.xyz,Nucleus 27N :,0.468052,-3.597702,3.189539,173.3,116.13,195.54,208.22,288.67,326.09,335.52,-211.5,-126.79,-92.1,116.13,195.54,208.22,0,92.09,0.72
rw_cut_5_p1_2f_opt_disp_struct_2.xyz,Nucleus 10F :,3.871717,-7.188808,3.280017,299.89,402.31,213.38,283.99,486.01,456.33,465.94,-63.46,-246.15,-198.99,213.38,283.99,402.31,0,188.93,-0.25
rw_cut_5_p1_2f_opt_disp_struct_2.xyz,Nucleus 16F :,3.018947,-3.607504,0.779795,317.11,412.17,242.65,296.5,455.38,474.79,484.55,-63.13,-213.5,-186.78,242.65,296.5,412.17,0,169.52,-0.36
rw_cut_5_p1_2f_opt_disp_struct_3.xyz,Nucleus 1H :,0.978308,-0.026527,-1.315789,28.98,35.35,23.32,28.26,40.99,25.54,31.92,-0.72,-6.61,-4.19,23.32,28.26,35.35,0,12.03,-0.18
rw_cut_5_p1_2f_opt_disp_struct_3.xyz,Nucleus 2H :,1.793625,0.584543,-1.708662,28.97,24.08,28.25,34.58,47.92,28.88,26.49,1.85,-4.72,-13.51,24.08,28.25,34.58,0,10.5,-0.21
rw_cut_5_p1_2f_opt_disp_struct_3.xyz,Nucleus 6H :,1.14252,-1.060049,-1.638933,23.39,15.13,24.85,30.2,52.26,11.09,28.94,-22.56,-4.07,4.53,15.13,24.85,30.2,0,15.07,0.29
rw_cut_5_p1_2f_opt_disp_struct_3.xyz,Nucleus 12H :,0.898381,0.087734,0.164136,24.18,20.5,25.05,26.98,49.24,19.25,30.76,-24.47,1.95,-4.2,20.5,25.05,26.98,0,6.48,0.4
rw_cut_5_p1_2f_opt_disp_struct_3.xyz,Nucleus 14H :,1.679258,0.897402,0.967472,24.15,20.69,26.59,25.18,8.15,32.81,43.82,12.8,-6.34,-18.78,20.69,25.18,26.59,0,5.9,0.52
rw_cut_5_p1_2f_opt_disp_struct_3.xyz,Nucleus 17H :,1.294062,0.718193,2.269168,23.98,20.27,25.28,26.4,45.24,26.53,32.82,-19.87,-5.95,-6.83,20.27,25.28,26.4,0,6.13,0.64
rw_cut_5_p1_2f_opt_disp_struct_3.xyz,Nucleus 18H :,1.668162,1.20678,3.066035,28.55,35.16,26.86,23.64,42.77,27.78,31.81,-0.78,-8.23,-7.67,23.64,26.86,35.16,0,11.52,-0.44
rw_cut_5_p1_2f_opt_disp_struct_3.xyz,Nucleus 20H :,0.26957,-0.193923,2.334108,28.71,35.27,24.13,26.72,-4.65,16.65,39.55,31.33,8.28,-5.03,24.13,26.72,35.27,0,11.14,-0.54
rw_cut_5_p1_2f_opt_disp_struct_3.xyz,Nucleus 21H :,-0.00586,-0.608235,1.029485,28.67,34.65,27.06,24.31,-3.02,19.51,39.46,29.5,6.33,-5.75,24.31,27.06,34.65,0,10.34,-0.47
rw_cut_5_p1_2f_opt_disp_struct_3.xyz,Nucleus 23H :,-1.036586,-1.55293,0.842672,27.2,18.58,34.31,28.72,49.16,13.09,29.16,-14.86,6.16,-1.11,18.58,28.72,34.31,0,15.73,0.29
rw_cut_5_p1_2f_opt_disp_struct_3.xyz,Nucleus 26H :,-1.349498,-1.987175,-0.386731,28.02,41.93,18.8,23.34,21.47,52.83,57.9,-38.94,1.9,-11.08,18.8,23.34,41.93,0,23.13,-0.61
rw_cut_5_p1_2f_opt_disp_struct_3.xyz,Nucleus 28H :,-1.749496,-2.053018,1.937033,27.02,19.71,27.19,34.16,-1.82,24.7,53.5,21.66,2.41,-19.4,19.71,27.19,34.16,0,14.45,0.04
rw_cut_5_p1_2f_opt_disp_struct_3.xyz,Nucleus 29H :,-2.548433,-2.763978,1.759427,27.26,39.6,23.37,18.8,25.11,46.09,39.08,-20.26,-0.56,-7.7,18.8,23.37,39.6,0,20.8,-0.56
rw_cut_5_p1_2f_opt_disp_struct_3.xyz,Nucleus 30H :,-1.448696,-1.620198,3.226445,28.32,35.48,23.53,25.94,-15.17,14.57,38.71,38.84,11.32,-3.32,23.53,25.94,35.48,0,11.95,-0.6
rw_cut_5_p1_2f_opt_disp_struct_3.xyz,Nucleus 31H :,-2.02209,-1.967737,4.080008,27.64,20.43,34.64,27.84,30.73,39.35,45.72,-20.21,-10.22,-2.47,20.43,27.84,34.64,0,14.21,0.04
rw_cut_5_p1_2f_opt_disp_struct_3.xyz,Nucleus 0C :,-0.43562,-0.685215,3.434672,171.44,160.53,167.07,186.73,236.19,239.92,260.29,-82.64,-72.89,-66.54,160.53,167.07,186.73,0,26.2,-0.5
rw_cut_5_p1_2f_opt_disp_struct_3.xyz,Nucleus 3C :,-0.149463,-0.269606,4.674974,61.5,148.27,51.74,-15.51,240.86,277.98,263.61,-92.66,-226.23,-279.07,-15.51,51.74,148.27,0,163.78,-0.18
rw_cut_5_p1_2f_opt_disp_struct_3.xyz,Nucleus 4C :,2.463568,1.589288,0.69854,52.25,-33.08,128.42,61.42,277.49,259.15,254.33,-296.64,-128.29,-209.29,-33.08,61.42,128.42,0,161.5,0.17
rw_cut_5_p1_2f_opt_disp_struct_3.xyz,Nucleus 7C :,0.04962,0.305709,-1.790956,52.72,138.69,-0.95,20.43,277.16,259.2,265.77,-120.62,-278.07,-245.25,-0.95,20.43,138.69,0,139.64,-0.69
rw_cut_5_p1_2f_opt_disp_struct_3.xyz,Nucleus 8C :,3.251853,-6.663351,3.558677,59.22,158.68,24.16,-5.19,234.54,274.07,260.41,-76.41,-237.78,-277.18,-5.19,24.16,158.68,0,163.87,-0.64
rw_cut_5_p1_2f_opt_disp_struct_3.xyz,Nucleus 9C :,3.437542,-6.295848,4.575005,17.41,-57.92,77.58,32.56,236.2,268.01,273.54,-331.24,-234.83,-159.47,-57.92,32.56,77.58,0,135.5,0.34
rw_cut_5_p1_2f_opt_disp_struct_3.xyz,Nucleus 11C :,2.296161,-7.196479,3.522116,69.95,163.29,-13.61,60.16,235.93,260.83,277.93,-75.42,-280.33,-209.1,-13.61,60.16,163.29,0,176.9,-0.17
rw_cut_5_p1_2f_opt_disp_struct_3.xyz,Nucleus 13C :,3.278394,-5.583156,2.575849,70.03,165.01,56.67,-11.59,225.76,278.23,257.88,-63.24,-218.85,-269.7,-11.59,56.67,165.01,0,176.6,-0.23
rw_cut_5_p1_2f_opt_disp_struct_3.xyz,Nucleus 15C :,4.097531,-5.503654,1.996171,26.89,83.97,34.45,-37.75,232.45,272.14,262.23,-149.58,-234.22,-302.35,-37.75,34.45,83.97,0,121.72,0.19
rw_cut_5_p1_2f_opt_disp_struct_3.xyz,Nucleus 19C :,2.380378,-4.589764,2.497407,155.41,130.72,146.53,188.98,211.5,198.0,267.78,-51.0,-74.86,-85.18,130.72,146.53,188.98,0,58.26,-0.46
rw_cut_5_p1_2f_opt_disp_struct_3.xyz,Nucleus 24C :,2.518064,-3.666034,1.545947,21.94,115.66,-16.54,-33.29,237.02,267.35,265.22,-121.43,-283.09,-299.23,-33.29,-16.54,115.66,0,148.95,-0.78
rw_cut_5_p1_2f_opt_disp_struct_3.xyz,Nucleus 5N :,1.865514,-2.895111,1.453155,119.04,48.05,184.77,124.3,294.46,336.93,331.79,-110.54,-210.44,-285.08,48.05,124.3,184.77,0,136.72,0.12
rw_cut_5_p1_2f_opt_disp_struct_3.xyz,Nucleus 22N :,1.353669,-4.489324,3.341855,169.86,103.78,226.06,179.74,289.78,346.37,330.1,-228.9,-121.09,-106.68,103.78,179.74,226.06,0,122.28,0.24
rw_cut_5_p1_2f_opt_disp_struct_3.xyz,Nucleus 25N :,1.275075,-5.110789,4.128828,175.01,115.95,176.37,232.72,339.32,323.67,330.11,-209.23,-155.61,-103.21,115.95,176.37,232.72,0,116.77,0.03
rw_cut_5_p1_2f_opt_disp_struct_3.xyz,Nucleus 27N :,0.63407,-3.783095,3.213365,174.09,116.32,195.96,209.98,289.77,336.36,325.8,-210.85,-125.89,-92.92,116.32,195.96,209.98,0,93.66,0.7
rw_cut_5_p1_2f_opt_disp_struct_3.xyz,Nucleus 10F :,4.037735,-7.374201,3.303843,301.15,402.52,215.63,285.3,486.24,456.79,465.9,-63.31,-243.99,-198.18,215.63,285.3,402.52,0,186.89,-0.25
rw_cut_5_p1_2f_opt_disp_struct_3.xyz,Nucleus 16F :,3.184965,-3.792896,0.803621,318.7,412.54,245.59,297.98,455.75,473.99,484.79,-61.77,-210.97,-185.68,245.59,297.98,412.54,0,166.95,-0.37
rw_cut_5_p1_2f_opt_disp_struct_4.xyz,Nucleus 1H :,0.978308,-0.026527,-1.315789,28.99,35.32,23.33,28.32,40.99,25.65,31.85,-0.78,-6.68,-4.07,23.33,28.32,35.32,0,11.99,-0.17
rw_cut_5_p1_2f_opt_disp_struct_4.xyz,Nucleus 2H :,1.793625,0.584543,-1.708662,28.97,24.09,28.19,34.62,47.77,28.91,26.42,1.83,-4.71,-13.33,24.09,28.19,34.62,0,10.53,-0.22
rw_cut_5_p1_2f_opt_disp_struct_4.xyz,Nucleus 6H :,1.14252,-1.060049,-1.638933,23.44,15.17,24.89,30.25,52.15,11.16,29.08,-22.42,-4.14,4.49,15.17,24.89,30.25,0,15.08,0.29
rw_cut_5_p1_2f_opt_disp_struct_4.xyz,Nucleus 12H :,0.898381,0.087734,0.164136,24.2,20.52,25.02,27.07,49.24,19.12,31.03,-24.46,2.06,-4.37,20.52,25.02,27.07,0,6.55,0.38
rw_cut_5_p1_2f_opt_disp_struct_4.xyz,Nucleus 14H :,1.679258,0.897402,0.967472,24.17,20.68,26.7,25.13,7.76,33.18,43.89,13.13,-6.59,-18.85,20.68,25.13,26.7,0,6.02,0.48
rw_cut_5_p1_2f_opt_disp_struct_4.xyz,Nucleus 17H :,1.294062,0.718193,2.269168,24.02,20.32,25.3,26.43,45.29,26.67,32.73,-19.93,-6.03,-6.68,20.32,25.3,26.43,0,6.11,0.63
rw_cut_5_p1_2f_opt_disp_struct_4.xyz,Nucleus 18H :,1.668162,1.20678,3.066035,28.56,35.13,26.89,23.67,42.73,27.78,31.79,-0.8,-8.28,-7.54,23.67,26.89,35.13,0,11.46,-0.44
rw_cut_5_p1_2f_opt_disp_struct_4.xyz,Nucleus 20H :,0.26957,-0.193923,2.334108,28.69,35.24,24.14,26.68,-5.62,16.57,39.58,32.34,8.33,-5.14,24.14,26.68,35.24,0,11.1,-0.54
rw_cut_5_p1_2f_opt_disp_struct_4.xyz,Nucleus 21H :,-0.00586,-0.608235,1.029485,28.66,34.63,27.02,24.32,-3.88,19.43,39.5,30.43,6.36,-5.87,24.32,27.02,34.63,0,10.31,-0.48
rw_cut_5_p1_2f_opt_disp_struct_4.xyz,Nucleus 23H :,-1.036586,-1.55293,0.842672,27.15,18.6,34.23,28.62,49.3,11.8,28.93,-15.08,7.4,-0.9,18.6,28.62,34.23,0,15.63,0.28
rw_cut_5_p1_2f_opt_disp_struct_4.xyz,Nucleus 26H :,-1.349498,-1.987175,-0.386731,27.83,40.91,19.07,23.51,22.6,51.75,60.48,-41.26,0.91,-11.0,19.07,23.51,40.91,0,21.84,-0.59
rw_cut_5_p1_2f_opt_disp_struct_4.xyz,Nucleus 28H :,-1.749496,-2.053018,1.937033,26.95,19.71,27.07,34.08,-2.05,24.76,53.9,21.87,2.24,-19.86,19.71,27.07,34.08,0,14.37,0.03
rw_cut_5_p1_2f_opt_disp_struct_4.xyz,Nucleus 29H :,-2.548433,-2.763978,1.759427,27.13,38.7,23.61,19.08,26.19,45.47,41.37,-22.28,-1.5,-7.86,19.08,23.61,38.7,0,19.62,-0.54
rw_cut_5_p1_2f_opt_disp_struct_4.xyz,Nucleus 30H :,-1.448696,-1.620198,3.226445,28.28,35.41,23.51,25.93,-16.6,14.25,38.64,40.25,11.63,-3.31,23.51,25.93,35.41,0,11.9,-0.59
rw_cut_5_p1_2f_opt_disp_struct_4.xyz,Nucleus 31H :,-2.02209,-1.967737,4.080008,27.54,34.62,20.47,27.53,30.34,39.59,46.17,-20.59,-10.52,-2.36,20.47,27.53,34.62,0,14.15,-0.0
rw_cut_5_p1_2f_opt_disp_struct_4.xyz,Nucleus 0C :,-0.43562,-0.685215,3.434672,171.39,160.55,166.93,186.69,260.04,236.26,239.74,-82.31,-73.03,-66.53,160.55,166.93,186.69,0,26.14,-0.51
rw_cut_5_p1_2f_opt_disp_struct_4.xyz,Nucleus 3C :,-0.149463,-0.269606,4.674974,61.5,148.27,51.84,-15.62,240.86,277.76,263.59,-92.64,-225.88,-279.2,-15.62,51.84,148.27,0,163.89,-0.18
rw_cut_5_p1_2f_opt_disp_struct_4.xyz,Nucleus 4C :,2.463568,1.589288,0.69854,52.81,-32.31,128.35,62.39,277.14,259.69,253.94,-295.8,-128.42,-208.12,-32.31,62.39,128.35,0,160.66,0.18
rw_cut_5_p1_2f_opt_disp_struct_4.xyz,Nucleus 7C :,0.04962,0.305709,-1.790956,52.69,138.6,-1.05,20.53,277.1,258.93,265.84,-120.42,-278.09,-245.26,-1.05,20.53,138.6,0,139.65,-0.69
rw_cut_5_p1_2f_opt_disp_struct_4.xyz,Nucleus 8C :,3.417871,-6.848743,3.582503,58.96,158.53,23.64,-5.28,234.71,274.51,261.28,-76.8,-239.34,-277.48,-5.28,23.64,158.53,0,163.81,-0.65
rw_cut_5_p1_2f_opt_disp_struct_4.xyz,Nucleus 9C :,3.60356,-6.481241,4.598831,17.37,-58.06,77.37,32.81,235.48,268.4,273.28,-331.13,-234.9,-159.0,-58.06,32.81,77.37,0,135.43,0.34
rw_cut_5_p1_2f_opt_disp_struct_4.xyz,Nucleus 11C :,2.462179,-7.381871,3.545942,70.03,163.07,-13.55,60.57,236.36,260.81,278.09,-75.64,-280.56,-208.97,-13.55,60.57,163.07,0,176.62,-0.16
rw_cut_5_p1_2f_opt_disp_struct_4.xyz,Nucleus 13C :,3.444412,-5.768548,2.599675,69.66,164.75,56.42,-12.19,226.43,278.63,257.73,-63.4,-219.53,-270.88,-12.19,56.42,164.75,0,176.94,-0.22
rw_cut_5_p1_2f_opt_disp_struct_4.xyz,Nucleus 15C :,4.263549,-5.689046,2.019997,27.0,83.8,34.8,-37.59,232.12,272.32,262.16,-149.32,-234.08,-302.19,-37.59,34.8,83.8,0,121.39,0.19
rw_cut_5_p1_2f_opt_disp_struct_4.xyz,Nucleus 19C :,2.546396,-4.775157,2.521233,155.39,130.66,146.55,188.95,210.95,197.0,268.42,-50.02,-74.95,-85.25,130.66,146.55,188.95,0,58.29,-0.45
rw_cut_5_p1_2f_opt_disp_struct_4.xyz,Nucleus 24C :,2.684082,-3.851427,1.569773,21.86,115.56,-16.39,-33.6,237.54,267.82,264.96,-122.04,-282.62,-300.09,-33.6,-16.39,115.56,0,149.16,-0.77
rw_cut_5_p1_2f_opt_disp_struct_4.xyz,Nucleus 5N :,2.031532,-3.080503,1.476981,119.81,49.31,184.76,125.35,294.48,336.92,331.79,-110.62,-209.61,-283.54,49.31,125.35,184.76,0,135.45,0.12
rw_cut_5_p1_2f_opt_disp_struct_4.xyz,Nucleus 22N :,1.519687,-4.674716,3.365681,169.39,102.99,225.27,179.9,287.96,346.58,330.02,-229.95,-121.25,-105.19,102.99,179.9,225.27,0,122.28,0.26
rw_cut_5_p1_2f_opt_disp_struct_4.xyz,Nucleus 25N :,1.441093,-5.296182,4.152654,175.19,115.9,176.4,233.28,324.16,339.89,331.73,-209.76,-157.56,-102.86,115.9,176.4,233.28,0,117.38,0.03
rw_cut_5_p1_2f_opt_disp_struct_4.xyz,Nucleus 27N :,0.800088,-3.968487,3.237191,174.5,116.38,196.12,211.01,290.79,337.21,325.6,-210.54,-125.65,-93.89,116.38,196.12,211.01,0,94.63,0.69
rw_cut_5_p1_2f_opt_disp_struct_4.xyz,Nucleus 10F :,4.203753,-7.559593,3.327669,302.12,402.66,217.42,286.28,486.38,457.23,465.91,-63.24,-242.26,-197.66,217.42,286.28,402.66,0,185.24,-0.26
rw_cut_5_p1_2f_opt_disp_struct_4.xyz,Nucleus 16F :,3.350983,-3.978288,0.827447,319.94,412.85,247.9,299.06,456.11,473.22,484.97,-60.48,-209.07,-184.95,247.9,299.06,412.85,0,164.95,-0.38
rw_cut_5_p1_2f_opt_disp_struct_5.xyz,Nucleus 1H :,0.978308,-0.026527,-1.315789,29.01,35.29,23.36,28.37,40.98,25.73,31.77,-6.72,-0.81,-3.93,23.36,28.37,35.29,0,11.93,-0.16
rw_cut_5_p1_2f_opt_disp_struct_5.xyz,Nucleus 2H :,1.793625,0.584543,-1.708662,28.96,24.09,28.14,34.65,47.62,28.9,26.34,1.84,-4.67,-13.15,24.09,28.14,34.65,0,10.56,-0.23
rw_cut_5_p1_2f_opt_disp_struct_5.xyz,Nucleus 6H :,1.14252,-1.060049,-1.638933,23.48,15.21,24.93,30.29,52.02,11.22,29.22,-22.26,-4.21,4.44,15.21,24.93,30.29,0,15.08,0.29
rw_cut_5_p1_2f_opt_disp_struct_5.xyz,Nucleus 12H :,0.898381,0.087734,0.164136,24.23,20.54,25.01,27.15,49.19,19.01,31.2,-24.38,2.12,-4.44,20.54,25.01,27.15,0,6.61,0.35
rw_cut_5_p1_2f_opt_disp_struct_5.xyz,Nucleus 14H :,1.679258,0.897402,0.967472,24.18,20.66,26.8,25.09,7.44,33.53,43.94,13.37,-6.82,-18.89,20.66,25.09,26.8,0,6.14,0.44
rw_cut_5_p1_2f_opt_disp_struct_5.xyz,Nucleus 17H :,1.294062,0.718193,2.269168,24.05,20.37,25.31,26.47,45.32,26.78,32.64,-19.96,-6.11,-6.52,20.37,25.31,26.47,0,6.1,0.62
rw_cut_5_p1_2f_opt_disp_struct_5.xyz,Nucleus 18H :,1.668162,1.20678,3.066035,28.56,35.1,26.9,23.69,42.68,27.75,31.79,-0.79,-8.33,-7.4,23.69,26.9,35.1,0,11.41,-0.44
rw_cut_5_p1_2f_opt_disp_struct_5.xyz,Nucleus 20H :,0.26957,-0.193923,2.334108,28.66,35.21,24.14,26.64,-6.57,16.49,39.62,33.32,8.38,-5.25,24.14,26.64,35.21,0,11.07,-0.55
rw_cut_5_p1_2f_opt_disp_struct_5.xyz,Nucleus 21H :,-0.00586,-0.608235,1.029485,28.63,34.6,26.98,24.32,-4.73,19.35,39.55,31.34,6.38,-5.98,24.32,26.98,34.6,0,10.28,-0.48
rw_cut_5_p1_2f_opt_disp_struct_5.xyz,Nucleus 23H :,-1.036586,-1.55293,0.842672,27.1,18.61,34.17,28.53,49.46,10.52,28.71,-15.31,8.62,-0.7,18.61,28.53,34.17,0,15.56,0.28
rw_cut_5_p1_2f_opt_disp_struct_5.xyz,Nucleus 26H :,-1.349498,-1.987175,-0.386731,27.64,40.05,19.26,23.6,23.47,50.81,62.91,-43.5,-10.9,0.14,19.26,23.6,40.05,0,20.79,-0.58
rw_cut_5_p1_2f_opt_disp_struct_5.xyz,Nucleus 28H :,-1.749496,-2.053018,1.937033,26.89,19.71,26.96,34.01,-2.27,24.82,54.31,22.08,2.07,-20.33,19.71,26.96,34.01,0,14.3,0.01
rw_cut_5_p1_2f_opt_disp_struct_5.xyz,Nucleus 29H :,-2.548433,-2.763978,1.759427,27.0,37.99,23.75,19.26,27.01,45.04,43.58,-24.35,-2.3,-7.98,19.26,23.75,37.99,0,18.73,-0.52
rw_cut_5_p1_2f_opt_disp_struct_5.xyz,Nucleus 30H :,-1.448696,-1.620198,3.226445,28.27,35.35,23.52,25.93,-18.01,13.93,38.58,41.66,11.94,-3.32,23.52,25.93,35.35,0,11.83,-0.59
rw_cut_5_p1_2f_opt_disp_struct_5.xyz,Nucleus 31H :,-2.02209,-1.967737,4.080008,27.46,34.61,20.51,27.27,29.97,39.81,46.6,-20.96,-10.8,-2.25,20.51,27.27,34.61,0,14.1,-0.04
rw_cut_5_p1_2f_opt_disp_struct_5.xyz,Nucleus 0C :,-0.43562,-0.685215,3.434672,171.35,160.55,166.82,186.68,259.82,236.32,239.58,-82.0,-73.15,-66.51,160.55,166.82,186.68,0,26.13,-0.52
rw_cut_5_p1_2f_opt_disp_struct_5.xyz,Nucleus 3C :,-0.149463,-0.269606,4.674974,61.49,148.29,51.9,-15.71,240.9,277.54,263.54,-92.66,-225.58,-279.26,-15.71,51.9,148.29,0,164.0,-0.18
rw_cut_5_p1_2f_opt_disp_struct_5.xyz,Nucleus 4C :,2.463568,1.589288,0.69854,53.25,-31.71,128.27,63.2,276.82,260.01,253.82,-295.17,-128.59,-207.13,-31.71,63.2,128.27,0,159.98,0.19
rw_cut_5_p1_2f_opt_disp_struct_5.xyz,Nucleus 7C :,0.04962,0.305709,-1.790956,52.65,138.52,-1.17,20.61,276.9,258.81,265.9,-120.4,-278.0,-245.24,-1.17,20.61,138.52,0,139.69,-0.69
rw_cut_5_p1_2f_opt_disp_struct_5.xyz,Nucleus 8C :,3.583889,-7.034136,3.606329,58.78,158.45,23.25,-5.36,234.68,274.53,261.94,-76.9,-240.49,-277.41,-5.36,23.25,158.45,0,163.81,-0.65
rw_cut_5_p1_2f_opt_disp_struct_5.xyz,Nucleus 9C :,3.769578,-6.666633,4.622657,17.32,-58.21,77.2,32.96,235.1,268.5,272.9,-330.92,-234.86,-158.76,-58.21,32.96,77.2,0,135.41,0.35
rw_cut_5_p1_2f_opt_disp_struct_5.xyz,Nucleus 11C :,2.628197,-7.567264,3.569768,70.06,162.88,-13.54,60.85,236.68,260.82,278.0,-75.82,-280.61,-208.87,-13.54,60.85,162.88,0,176.42,-0.16
rw_cut_5_p1_2f_opt_disp_struct_5.xyz,Nucleus 13C :,3.61043,-5.953941,2.623501,69.35,164.55,56.17,-12.68,226.91,278.79,257.69,-63.43,-220.02,-271.9,-12.68,56.17,164.55,0,177.23,-0.22
rw_cut_5_p1_2f_opt_disp_struct_5.xyz,Nucleus 15C :,4.429567,-5.874439,2.043823,27.06,83.65,35.04,-37.51,231.85,272.28,262.15,-149.11,-233.95,-302.02,-37.51,35.04,83.65,0,121.16,0.2
rw_cut_5_p1_2f_opt_disp_struct_5.xyz,Nucleus 19C :,2.712414,-4.960549,2.545059,155.36,130.61,146.55,188.91,210.41,196.01,269.04,-49.04,-75.0,-85.35,130.61,146.55,188.91,0,58.3,-0.45
rw_cut_5_p1_2f_opt_disp_struct_5.xyz,Nucleus 24C :,2.8501,-4.036819,1.593599,21.79,115.54,-16.31,-33.85,238.1,268.38,264.65,-122.62,-282.25,-300.87,-33.85,-16.31,115.54,0,149.39,-0.77
rw_cut_5_p1_2f_opt_disp_struct_5.xyz,Nucleus 5N :,2.19755,-3.265896,1.500807,120.38,50.26,184.71,126.18,294.62,336.89,331.77,-110.78,-208.95,-282.39,50.26,126.18,184.71,0,134.45,0.13
rw_cut_5_p1_2f_opt_disp_struct_5.xyz,Nucleus 22N :,1.685705,-4.860109,3.389507,169.03,102.41,224.64,180.03,286.21,346.83,329.94,-230.82,-121.43,-103.65,102.41,180.03,224.64,0,122.23,0.27
rw_cut_5_p1_2f_opt_disp_struct_5.xyz,Nucleus 25N :,1.607111,-5.481574,4.17648,175.22,115.79,176.35,233.53,324.48,340.64,332.94,-210.27,-159.37,-102.75,115.79,176.35,233.53,0,117.74,0.03
rw_cut_5_p1_2f_opt_disp_struct_5.xyz,Nucleus 27N :,0.966106,-4.153879,3.261017,174.68,116.34,196.12,211.59,291.67,337.96,325.44,-210.41,-125.76,-94.84,116.34,196.12,211.59,0,95.25,0.68
rw_cut_5_p1_2f_opt_disp_struct_5.xyz,Nucleus 10F :,4.369771,-7.744986,3.351495,302.92,402.76,218.83,287.16,486.47,457.6,465.96,-63.2,-240.91,-197.16,218.83,287.16,402.76,0,183.93,-0.26
rw_cut_5_p1_2f_opt_disp_struct_5.xyz,Nucleus 16F :,3.517001,-4.163681,0.851273,320.94,413.1,249.69,300.02,456.47,472.45,485.14,-59.3,-207.66,-184.29,249.69,300.02,413.1,0,163.41,-0.38
rw_cut_5_p1_2f_opt_disp_struct_6.xyz,Nucleus 1H :,0.978308,-0.026527,-1.315789,29.02,35.28,23.38,28.41,40.96,25.79,31.68,-6.73,-0.82,-3.81,23.38,28.41,35.28,0,11.9,-0.15
rw_cut_5_p1_2f_opt_disp_struct_6.xyz,Nucleus 2H :,1.793625,0.584543,-1.708662,28.95,24.08,28.1,34.68,47.47,28.86,26.27,1.85,-4.6,-12.98,24.08,28.1,34.68,0,10.6,-0.24
rw_cut_5_p1_2f_opt_disp_struct_6.xyz,Nucleus 6H :,1.14252,-1.060049,-1.638933,23.52,15.25,24.97,30.33,51.89,11.28,29.35,-22.09,-4.28,4.39,15.25,24.97,30.33,0,15.08,0.29
rw_cut_5_p1_2f_opt_disp_struct_6.xyz,Nucleus 12H :,0.898381,0.087734,0.164136,24.26,20.55,25.01,27.22,49.1,18.93,31.3,-24.26,2.15,-4.45,20.55,25.01,27.22,0,6.67,0.34
rw_cut_5_p1_2f_opt_disp_struct_6.xyz,Nucleus 14H :,1.679258,0.897402,0.967472,24.2,20.64,26.89,25.08,7.21,33.81,43.97,13.55,-7.02,-18.91,20.64,25.08,26.89,0,6.25,0.42
rw_cut_5_p1_2f_opt_disp_struct_6.xyz,Nucleus 17H :,1.294062,0.718193,2.269168,24.08,20.41,25.32,26.5,45.33,26.87,32.56,-19.96,-6.17,-6.4,20.41,25.32,26.5,0,6.09,0.61
rw_cut_5_p1_2f_opt_disp_struct_6.xyz,Nucleus 18H :,1.668162,1.20678,3.066035,28.57,35.08,26.92,23.72,42.63,27.71,31.79,-0.77,-8.38,-7.26,23.72,26.92,35.08,0,11.36,-0.44
rw_cut_5_p1_2f_opt_disp_struct_6.xyz,Nucleus 20H :,0.26957,-0.193923,2.334108,28.64,35.19,24.14,26.6,-7.51,16.43,39.66,34.29,8.43,-5.36,24.14,26.6,35.19,0,11.05,-0.55
rw_cut_5_p1_2f_opt_disp_struct_6.xyz,Nucleus 21H :,-0.00586,-0.608235,1.029485,28.62,34.58,26.95,24.32,-5.57,19.28,39.6,32.24,6.4,-6.1,24.32,26.95,34.58,0,10.26,-0.49
rw_cut_5_p1_2f_opt_disp_struct_6.xyz,Nucleus 23H :,-1.036586,-1.55293,0.842672,27.06,18.61,34.12,28.45,49.64,9.24,28.49,-15.53,9.86,-0.51,18.61,28.45,34.12,0,15.51,0.27
rw_cut_5_p1_2f_opt_disp_struct_6.xyz,Nucleus 26H :,-1.349498,-1.987175,-0.386731,27.47,39.33,19.41,23.67,24.21,49.97,65.21,-45.66,-10.81,-0.51,19.41,23.67,39.33,0,19.92,-0.57
rw_cut_5_p1_2f_opt_disp_struct_6.xyz,Nucleus 28H :,-1.749496,-2.053018,1.937033,26.84,19.72,26.86,33.95,-2.41,24.89,54.72,22.22,1.91,-20.79,19.72,26.86,33.95,0,14.23,0.0
rw_cut_5_p1_2f_opt_disp_struct_6.xyz,Nucleus 29H :,-2.548433,-2.763978,1.759427,26.88,37.41,23.84,19.4,27.68,45.89,44.56,-26.41,-3.01,-8.07,19.4,23.84,37.41,0,18.01,-0.51
rw_cut_5_p1_2f_opt_disp_struct_6.xyz,Nucleus 30H :,-1.448696,-1.620198,3.226445,28.25,35.29,23.52,25.93,-19.4,13.63,38.52,43.05,12.25,-3.32,23.52,25.93,35.29,0,11.77,-0.59
rw_cut_5_p1_2f_opt_disp_struct_6.xyz,Nucleus 31H :,-2.02209,-1.967737,4.080008,27.39,34.6,20.54,27.03,29.63,40.0,46.99,-21.29,-11.04,-2.13,20.54,27.03,34.6,0,14.06,-0.08
rw_cut_5_p1_2f_opt_disp_struct_6.xyz,Nucleus 0C :,-0.43562,-0.685215,3.434672,171.32,160.57,166.72,186.68,259.63,236.37,239.41,-81.71,-73.25,-66.48,160.57,166.72,186.68,0,26.11,-0.53
rw_cut_5_p1_2f_opt_disp_struct_6.xyz,Nucleus 3C :,-0.149463,-0.269606,4.674974,61.48,148.3,51.93,-15.78,240.92,277.28,263.49,-92.68,-225.28,-279.29,-15.78,51.93,148.3,0,164.08,-0.17
rw_cut_5_p1_2f_opt_disp_struct_6.xyz,Nucleus 4C :,2.463568,1.589288,0.69854,53.62,-31.22,128.19,63.88,276.54,260.12,253.89,-294.67,-128.75,-206.27,-31.22,63.88,128.19,0,159.41,0.19
rw_cut_5_p1_2f_opt_disp_struct_6.xyz,Nucleus 7C :,0.04962,0.305709,-1.790956,52.61,138.44,-1.29,20.69,276.62,258.76,265.93,-120.46,-277.83,-245.2,-1.29,20.69,138.44,0,139.73,-0.69
rw_cut_5_p1_2f_opt_disp_struct_6.xyz,Nucleus 8C :,3.749907,-7.219528,3.630155,58.64,158.39,22.95,-5.41,234.58,274.17,262.38,-76.9,-241.24,-277.06,-5.41,22.95,158.39,0,163.8,-0.65
rw_cut_5_p1_2f_opt_disp_struct_6.xyz,Nucleus 9C :,3.935596,-6.852026,4.646483,17.25,-58.35,77.05,33.05,234.92,268.39,272.46,-330.65,-234.72,-158.67,-58.35,33.05,77.05,0,135.4,0.35
rw_cut_5_p1_2f_opt_disp_struct_6.xyz,Nucleus 11C :,2.794215,-7.752656,3.593594,70.07,162.71,-13.54,61.05,236.92,260.82,277.75,-75.95,-280.56,-208.76,-13.54,61.05,162.71,0,176.25,-0.15
rw_cut_5_p1_2f_opt_disp_struct_6.xyz,Nucleus 13C :,3.776448,-6.139333,2.647327,69.09,164.39,55.96,-13.07,227.1,257.79,278.78,-63.41,-220.32,-272.67,-13.07,55.96,164.39,0,177.46,-0.22
rw_cut_5_p1_2f_opt_disp_struct_6.xyz,Nucleus 15C :,4.595585,-6.059831,2.067649,27.09,83.52,35.2,-37.45,231.67,272.11,262.16,-148.98,-233.83,-301.86,-37.45,35.2,83.52,0,120.97,0.2
rw_cut_5_p1_2f_opt_disp_struct_6.xyz,Nucleus 19C :,2.878432,-5.145942,2.568885,155.33,130.56,146.56,188.88,209.9,195.02,269.65,-48.06,-75.01,-85.49,130.56,146.56,188.88,0,58.32,-0.45
rw_cut_5_p1_2f_opt_disp_struct_6.xyz,Nucleus 24C :,3.016118,-4.222212,1.617425,21.74,115.55,-16.29,-34.04,238.64,268.95,264.34,-123.15,-281.97,-301.58,-34.04,-16.29,115.55,0,149.59,-0.76
rw_cut_5_p1_2f_opt_disp_struct_6.xyz,Nucleus 5N :,2.363568,-3.451288,1.524633,120.85,51.04,184.66,126.86,294.83,336.83,331.72,-110.96,-208.38,-281.49,51.04,126.86,184.66,0,133.62,0.13
rw_cut_5_p1_2f_opt_disp_struct_6.xyz,Nucleus 22N :,1.851723,-5.045501,3.413333,168.74,101.95,224.13,180.15,284.51,347.11,329.86,-231.56,-121.59,-102.09,101.95,180.15,224.13,0,122.18,0.28
rw_cut_5_p1_2f_opt_disp_struct_6.xyz,Nucleus 25N :,1.773129,-5.666967,4.200306,175.21,115.68,176.3,233.66,324.61,341.5,333.73,-210.67,-160.88,-102.65,115.68,176.3,233.66,0,117.98,0.03
rw_cut_5_p1_2f_opt_disp_struct_6.xyz,Nucleus 27N :,1.132124,-4.339272,3.284843,174.76,116.26,196.08,211.94,292.45,338.53,325.29,-210.33,-125.96,-95.72,116.26,196.08,211.94,0,95.68,0.67
rw_cut_5_p1_2f_opt_disp_struct_6.xyz,Nucleus 10F :,4.535789,-7.930378,3.375321,303.57,402.83,219.96,287.93,486.51,457.9,466.02,-63.19,-239.8,-196.7,219.96,287.93,402.83,0,182.87,-0.26
rw_cut_5_p1_2f_opt_disp_struct_6.xyz,Nucleus 16F :,3.683019,-4.349073,0.875099,321.73,413.3,251.09,300.81,456.84,471.67,485.3,-58.23,-206.62,-183.75,251.09,300.81,413.3,0,162.21,-0.39
rw_cut_5_p1_2f_opt_disp_struct_7.xyz,Nucleus 1H :,0.978308,-0.026527,-1.315789,29.03,35.26,23.39,28.44,40.93,25.83,31.59,-6.73,-0.83,-3.71,23.39,28.44,35.26,0,11.87,-0.15
rw_cut_5_p1_2f_opt_disp_struct_7.xyz,Nucleus 2H :,1.793625,0.584543,-1.708662,28.94,24.07,28.05,34.69,47.32,28.8,26.21,1.86,-4.53,-12.84,24.07,28.05,34.69,0,10.62,-0.25
rw_cut_5_p1_2f_opt_disp_struct_7.xyz,Nucleus 6H :,1.14252,-1.060049,-1.638933,23.55,15.29,25.01,30.35,51.76,11.33,29.48,-21.92,-4.35,4.36,15.29,25.01,30.35,0,15.06,0.29
rw_cut_5_p1_2f_opt_disp_struct_7.xyz,Nucleus 12H :,0.898381,0.087734,0.164136,24.28,20.54,25.03,27.27,48.99,18.85,31.36,-24.11,2.17,-4.44,20.54,25.03,27.27,0,6.73,0.33
rw_cut_5_p1_2f_opt_disp_struct_7.xyz,Nucleus 14H :,1.679258,0.897402,0.967472,24.2,20.56,26.94,25.1,7.03,34.01,43.98,13.64,-7.17,-18.89,20.56,25.1,26.94,0,6.38,0.42
rw_cut_5_p1_2f_opt_disp_struct_7.xyz,Nucleus 17H :,1.294062,0.718193,2.269168,24.1,20.46,25.32,26.53,45.32,26.95,32.51,-19.95,-6.21,-6.29,20.46,25.32,26.53,0,6.07,0.6
rw_cut_5_p1_2f_opt_disp_struct_7.xyz,Nucleus 18H :,1.668162,1.20678,3.066035,28.58,35.06,26.94,23.74,42.58,27.65,31.81,-0.74,-8.43,-7.15,23.74,26.94,35.06,0,11.32,-0.43
rw_cut_5_p1_2f_opt_disp_struct_7.xyz,Nucleus 20H :,0.26957,-0.193923,2.334108,28.64,35.18,24.15,26.6,-8.44,16.36,39.7,35.3,8.49,-5.48,24.15,26.6,35.18,0,11.03,-0.55
rw_cut_5_p1_2f_opt_disp_struct_7.xyz,Nucleus 21H :,-0.00586,-0.608235,1.029485,28.62,34.57,26.94,24.34,-6.41,19.22,39.65,33.18,6.43,-6.23,24.34,26.94,34.57,0,10.23,-0.49
rw_cut_5_p1_2f_opt_disp_struct_7.xyz,Nucleus 23H :,-1.036586,-1.55293,0.842672,27.02,18.59,34.07,28.39,49.81,7.96,28.29,-15.76,11.09,-0.33,18.59,28.39,34.07,0,15.48,0.27
rw_cut_5_p1_2f_opt_disp_struct_7.xyz,Nucleus 26H :,-1.349498,-1.987175,-0.386731,27.3,38.73,23.71,19.46,24.87,49.23,67.42,-47.82,-10.7,-1.09,19.46,23.71,38.73,0,19.27,-0.56
rw_cut_5_p1_2f_opt_disp_struct_7.xyz,Nucleus 28H :,-1.749496,-2.053018,1.937033,26.78,19.74,26.76,33.85,-2.5,24.95,55.12,22.32,1.76,-21.29,19.74,26.76,33.85,0,14.11,-0.0
rw_cut_5_p1_2f_opt_disp_struct_7.xyz,Nucleus 29H :,-2.548433,-2.763978,1.759427,26.76,36.95,23.88,19.44,28.26,44.32,47.96,-28.47,-3.65,-8.13,19.44,23.88,36.95,0,17.51,-0.49
rw_cut_5_p1_2f_opt_disp_struct_7.xyz,Nucleus 30H :,-1.448696,-1.620198,3.226445,28.28,35.24,23.63,25.96,-20.78,13.33,38.47,44.54,12.58,-3.32,23.63,25.96,35.24,0,11.61,-0.6
rw_cut_5_p1_2f_opt_disp_struct_7.xyz,Nucleus 31H :,-2.02209,-1.967737,4.080008,27.31,34.58,20.53,26.82,29.32,40.18,47.35,-21.66,-11.25,-2.01,20.53,26.82,34.58,0,14.05,-0.1
rw_cut_5_p1_2f_opt_disp_struct_7.xyz,Nucleus 0C :,-0.43562,-0.685215,3.434672,171.24,160.52,166.57,186.63,259.46,236.41,239.25,-81.52,-73.39,-66.5,160.52,166.57,186.63,0,26.11,-0.54
rw_cut_5_p1_2f_opt_disp_struct_7.xyz,Nucleus 3C :,-0.149463,-0.269606,4.674974,61.46,148.29,51.96,-15.86,240.94,277.01,263.45,-92.71,-224.98,-279.33,-15.86,51.96,148.29,0,164.15,-0.17
rw_cut_5_p1_2f_opt_disp_struct_7.xyz,Nucleus 4C :,2.463568,1.589288,0.69854,53.91,-30.8,128.06,64.46,276.29,260.09,254.11,-294.27,-128.96,-205.54,-30.8,64.46,128.06,0,158.86,0.2
rw_cut_5_p1_2f_opt_disp_struct_7.xyz,Nucleus 7C :,0.04962,0.305709,-1.790956,52.58,138.36,-1.41,20.78,276.32,258.76,265.95,-120.54,-277.64,-245.12,-1.41,20.78,138.36,0,139.77,-0.68
rw_cut_5_p1_2f_opt_disp_struct_7.xyz,Nucleus 8C :,3.915925,-7.404921,3.653981,58.56,158.33,22.77,-5.42,234.49,273.61,262.69,-76.88,-241.67,-276.57,-5.42,22.77,158.33,0,163.75,-0.66
rw_cut_5_p1_2f_opt_disp_struct_7.xyz,Nucleus 9C :,4.101614,-7.037418,4.670309,17.2,-58.44,76.93,33.11,234.85,268.19,272.02,-330.31,-234.52,-158.63,-58.44,33.11,76.93,0,135.37,0.35
rw_cut_5_p1_2f_opt_disp_struct_7.xyz,Nucleus 11C :,2.960233,-7.938049,3.61742,70.1,162.58,-13.51,61.23,237.11,260.82,277.42,-76.02,-280.42,-208.61,-13.51,61.23,162.58,0,176.09,-0.15
rw_cut_5_p1_2f_opt_disp_struct_7.xyz,Nucleus 13C :,3.942466,-6.324726,2.671153,68.92,164.29,55.8,-13.32,227.12,257.93,278.67,-63.3,-220.46,-273.19,-13.32,55.8,164.29,0,177.61,-0.22
rw_cut_5_p1_2f_opt_disp_struct_7.xyz,Nucleus 15C :,4.761603,-6.245224,2.091475,27.11,83.4,35.31,-37.37,231.6,271.89,262.21,-148.93,-233.73,-301.7,-37.37,35.31,83.4,0,120.77,0.2
rw_cut_5_p1_2f_opt_disp_struct_7.xyz,Nucleus 19C :,3.04445,-5.331334,2.592711,155.41,130.63,146.68,188.92,209.4,194.04,270.25,-46.98,-74.9,-85.59,130.63,146.68,188.92,0,58.29,-0.45
rw_cut_5_p1_2f_opt_disp_struct_7.xyz,Nucleus 24C :,3.182136,-4.407604,1.641251,21.7,115.58,-16.27,-34.21,239.13,269.5,264.07,-123.62,-281.74,-302.25,-34.21,-16.27,115.58,0,149.79,-0.76
rw_cut_5_p1_2f_opt_disp_struct_7.xyz,Nucleus 5N :,2.529586,-3.636681,1.548459,121.18,51.64,184.5,127.41,295.06,336.77,331.66,-111.22,-207.89,-280.81,51.64,127.41,184.5,0,132.86,0.14
rw_cut_5_p1_2f_opt_disp_struct_7.xyz,Nucleus 22N :,2.017741,-5.230894,3.437159,168.59,101.68,223.81,180.27,282.85,347.4,329.78,-232.14,-121.65,-100.49,101.68,180.27,223.81,0,122.13,0.29
rw_cut_5_p1_2f_opt_disp_struct_7.xyz,Nucleus 25N :,1.939147,-5.852359,4.224132,175.23,115.63,176.29,233.78,324.61,342.38,334.21,-210.92,-162.08,-102.51,115.63,176.29,233.78,0,118.15,0.03
rw_cut_5_p1_2f_opt_disp_struct_7.xyz,Nucleus 27N :,1.298142,-4.524664,3.308669,174.87,116.23,196.16,212.21,293.24,339.0,325.14,-210.18,-126.14,-96.45,116.23,196.16,212.21,0,95.98,0.67
rw_cut_5_p1_2f_opt_disp_struct_7.xyz,Nucleus 10F :,4.701807,-8.115771,3.399147,304.16,402.88,220.88,288.72,486.52,458.15,466.06,-63.2,-238.9,-196.15,220.88,288.72,402.88,0,182.0,-0.25
rw_cut_5_p1_2f_opt_disp_struct_7.xyz,Nucleus 16F :,3.849037,-4.534466,0.898925,322.45,413.51,252.23,301.62,457.2,470.91,485.45,-57.22,-205.81,-183.17,252.23,301.62,413.51,0,161.28,-0.39
rw_cut_5_p1_2f_opt_disp_struct_8.xyz,Nucleus 1H :,0.978308,-0.026527,-1.315789,29.05,35.26,23.4,28.48,40.9,25.85,31.51,-6.7,-0.82,-3.6,23.4,28.48,35.26,0,11.86,-0.14
rw_cut_5_p1_2f_opt_disp_struct_8.xyz,Nucleus 2H :,1.793625,0.584543,-1.708662,28.94,24.06,28.03,34.73,47.19,28.72,26.16,1.88,-4.43,-12.7,24.06,28.03,34.73,0,10.67,-0.26
rw_cut_5_p1_2f_opt_disp_struct_8.xyz,Nucleus 6H :,1.14252,-1.060049,-1.638933,23.58,15.29,25.04,30.4,51.63,11.36,29.58,-21.73,-4.42,4.3,15.29,25.04,30.4,0,15.11,0.29
rw_cut_5_p1_2f_opt_disp_struct_8.xyz,Nucleus 12H :,0.898381,0.087734,0.164136,24.3,20.55,25.02,27.33,48.88,18.8,31.37,-23.97,2.16,-4.35,20.55,25.02,27.33,0,6.78,0.32
rw_cut_5_p1_2f_opt_disp_struct_8.xyz,Nucleus 14H :,1.679258,0.897402,0.967472,24.22,20.59,27.01,25.07,6.91,34.14,43.98,13.76,-7.23,-18.89,20.59,25.07,27.01,0,6.42,0.4
rw_cut_5_p1_2f_opt_disp_struct_8.xyz,Nucleus 17H :,1.294062,0.718193,2.269168,24.12,20.47,25.33,26.56,45.29,27.0,32.45,-19.9,-6.29,-6.2,20.47,25.33,26.56,0,6.09,0.6
rw_cut_5_p1_2f_opt_disp_struct_8.xyz,Nucleus 18H :,1.668162,1.20678,3.066035,28.59,35.05,26.96,23.76,42.53,27.59,31.83,-0.69,-8.47,-7.02,23.76,26.96,35.05,0,11.29,-0.43
rw_cut_5_p1_2f_opt_disp_struct_8.xyz,Nucleus 20H :,0.26957,-0.193923,2.334108,28.61,35.15,24.14,26.54,-9.37,16.3,39.75,36.21,8.51,-5.58,24.14,26.54,35.15,0,11.01,-0.56
rw_cut_5_p1_2f_opt_disp_struct_8.xyz,Nucleus 21H :,-0.00586,-0.608235,1.029485,28.59,34.54,26.89,24.33,-7.25,19.17,39.72,34.04,6.43,-6.34,24.33,26.89,34.54,0,10.21,-0.5
rw_cut_5_p1_2f_opt_disp_struct_8.xyz,Nucleus 23H :,-1.036586,-1.55293,0.842672,27.0,18.63,34.04,28.33,50.0,6.68,28.09,-15.98,12.36,-0.16,18.63,28.33,34.04,0,15.41,0.26
rw_cut_5_p1_2f_opt_disp_struct_8.xyz,Nucleus 26H :,-1.349498,-1.987175,-0.386731,27.21,38.21,23.77,19.64,25.46,48.58,69.52,-49.75,-10.61,-1.58,19.64,23.77,38.21,0,18.57,-0.56
rw_cut_5_p1_2f_opt_disp_struct_8.xyz,Nucleus 28H :,-1.749496,-2.053018,1.937033,26.76,19.74,26.69,33.85,-2.54,25.0,55.52,22.36,1.62,-21.68,19.74,26.69,33.85,0,14.11,-0.01
rw_cut_5_p1_2f_opt_disp_struct_8.xyz,Nucleus 29H :,-2.548433,-2.763978,1.759427,26.69,36.56,23.93,19.59,28.76,44.1,49.97,-30.34,-4.21,-8.19,19.59,23.93,36.56,0,16.97,-0.49
rw_cut_5_p1_2f_opt_disp_struct_8.xyz,Nucleus 30H :,-1.448696,-1.620198,3.226445,28.22,35.19,23.53,25.93,-22.15,13.04,38.43,45.81,12.84,-3.32,23.53,25.93,35.19,0,11.66,-0.59
rw_cut_5_p1_2f_opt_disp_struct_8.xyz,Nucleus 31H :,-2.02209,-1.967737,4.080008,27.27,34.59,20.59,26.64,29.03,40.36,47.69,-21.95,-11.42,-1.89,20.59,26.64,34.59,0,14.0,-0.13
rw_cut_5_p1_2f_opt_disp_struct_8.xyz,Nucleus 0C :,-0.43562,-0.685215,3.434672,171.28,186.7,160.59,166.55,259.32,236.43,239.09,-81.21,-73.39,-66.4,160.59,166.55,186.7,0,26.11,-0.54
rw_cut_5_p1_2f_opt_disp_struct_8.xyz,Nucleus 3C :,-0.149463,-0.269606,4.674974,61.47,148.29,52.01,-15.88,240.93,276.7,263.42,-92.7,-224.62,-279.31,-15.88,52.01,148.29,0,164.17,-0.17
rw_cut_5_p1_2f_opt_disp_struct_8.xyz,Nucleus 4C :,2.463568,1.589288,0.69854,54.19,-30.46,128.05,64.97,276.07,259.95,254.41,-293.98,-129.04,-204.86,-30.46,64.97,128.05,0,158.51,0.2
rw_cut_5_p1_2f_opt_disp_struct_8.xyz,Nucleus 7C :,0.04962,0.305709,-1.790956,52.53,138.3,-1.51,20.8,275.97,258.74,265.97,-120.58,-277.38,-245.14,-1.51,20.8,138.3,0,139.81,-0.68
rw_cut_5_p1_2f_opt_disp_struct_8.xyz,Nucleus 8C :,4.081943,-7.590313,3.677807,58.47,158.28,22.57,-5.45,234.46,272.92,262.92,-76.86,-241.95,-276.1,-5.45,22.57,158.28,0,163.73,-0.66
rw_cut_5_p1_2f_opt_disp_struct_8.xyz,Nucleus 9C :,4.267632,-7.222811,4.694135,17.12,-58.57,76.81,33.13,234.82,267.9,271.57,-330.0,-234.29,-158.63,-58.57,33.13,76.81,0,135.38,0.35
rw_cut_5_p1_2f_opt_disp_struct_8.xyz,Nucleus 11C :,3.126251,-8.123441,3.641246,70.07,162.45,-13.57,61.32,237.24,260.8,277.06,-76.1,-280.31,-208.49,-13.57,61.32,162.45,0,176.02,-0.15
rw_cut_5_p1_2f_opt_disp_struct_8.xyz,Nucleus 13C :,4.108484,-6.510118,2.694979,68.73,164.14,55.66,-13.61,227.06,258.06,278.49,-63.28,-220.52,-273.62,-13.61,55.66,164.14,0,177.75,-0.22
rw_cut_5_p1_2f_opt_disp_struct_8.xyz,Nucleus 15C :,4.927621,-6.430616,2.115301,27.1,83.32,35.38,-37.39,231.58,271.66,262.25,-148.92,-233.62,-301.64,-37.39,35.38,83.32,0,120.71,0.21
rw_cut_5_p1_2f_opt_disp_struct_8.xyz,Nucleus 19C :,3.210468,-5.516727,2.616537,155.29,130.49,146.57,188.82,208.92,193.07,270.84,-46.14,-74.92,-85.89,130.49,146.57,188.82,0,58.33,-0.45
rw_cut_5_p1_2f_opt_disp_struct_8.xyz,Nucleus 24C :,3.348154,-4.592996,1.665077,21.66,115.6,-16.31,-34.31,239.56,270.02,263.82,-124.03,-281.6,-302.79,-34.31,-16.31,115.6,0,149.91,-0.76
rw_cut_5_p1_2f_opt_disp_struct_8.xyz,Nucleus 5N :,2.695604,-3.822073,1.572285,121.57,52.21,184.57,127.92,295.25,336.69,331.59,-111.21,-207.4,-280.22,52.21,127.92,184.57,0,132.36,0.14
rw_cut_5_p1_2f_opt_disp_struct_8.xyz,Nucleus 22N :,2.183759,-5.416286,3.460985,168.32,101.28,223.37,180.32,281.23,347.72,329.71,-232.85,-121.86,-98.97,101.28,180.32,223.37,0,122.09,0.29
rw_cut_5_p1_2f_opt_disp_struct_8.xyz,Nucleus 25N :,2.105165,-6.037751,4.247958,175.15,115.48,176.2,233.76,324.53,343.28,334.53,-211.19,-163.23,-102.48,115.48,176.2,233.76,0,118.28,0.03
rw_cut_5_p1_2f_opt_disp_struct_8.xyz,Nucleus 27N :,1.46416,-4.710057,3.332495,174.78,116.07,195.94,212.33,294.06,339.4,324.99,-210.16,-126.43,-97.52,116.07,195.94,212.33,0,96.26,0.66
rw_cut_5_p1_2f_opt_disp_struct_8.xyz,Nucleus 10F :,4.867825,-8.301163,3.422973,304.57,402.91,221.64,289.16,486.51,458.36,466.1,-63.2,-238.14,-195.92,221.64,289.16,402.91,0,181.27,-0.26
rw_cut_5_p1_2f_opt_disp_struct_8.xyz,Nucleus 16F :,4.015055,-4.719858,0.922751,322.92,413.59,253.11,302.06,457.58,470.16,485.6,-56.41,-205.23,-182.93,253.11,302.06,413.59,0,160.48,-0.39
rw_cut_5_p1_2f_opt_disp_struct_9.xyz,Nucleus 1H :,0.978308,-0.026527,-1.315789,29.04,35.26,23.38,28.49,40.87,25.85,31.42,-6.68,-0.81,-3.53,23.38,28.49,35.26,0,11.88,-0.14
rw_cut_5_p1_2f_opt_disp_struct_9.xyz,Nucleus 2H :,1.793625,0.584543,-1.708662,28.91,24.01,27.99,34.73,47.05,28.62,26.1,1.9,-4.34,-12.6,24.01,27.99,34.73,0,10.72,-0.26
rw_cut_5_p1_2f_opt_disp_struct_9.xyz,Nucleus 6H :,1.14252,-1.060049,-1.638933,23.58,15.31,25.04,30.4,51.49,11.37,29.64,-21.56,-4.48,4.29,15.31,25.04,30.4,0,15.09,0.29
rw_cut_5_p1_2f_opt_disp_struct_9.xyz,Nucleus 12H :,0.898381,0.087734,0.164136,24.33,20.57,25.06,27.35,48.75,18.77,31.38,-23.79,2.17,-4.32,20.57,25.06,27.35,0,6.78,0.32
rw_cut_5_p1_2f_opt_disp_struct_9.xyz,Nucleus 14H :,1.679258,0.897402,0.967472,24.24,20.6,27.02,25.11,6.85,34.2,43.96,13.82,-7.28,-18.82,20.6,25.11,27.02,0,6.42,0.41
rw_cut_5_p1_2f_opt_disp_struct_9.xyz,Nucleus 17H :,1.294062,0.718193,2.269168,24.12,20.47,25.32,26.56,45.25,27.02,32.4,-19.86,-6.33,-6.12,20.47,25.32,26.56,0,6.09,0.59
rw_cut_5_p1_2f_opt_disp_struct_9.xyz,Nucleus 18H :,1.668162,1.20678,3.066035,28.58,35.03,26.97,23.73,42.48,27.54,31.82,-0.65,-8.54,-6.93,23.73,26.97,35.03,0,11.3,-0.43
rw_cut_5_p1_2f_opt_disp_struct_9.xyz,Nucleus 20H :,0.26957,-0.193923,2.334108,28.63,35.15,24.17,26.56,-10.25,16.26,39.8,37.18,8.57,-5.69,24.17,26.56,35.15,0,10.98,-0.57
rw_cut_5_p1_2f_opt_disp_struct_9.xyz,Nucleus 21H :,-0.00586,-0.608235,1.029485,28.6,34.55,26.9,24.36,-8.05,19.13,39.78,34.94,6.45,-6.46,24.36,26.9,34.55,0,10.19,-0.5
rw_cut_5_p1_2f_opt_disp_struct_9.xyz,Nucleus 23H :,-1.036586,-1.55293,0.842672,26.99,18.68,34.01,28.28,50.18,5.46,27.92,-16.2,13.61,0.0,18.68,28.28,34.01,0,15.33,0.25
rw_cut_5_p1_2f_opt_disp_struct_9.xyz,Nucleus 26H :,-1.349498,-1.987175,-0.386731,27.05,37.75,23.77,19.64,71.49,25.96,47.99,-51.73,-10.53,-2.02,19.64,23.77,37.75,0,18.11,-0.54
rw_cut_5_p1_2f_opt_disp_struct_9.xyz,Nucleus 28H :,-1.749496,-2.053018,1.937033,26.72,19.73,26.62,33.8,-2.61,25.06,55.93,22.42,1.5,-22.14,19.73,26.62,33.8,0,14.07,-0.02
rw_cut_5_p1_2f_opt_disp_struct_9.xyz,Nucleus 29H :,-2.548433,-2.763978,1.759427,26.59,36.24,19.59,23.93,29.17,43.9,51.83,-32.21,-4.71,-8.23,19.59,23.93,36.24,0,16.65,-0.48
rw_cut_5_p1_2f_opt_disp_struct_9.xyz,Nucleus 30H :,-1.448696,-1.620198,3.226445,28.25,35.16,23.63,25.96,-23.46,12.77,38.39,47.22,13.14,-3.32,23.63,25.96,35.16,0,11.53,-0.6
rw_cut_5_p1_2f_opt_disp_struct_9.xyz,Nucleus 31H :,-2.02209,-1.967737,4.080008,27.22,34.6,20.58,26.47,28.78,40.54,48.0,-22.29,-11.59,-1.78,20.58,26.47,34.6,0,14.02,-0.16
rw_cut_5_p1_2f_opt_disp_struct_9.xyz,Nucleus 0C :,-0.43562,-0.685215,3.434672,171.25,186.75,160.58,166.41,259.22,236.42,238.96,-81.03,-73.47,-66.37,160.58,166.41,186.75,0,26.17,-0.55
rw_cut_5_p1_2f_opt_disp_struct_9.xyz,Nucleus 3C :,-0.149463,-0.269606,4.674974,61.47,148.28,51.97,-15.84,240.9,276.42,263.39,-92.68,-224.39,-279.24,-15.84,51.97,148.28,0,164.12,-0.17
rw_cut_5_p1_2f_opt_disp_struct_9.xyz,Nucleus 4C :,2.463568,1.589288,0.69854,54.36,-30.21,127.82,65.47,275.93,259.85,254.55,-293.73,-129.3,-204.21,-30.21,65.47,127.82,0,158.03,0.21
rw_cut_5_p1_2f_opt_disp_struct_9.xyz,Nucleus 7C :,0.04962,0.305709,-1.790956,52.51,138.17,-1.55,20.9,275.69,258.69,265.93,-120.64,-277.13,-245.02,-1.55,20.9,138.17,0,139.72,-0.68
rw_cut_5_p1_2f_opt_disp_struct_9.xyz,Nucleus 8C :,4.247961,-7.775705,3.701633,58.5,158.32,22.53,-5.36,234.41,272.42,262.99,-76.76,-242.01,-275.56,-5.36,22.53,158.32,0,163.68,-0.66
rw_cut_5_p1_2f_opt_disp_struct_9.xyz,Nucleus 9C :,4.43365,-7.408203,4.717961,17.17,-58.52,76.73,33.29,234.73,267.77,271.24,-329.64,-234.01,-158.61,-58.52,33.29,76.73,0,135.25,0.36
rw_cut_5_p1_2f_opt_disp_struct_9.xyz,Nucleus 11C :,3.292269,-8.308834,3.665072,70.12,162.3,-13.51,61.56,237.26,260.73,276.87,-76.2,-280.06,-208.25,-13.51,61.56,162.3,0,175.81,-0.15
rw_cut_5_p1_2f_opt_disp_struct_9.xyz,Nucleus 13C :,4.274502,-6.695511,2.718805,68.69,164.08,55.69,-13.7,226.96,258.1,278.33,-63.2,-220.39,-273.73,-13.7,55.69,164.08,0,177.78,-0.22
rw_cut_5_p1_2f_opt_disp_struct_9.xyz,Nucleus 15C :,5.093639,-6.616008,2.139127,27.11,83.18,35.51,-37.37,231.56,271.51,262.24,-149.0,-233.47,-301.51,-37.37,35.51,83.18,0,120.55,0.21
rw_cut_5_p1_2f_opt_disp_struct_9.xyz,Nucleus 19C :,3.376486,-5.702119,2.640363,155.35,130.55,146.7,188.79,208.49,192.19,271.38,-45.14,-74.77,-86.11,130.55,146.7,188.79,0,58.24,-0.45
rw_cut_5_p1_2f_opt_disp_struct_9.xyz,Nucleus 24C :,3.514172,-4.778389,1.688903,21.65,115.69,-16.33,-34.42,239.95,270.51,263.59,-124.33,-281.47,-303.32,-34.42,-16.33,115.69,0,150.11,-0.76
rw_cut_5_p1_2f_opt_disp_struct_9.xyz,Nucleus 5N :,2.861622,-4.007465,1.596111,121.8,52.62,184.4,128.38,295.31,336.66,331.46,-111.39,-206.96,-279.68,52.62,128.38,184.4,0,131.78,0.15
rw_cut_5_p1_2f_opt_disp_struct_9.xyz,Nucleus 22N :,2.349777,-5.601678,3.484811,168.26,101.17,223.13,180.49,279.76,348.09,329.66,-233.35,-121.91,-97.45,101.17,180.49,223.13,0,121.96,0.3
rw_cut_5_p1_2f_opt_disp_struct_9.xyz,Nucleus 25N :,2.271183,-6.223144,4.271784,175.17,115.42,176.23,233.86,324.45,344.21,334.8,-211.34,-164.23,-102.38,115.42,176.23,233.86,0,118.44,0.03
rw_cut_5_p1_2f_opt_disp_struct_9.xyz,Nucleus 27N :,1.630178,-4.895449,3.356321,174.8,116.0,195.88,212.51,294.77,339.84,324.81,-210.06,-126.66,-98.33,116.0,195.88,212.51,0,96.51,0.66
rw_cut_5_p1_2f_opt_disp_struct_9.xyz,Nucleus 10F :,5.033843,-8.486555,3.446799,305.09,403.04,222.37,289.87,486.42,458.43,466.09,-63.07,-237.36,-195.22,222.37,289.87,403.04,0,180.67,-0.25
rw_cut_5_p1_2f_opt_disp_struct_9.xyz,Nucleus 16F :,4.181073,-4.905251,0.946577,323.59,414.1,253.95,302.72,457.79,469.87,485.58,-55.65,-204.57,-182.26,253.95,302.72,414.1,0,160.15,-0.39
rw_cut_5_p1_3f_opt.xyz,Nucleus 1H :,0.981399,-0.024373,-1.324554,28.92,35.62,23.18,27.96,41.16,25.43,31.43,-0.59,-6.66,-4.01,23.18,27.96,35.62,0,12.44,-0.23
rw_cut_5_p1_3f_opt.xyz,Nucleus 2H :,1.795408,0.586751,-1.71981,29.06,24.05,28.58,34.54,48.81,28.51,26.55,2.2,-4.35,-14.55,24.05,28.58,34.54,0,10.49,-0.14
rw_cut_5_p1_3f_opt.xyz,Nucleus 6H :,1.145635,-1.058186,-1.646847,23.15,14.93,24.59,29.93,52.46,28.49,10.32,-22.89,-4.12,5.18,14.93,24.59,29.93,0,15.0,0.29
rw_cut_5_p1_3f_opt.xyz,Nucleus 12H :,0.905116,0.09174,0.155743,24.13,20.37,25.39,26.63,49.04,16.21,29.48,-24.13,4.72,-2.94,20.37,25.39,26.63,0,6.26,0.6
rw_cut_5_p1_3f_opt.xyz,Nucleus 17H :,1.690058,0.899114,0.95722,23.83,20.06,26.16,25.28,44.95,26.38,32.31,-19.48,-6.05,-6.62,20.06,25.28,26.16,0,6.1,0.71
rw_cut_5_p1_3f_opt.xyz,Nucleus 18H :,1.307493,0.722728,2.259985,28.59,35.37,26.86,23.53,43.32,27.49,32.55,-0.53,-9.12,-7.96,23.53,26.86,35.37,0,11.84,-0.44
rw_cut_5_p1_3f_opt.xyz,Nucleus 20H :,1.683008,1.21115,3.056402,28.81,35.42,24.12,26.88,-0.28,16.58,39.51,26.86,8.43,-4.69,24.12,26.88,35.42,0,11.3,-0.51
rw_cut_5_p1_3f_opt.xyz,Nucleus 21H :,0.280041,-0.186162,2.326801,28.76,34.72,27.25,24.32,0.67,19.88,39.56,25.36,6.39,-5.57,24.32,27.25,34.72,0,10.4,-0.44
rw_cut_5_p1_3f_opt.xyz,Nucleus 23H :,0.000484,-0.600889,1.022463,27.47,18.43,34.76,29.23,48.8,18.04,30.38,-14.17,-2.07,1.44,18.43,29.23,34.76,0,16.33,0.32
rw_cut_5_p1_3f_opt.xyz,Nucleus 26H :,-1.033911,-1.543398,0.834772,27.37,48.39,14.29,19.42,12.56,42.21,61.27,7.52,-28.24,-13.23,14.29,19.42,48.39,0,34.1,-0.7
rw_cut_5_p1_3f_opt.xyz,Nucleus 28H :,-1.345669,-1.97385,-0.396096,26.93,19.42,27.6,33.76,1.61,24.16,52.1,18.17,3.28,-18.55,19.42,27.6,33.76,0,14.34,0.14
rw_cut_5_p1_3f_opt.xyz,Nucleus 29H :,-1.748654,-2.043226,1.924093,26.57,44.38,19.58,15.76,53.94,14.91,30.07,5.91,-14.31,-10.81,15.76,19.58,44.38,0,28.62,-0.73
rw_cut_5_p1_3f_opt.xyz,Nucleus 30H :,-2.556332,-2.750557,1.772223,28.44,35.82,23.51,25.98,-9.17,15.58,39.28,32.87,10.32,-3.58,23.51,25.98,35.82,0,12.31,-0.6
rw_cut_5_p1_3f_opt.xyz,Nucleus 31H :,-1.439009,-1.606831,3.204403,27.98,20.18,34.39,29.36,44.77,37.62,33.08,-18.18,-9.84,-3.52,20.18,29.36,34.39,0,14.21,0.29
rw_cut_5_p1_3f_opt.xyz,Nucleus 0C :,-2.133026,-2.094737,4.242684,171.74,160.34,167.88,187.01,261.71,237.32,240.31,-83.78,-73.09,-67.24,160.34,167.88,187.01,0,26.67,-0.43
rw_cut_5_p1_3f_opt.xyz,Nucleus 3C :,-0.425595,-0.67535,3.428368,60.54,147.73,51.07,-17.18,245.76,278.89,265.0,-98.12,-227.76,-282.15,-17.18,51.07,147.73,0,164.91,-0.17
rw_cut_5_p1_3f_opt.xyz,Nucleus 4C :,-0.135025,-0.259092,4.668064,48.64,-37.28,127.49,55.71,277.41,256.78,258.52,-300.81,-130.85,-215.12,-37.28,55.71,127.49,0,164.77,0.13
rw_cut_5_p1_3f_opt.xyz,Nucleus 7C :,2.476134,1.588281,0.686909,51.47,138.43,-1.32,17.3,275.09,268.09,263.84,-125.87,-276.26,-250.48,-1.32,17.3,138.43,0,139.75,-0.73
rw_cut_5_p1_3f_opt.xyz,Nucleus 8C :,0.051424,0.307172,-1.797715,62.73,157.03,32.74,-1.59,236.55,257.18,270.05,-80.02,-225.21,-270.37,-1.59,32.74,157.03,0,158.62,-0.57
rw_cut_5_p1_3f_opt.xyz,Nucleus 9C :,2.589107,-5.91844,3.466261,18.48,-52.38,80.66,27.15,240.47,266.26,271.1,-160.06,-239.5,-322.84,-52.38,27.15,80.66,0,133.04,0.2
rw_cut_5_p1_3f_opt.xyz,Nucleus 11C :,2.780154,-5.551285,4.481626,77.49,155.69,12.91,63.86,235.21,263.53,276.89,-81.24,-254.98,-206.95,12.91,63.86,155.69,0,142.78,-0.29
rw_cut_5_p1_3f_opt.xyz,Nucleus 13C :,1.631226,-6.447631,3.433351,29.48,89.96,19.96,-21.47,236.58,260.69,273.91,-147.24,-252.77,-282.73,-21.47,19.96,89.96,0,111.43,-0.26
rw_cut_5_p1_3f_opt.xyz,Nucleus 15C :,2.614917,-4.8391,2.482475,36.37,90.38,22.56,-3.83,236.0,275.91,265.08,-146.8,-251.75,-269.33,-3.83,22.56,90.38,0,94.21,-0.44
rw_cut_5_p1_3f_opt.xyz,Nucleus 19C :,3.444568,-4.746939,1.919391,155.42,131.11,146.18,188.96,214.12,201.41,264.96,-54.8,-84.71,-74.73,131.11,146.18,188.96,0,57.85,-0.48
rw_cut_5_p1_3f_opt.xyz,Nucleus 24C :,1.716809,-3.845809,2.4038,22.44,117.57,-18.61,-31.64,233.91,269.75,263.67,-116.56,-287.68,-295.77,-31.64,-18.61,117.57,0,149.21,-0.83
rw_cut_5_p1_3f_opt.xyz,Nucleus 5N :,1.853792,-2.922903,1.45144,113.43,36.45,185.24,118.61,294.79,337.35,331.82,-109.7,-214.96,-298.99,36.45,118.61,185.24,0,148.79,0.1
rw_cut_5_p1_3f_opt.xyz,Nucleus 22N :,1.215219,-2.139282,1.367166,172.05,108.08,229.24,178.82,296.93,346.32,330.57,-223.39,-123.86,-110.43,108.08,178.82,229.24,0,121.16,0.17
rw_cut_5_p1_3f_opt.xyz,Nucleus 25N :,0.69069,-3.744671,3.248882,167.84,113.52,171.82,218.18,320.82,325.94,341.15,-209.99,-155.29,-119.11,113.52,171.82,218.18,0,104.66,0.11
rw_cut_5_p1_3f_opt.xyz,Nucleus 27N :,0.590177,-4.376019,4.025394,166.42,112.77,189.75,196.73,293.16,328.05,333.3,-96.96,-140.71,-217.59,112.77,189.75,196.73,0,83.96,0.83
rw_cut_5_p1_3f_opt.xyz,Nucleus 10F :,-0.049277,-3.078043,3.067143,289.38,395.13,198.62,274.39,481.04,454.65,466.09,-69.83,-259.44,-204.38,198.62,274.39,395.13,0,196.51,-0.23
rw_cut_5_p1_3f_opt.xyz,Nucleus 14F :,3.37053,-6.632736,3.207355,318.01,408.74,291.35,253.95,452.69,472.93,486.39,-70.5,-184.08,-203.4,253.95,291.35,408.74,0,154.79,-0.52
rw_cut_5_p1_3f_opt.xyz,Nucleus 16F :,2.522447,-3.049657,0.710581,333.47,452.56,261.04,286.81,452.99,482.42,478.91,-26.73,-184.45,-202.72,261.04,286.81,452.56,0,191.52,-0.73
rw_cut_5_p1_3f_opt_disp_struct_0.xyz,Nucleus 1H :,0.981399,-0.024373,-1.324554,28.94,35.56,23.23,28.03,41.1,25.4,31.68,-0.58,-6.59,-4.19,23.23,28.03,35.56,0,12.33,-0.22
rw_cut_5_p1_3f_opt_disp_struct_0.xyz,Nucleus 2H :,1.795408,0.586751,-1.71981,29.05,24.07,28.53,34.55,48.68,28.71,26.6,2.11,-4.59,-14.37,24.07,28.53,34.55,0,10.48,-0.15
rw_cut_5_p1_3f_opt_disp_struct_0.xyz,Nucleus 6H :,1.145635,-1.058186,-1.646847,23.2,15.01,24.69,29.9,52.44,28.63,10.46,-22.91,-4.1,5.08,15.01,24.69,29.9,0,14.89,0.3
rw_cut_5_p1_3f_opt_disp_struct_0.xyz,Nucleus 12H :,0.905116,0.09174,0.155743,24.15,20.48,25.27,26.71,49.0,16.47,29.91,-24.15,4.53,-3.31,20.48,25.27,26.71,0,6.23,0.54
rw_cut_5_p1_3f_opt_disp_struct_0.xyz,Nucleus 17H :,1.690058,0.899114,0.95722,23.87,20.12,26.18,25.32,45.01,26.4,32.66,-19.54,-6.0,-6.91,20.12,25.32,26.18,0,6.06,0.72
rw_cut_5_p1_3f_opt_disp_struct_0.xyz,Nucleus 18H :,1.307493,0.722728,2.259985,28.59,35.33,26.87,23.57,43.2,27.61,32.36,-0.61,-8.84,-7.95,23.57,26.87,35.33,0,11.76,-0.44
rw_cut_5_p1_3f_opt_disp_struct_0.xyz,Nucleus 20H :,1.683008,1.21115,3.056402,28.77,35.36,24.11,26.83,-1.49,16.59,39.46,28.11,8.37,-4.74,24.11,26.83,35.36,0,11.25,-0.52
rw_cut_5_p1_3f_opt_disp_struct_0.xyz,Nucleus 21H :,0.280041,-0.186162,2.326801,28.72,34.67,27.2,24.3,-0.39,19.83,39.56,26.5,6.34,-5.66,24.3,27.2,34.67,0,10.37,-0.44
rw_cut_5_p1_3f_opt_disp_struct_0.xyz,Nucleus 23H :,0.000484,-0.600889,1.022463,27.38,18.49,34.61,29.05,48.88,16.88,29.98,-14.35,-1.74,2.5,18.49,29.05,34.61,0,16.12,0.31
rw_cut_5_p1_3f_opt_disp_struct_0.xyz,Nucleus 26H :,-1.033911,-1.543398,0.834772,28.06,46.25,16.47,21.46,15.74,47.27,58.96,6.02,-30.82,-12.99,16.47,21.46,46.25,0,29.78,-0.66
rw_cut_5_p1_3f_opt_disp_struct_0.xyz,Nucleus 28H :,-1.345669,-1.97385,-0.396096,26.95,19.47,27.44,33.93,0.5,24.37,52.25,19.25,2.89,-18.43,19.47,27.44,33.93,0,14.46,0.1
rw_cut_5_p1_3f_opt_disp_struct_0.xyz,Nucleus 29H :,-1.748654,-2.043226,1.924093,27.26,42.67,21.66,17.44,51.45,18.99,33.2,3.84,-15.7,-10.01,17.44,21.66,42.67,0,25.23,-0.67
rw_cut_5_p1_3f_opt_disp_struct_0.xyz,Nucleus 30H :,-2.556332,-2.750557,1.772223,28.39,35.72,23.51,25.95,-10.68,15.28,39.14,34.38,10.59,-3.53,23.51,25.95,35.72,0,12.21,-0.6
rw_cut_5_p1_3f_opt_disp_struct_0.xyz,Nucleus 31H :,-1.439009,-1.606831,3.204403,27.9,20.23,34.58,28.9,44.98,38.16,32.4,-18.97,-9.73,-3.14,20.23,28.9,34.58,0,14.35,0.21
rw_cut_5_p1_3f_opt_disp_struct_0.xyz,Nucleus 0C :,-2.133026,-2.094737,4.242684,171.69,160.39,167.71,186.96,261.46,236.9,240.17,-83.54,-72.99,-66.94,160.39,167.71,186.96,0,26.57,-0.45
rw_cut_5_p1_3f_opt_disp_struct_0.xyz,Nucleus 3C :,-0.425595,-0.67535,3.428368,61.03,147.94,52.09,-16.95,244.18,278.68,264.45,-96.35,-226.54,-281.35,-16.95,52.09,147.94,0,164.89,-0.16
rw_cut_5_p1_3f_opt_disp_struct_0.xyz,Nucleus 4C :,-0.135025,-0.259092,4.668064,49.83,-35.44,127.45,57.49,277.79,257.81,256.76,-299.04,-130.42,-213.42,-35.44,57.49,127.45,0,162.89,0.14
rw_cut_5_p1_3f_opt_disp_struct_0.xyz,Nucleus 7C :,2.476134,1.588281,0.686909,51.77,138.38,-0.55,17.48,275.15,262.95,267.06,-124.7,-275.68,-249.48,-0.55,17.48,138.38,0,138.93,-0.74
rw_cut_5_p1_3f_opt_disp_struct_0.xyz,Nucleus 8C :,0.051424,0.307172,-1.797715,63.29,156.56,33.44,-0.14,236.57,258.25,271.22,-80.41,-225.94,-269.82,-0.14,33.44,156.56,0,156.7,-0.57
rw_cut_5_p1_3f_opt_disp_struct_0.xyz,Nucleus 9C :,2.754585,-6.104338,3.489903,19.01,-51.79,80.32,28.51,239.72,266.72,271.15,-159.6,-238.38,-322.56,-51.79,28.51,80.32,0,132.11,0.22
rw_cut_5_p1_3f_opt_disp_struct_0.xyz,Nucleus 11C :,2.945632,-5.737183,4.505268,78.7,155.55,14.23,66.32,234.19,263.42,277.01,-80.51,-253.25,-204.75,14.23,66.32,155.55,0,141.32,-0.26
rw_cut_5_p1_3f_opt_disp_struct_0.xyz,Nucleus 13C :,1.796704,-6.633529,3.456992,29.47,89.42,19.83,-20.84,236.64,260.58,273.02,-148.05,-251.88,-281.91,-20.84,19.83,89.42,0,110.26,-0.26
rw_cut_5_p1_3f_opt_disp_struct_0.xyz,Nucleus 15C :,2.780395,-5.024998,2.506116,37.53,90.18,24.11,-1.69,235.6,274.48,265.11,-146.61,-248.95,-267.04,-1.69,24.11,90.18,0,91.87,-0.44
rw_cut_5_p1_3f_opt_disp_struct_0.xyz,Nucleus 19C :,3.610046,-4.932837,1.943033,155.39,130.94,146.26,188.96,213.64,200.26,265.64,-53.61,-84.84,-74.93,130.94,146.26,188.96,0,58.02,-0.47
rw_cut_5_p1_3f_opt_disp_struct_0.xyz,Nucleus 24C :,1.882287,-4.031708,2.427441,22.11,116.39,-17.23,-32.83,235.06,268.76,264.35,-118.86,-285.78,-297.21,-32.83,-17.23,116.39,0,149.22,-0.79
rw_cut_5_p1_3f_opt_disp_struct_0.xyz,Nucleus 5N :,2.01927,-3.108801,1.475081,114.67,38.3,185.24,120.48,294.69,337.18,331.74,-109.78,-213.61,-296.2,38.3,120.48,185.24,0,146.94,0.12
rw_cut_5_p1_3f_opt_disp_struct_0.xyz,Nucleus 22N :,1.380697,-2.32518,1.390808,170.89,105.66,227.79,179.21,295.32,346.18,330.35,-225.93,-123.22,-110.04,105.66,179.21,227.79,0,122.13,0.2
rw_cut_5_p1_3f_opt_disp_struct_0.xyz,Nucleus 25N :,0.856168,-3.930569,3.272523,171.81,115.18,174.54,225.71,321.33,325.82,340.19,-208.99,-152.64,-110.28,115.18,174.54,225.71,0,110.53,0.07
rw_cut_5_p1_3f_opt_disp_struct_0.xyz,Nucleus 27N :,0.755655,-4.561917,4.049036,170.72,114.94,195.41,201.8,291.28,327.43,333.42,-214.26,-131.67,-94.05,114.94,195.41,201.8,0,86.86,0.85
rw_cut_5_p1_3f_opt_disp_struct_0.xyz,Nucleus 10F :,0.116201,-3.263942,3.090785,291.94,395.83,202.85,277.15,481.81,455.03,466.06,-69.4,-255.38,-202.28,202.85,277.15,395.83,0,192.98,-0.23
rw_cut_5_p1_3f_opt_disp_struct_0.xyz,Nucleus 14F :,3.536008,-6.818634,3.230996,319.29,409.47,292.43,255.97,453.87,474.06,485.5,-69.8,-183.3,-202.46,255.97,292.43,409.47,0,153.5,-0.52
rw_cut_5_p1_3f_opt_disp_struct_0.xyz,Nucleus 16F :,2.687925,-3.235555,0.734222,336.91,453.33,267.47,289.92,453.76,482.3,477.7,-24.83,-179.91,-198.3,267.47,289.92,453.33,0,185.86,-0.76
rw_cut_5_p1_3f_opt_disp_struct_1.xyz,Nucleus 1H :,0.981399,-0.024373,-1.324554,28.95,35.5,23.27,28.09,41.06,25.45,31.79,-0.62,-6.59,-4.22,23.27,28.09,35.5,0,12.23,-0.21
rw_cut_5_p1_3f_opt_disp_struct_1.xyz,Nucleus 2H :,1.795408,0.586751,-1.71981,29.04,24.09,28.46,34.57,48.5,28.85,26.61,2.0,-4.7,-14.14,24.09,28.46,34.57,0,10.48,-0.17
rw_cut_5_p1_3f_opt_disp_struct_1.xyz,Nucleus 6H :,1.145635,-1.058186,-1.646847,23.26,15.08,24.77,29.92,52.35,28.77,10.51,-22.84,-4.1,5.07,15.08,24.77,29.92,0,14.84,0.31
rw_cut_5_p1_3f_opt_disp_struct_1.xyz,Nucleus 12H :,0.905116,0.09174,0.155743,24.17,20.55,25.16,26.8,48.94,16.58,30.46,-24.14,4.47,-3.79,20.55,25.16,26.8,0,6.25,0.48
rw_cut_5_p1_3f_opt_disp_struct_1.xyz,Nucleus 17H :,1.690058,0.899114,0.95722,23.92,20.19,25.34,26.22,45.05,26.43,32.77,-19.62,-5.94,-6.95,20.19,25.34,26.22,0,6.03,0.71
rw_cut_5_p1_3f_opt_disp_struct_1.xyz,Nucleus 18H :,1.307493,0.722728,2.259985,28.6,35.28,26.89,23.62,43.1,27.68,32.21,-0.67,-8.66,-7.87,23.62,26.89,35.28,0,11.66,-0.44
rw_cut_5_p1_3f_opt_disp_struct_1.xyz,Nucleus 20H :,1.683008,1.21115,3.056402,28.73,35.32,24.1,26.78,-2.61,16.56,39.43,29.27,8.36,-4.81,24.1,26.78,35.32,0,11.22,-0.52
rw_cut_5_p1_3f_opt_disp_struct_1.xyz,Nucleus 21H :,0.280041,-0.186162,2.326801,28.7,34.64,27.16,24.3,-1.36,19.75,39.57,27.56,6.32,-5.76,24.3,27.16,34.64,0,10.34,-0.45
rw_cut_5_p1_3f_opt_disp_struct_1.xyz,Nucleus 23H :,0.000484,-0.600889,1.022463,27.3,18.53,34.48,28.9,48.97,15.63,29.65,-14.55,-1.45,3.65,18.53,28.9,34.48,0,15.95,0.3
rw_cut_5_p1_3f_opt_disp_struct_1.xyz,Nucleus 26H :,-1.033911,-1.543398,0.834772,28.26,44.48,17.74,22.55,18.21,51.08,57.12,-33.4,4.46,-12.7,17.74,22.55,44.48,0,26.74,-0.64
rw_cut_5_p1_3f_opt_disp_struct_1.xyz,Nucleus 28H :,-1.345669,-1.97385,-0.396096,26.92,19.5,27.29,33.98,-0.06,24.48,52.51,19.8,2.63,-18.6,19.5,27.29,33.98,0,14.48,0.08
rw_cut_5_p1_3f_opt_disp_struct_1.xyz,Nucleus 29H :,-1.748654,-2.043226,1.924093,27.49,41.27,22.8,18.39,21.82,49.63,35.91,2.12,-17.45,-9.57,18.39,22.8,41.27,0,22.88,-0.61
rw_cut_5_p1_3f_opt_disp_struct_1.xyz,Nucleus 30H :,-2.556332,-2.750557,1.772223,28.35,35.63,23.5,25.93,-12.18,14.99,39.02,35.86,10.87,-3.49,23.5,25.93,35.63,0,12.13,-0.6
rw_cut_5_p1_3f_opt_disp_struct_1.xyz,Nucleus 31H :,-1.439009,-1.606831,3.204403,27.81,20.29,34.65,28.48,45.35,38.44,31.81,-19.42,-9.84,-2.92,20.29,28.48,34.65,0,14.36,0.14
rw_cut_5_p1_3f_opt_disp_struct_1.xyz,Nucleus 0C :,-2.133026,-2.094737,4.242684,171.62,160.43,167.55,186.88,261.17,236.7,240.01,-83.25,-72.98,-66.79,160.43,167.55,186.88,0,26.45,-0.46
rw_cut_5_p1_3f_opt_disp_struct_1.xyz,Nucleus 3C :,-0.425595,-0.67535,3.428368,61.27,148.05,52.66,-16.9,242.87,278.16,264.22,-94.92,-225.43,-281.09,-16.9,52.66,148.05,0,164.95,-0.16
rw_cut_5_p1_3f_opt_disp_struct_1.xyz,Nucleus 4C :,-0.135025,-0.259092,4.668064,50.76,-34.06,127.35,59.0,277.83,258.08,255.96,-297.65,-130.18,-211.75,-34.06,59.0,127.35,0,161.41,0.15
rw_cut_5_p1_3f_opt_disp_struct_1.xyz,Nucleus 7C :,2.476134,1.588281,0.686909,51.86,138.27,-0.35,17.65,275.29,261.31,266.92,-123.65,-275.59,-248.7,-0.35,17.65,138.27,0,138.62,-0.74
rw_cut_5_p1_3f_opt_disp_struct_1.xyz,Nucleus 8C :,0.051424,0.307172,-1.797715,63.3,156.24,33.33,0.32,236.8,272.33,259.31,-81.03,-227.36,-270.17,0.32,33.33,156.24,0,155.92,-0.58
rw_cut_5_p1_3f_opt_disp_struct_1.xyz,Nucleus 9C :,2.920063,-6.290236,3.513544,19.3,-51.53,80.02,29.42,238.82,267.25,271.19,-159.06,-237.74,-322.54,-51.53,29.42,80.02,0,131.55,0.23
rw_cut_5_p1_3f_opt_disp_struct_1.xyz,Nucleus 11C :,3.11111,-5.923081,4.528909,79.4,155.38,15.01,67.81,233.88,263.05,277.48,-80.13,-252.35,-203.74,15.01,67.81,155.38,0,140.37,-0.25
rw_cut_5_p1_3f_opt_disp_struct_1.xyz,Nucleus 13C :,1.962182,-6.819428,3.480634,29.2,89.03,19.68,-21.1,236.46,260.48,272.77,-148.51,-251.61,-281.98,-21.1,19.68,89.03,0,110.13,-0.26
rw_cut_5_p1_3f_opt_disp_struct_1.xyz,Nucleus 15C :,2.945873,-5.210896,2.529758,38.25,89.98,25.06,-0.29,235.54,273.83,264.98,-146.65,-247.42,-265.53,-0.29,25.06,89.98,0,90.27,-0.44
rw_cut_5_p1_3f_opt_disp_struct_1.xyz,Nucleus 19C :,3.775524,-5.118735,1.966674,155.37,130.83,146.32,188.95,213.14,199.17,266.31,-52.51,-84.88,-75.13,130.83,146.32,188.95,0,58.12,-0.47
rw_cut_5_p1_3f_opt_disp_struct_1.xyz,Nucleus 24C :,2.047765,-4.217606,2.451083,21.92,115.79,-16.4,-33.62,235.53,268.07,264.99,-119.92,-284.45,-298.45,-33.62,-16.4,115.79,0,149.41,-0.77
rw_cut_5_p1_3f_opt_disp_struct_1.xyz,Nucleus 5N :,2.184748,-3.294699,1.498723,115.9,40.23,185.23,122.23,294.51,337.13,331.67,-109.83,-212.31,-293.49,40.23,122.23,185.23,0,145.0,0.13
rw_cut_5_p1_3f_opt_disp_struct_1.xyz,Nucleus 22N :,1.546175,-2.511078,1.414449,170.02,104.0,226.52,179.54,293.59,346.13,330.21,-227.78,-122.89,-109.19,104.0,179.54,226.52,0,122.52,0.23
rw_cut_5_p1_3f_opt_disp_struct_1.xyz,Nucleus 25N :,1.021646,-4.116467,3.296165,173.78,115.89,175.7,229.76,322.08,326.96,339.77,-208.9,-152.67,-105.89,115.89,175.7,229.76,0,113.87,0.05
rw_cut_5_p1_3f_opt_disp_struct_1.xyz,Nucleus 27N :,0.921133,-4.747815,4.072678,172.94,115.66,196.26,206.91,291.2,326.98,333.87,-212.79,-126.83,-93.63,115.66,196.26,206.91,0,91.25,0.77
rw_cut_5_p1_3f_opt_disp_struct_1.xyz,Nucleus 10F :,0.281679,-3.44984,3.114427,294.02,396.33,206.42,279.31,482.38,455.39,465.99,-69.12,-251.87,-200.71,206.42,279.31,396.33,0,189.91,-0.23
rw_cut_5_p1_3f_opt_disp_struct_1.xyz,Nucleus 14F :,3.701486,-7.004532,3.254638,319.96,410.0,293.18,256.7,454.41,474.91,484.87,-68.98,-182.97,-202.36,256.7,293.18,410.0,0,153.3,-0.52
rw_cut_5_p1_3f_opt_disp_struct_1.xyz,Nucleus 16F :,2.853403,-3.421453,0.757864,339.52,453.99,272.34,292.22,454.29,476.8,482.48,-23.24,-176.36,-195.43,272.34,292.22,453.99,0,181.65,-0.78
rw_cut_5_p1_3f_opt_disp_struct_10.xyz,Nucleus 1H :,0.981399,-0.024373,-1.324554,29.09,35.31,23.45,28.5,40.88,26.0,31.25,-6.71,-0.83,-3.34,23.45,28.5,35.31,0,11.86,-0.15
rw_cut_5_p1_3f_opt_disp_struct_10.xyz,Nucleus 2H :,1.795408,0.586751,-1.71981,28.98,24.09,28.03,34.81,47.23,28.57,26.07,-12.75,-4.17,1.98,24.09,28.03,34.81,0,10.72,-0.27
rw_cut_5_p1_3f_opt_disp_struct_10.xyz,Nucleus 6H :,1.145635,-1.058186,-1.646847,23.58,15.39,25.16,30.2,51.21,10.84,29.89,-21.4,-4.64,4.85,15.39,25.16,30.2,0,14.81,0.32
rw_cut_5_p1_3f_opt_disp_struct_10.xyz,Nucleus 12H :,0.905116,0.09174,0.155743,24.4,20.69,25.02,27.49,48.43,16.41,31.84,-23.52,4.48,-4.45,20.69,25.02,27.49,0,6.8,0.27
rw_cut_5_p1_3f_opt_disp_struct_10.xyz,Nucleus 17H :,1.690058,0.899114,0.95722,24.16,20.56,25.41,26.51,45.14,27.07,32.25,-19.72,-6.33,-5.93,20.56,25.41,26.51,0,5.95,0.63
rw_cut_5_p1_3f_opt_disp_struct_10.xyz,Nucleus 18H :,1.307493,0.722728,2.259985,28.65,35.06,27.06,23.83,42.62,27.41,32.19,-0.54,-8.9,-6.82,23.83,27.06,35.06,0,11.23,-0.42
rw_cut_5_p1_3f_opt_disp_struct_10.xyz,Nucleus 20H :,1.683008,1.21115,3.056402,28.57,35.12,24.12,26.46,-11.19,16.03,39.73,38.16,8.7,-5.73,24.12,26.46,35.12,0,11.0,-0.58
rw_cut_5_p1_3f_opt_disp_struct_10.xyz,Nucleus 21H :,0.280041,-0.186162,2.326801,28.55,34.46,26.86,24.34,-8.96,19.09,39.99,35.73,6.53,-6.73,24.34,26.86,34.46,0,10.12,-0.5
rw_cut_5_p1_3f_opt_disp_struct_10.xyz,Nucleus 23H :,0.000484,-0.600889,1.022463,26.94,18.64,33.96,28.21,50.39,4.17,27.63,-16.46,14.78,0.31,18.64,28.21,33.96,0,15.32,0.25
rw_cut_5_p1_3f_opt_disp_struct_10.xyz,Nucleus 26H :,-1.033911,-1.543398,0.834772,27.01,37.34,23.84,19.85,73.0,47.71,26.41,-52.91,-10.87,-2.3,19.85,23.84,37.34,0,17.49,-0.54
rw_cut_5_p1_3f_opt_disp_struct_10.xyz,Nucleus 28H :,-1.345669,-1.97385,-0.396096,26.58,19.71,26.39,33.64,-1.07,24.98,56.1,20.9,1.31,-22.46,19.71,26.39,33.64,0,13.93,-0.04
rw_cut_5_p1_3f_opt_disp_struct_10.xyz,Nucleus 29H :,-1.748654,-2.043226,1.924093,26.72,36.08,24.16,19.91,29.84,44.18,55.25,-35.27,-5.18,-8.67,19.91,24.16,36.08,0,16.17,-0.47
rw_cut_5_p1_3f_opt_disp_struct_10.xyz,Nucleus 30H :,-2.556332,-2.750557,1.772223,28.18,35.11,23.51,25.92,-24.7,12.31,38.4,48.37,13.54,-3.38,23.51,25.92,35.11,0,11.6,-0.58
rw_cut_5_p1_3f_opt_disp_struct_10.xyz,Nucleus 31H :,-1.439009,-1.606831,3.204403,27.17,34.61,20.61,26.3,28.52,40.18,48.72,-22.53,-11.62,-1.74,20.61,26.3,34.61,0,14.0,-0.19
rw_cut_5_p1_3f_opt_disp_struct_10.xyz,Nucleus 0C :,-2.133026,-2.094737,4.242684,171.31,160.54,166.64,186.75,259.46,236.91,238.49,-80.73,-73.65,-66.54,160.54,166.64,186.75,0,26.21,-0.53
rw_cut_5_p1_3f_opt_disp_struct_10.xyz,Nucleus 3C :,-0.425595,-0.67535,3.428368,61.3,148.18,53.04,-17.33,242.09,275.74,264.0,-93.98,-222.63,-281.34,-17.33,53.04,148.18,0,165.51,-0.15
rw_cut_5_p1_3f_opt_disp_struct_10.xyz,Nucleus 4C :,-0.135025,-0.259092,4.668064,54.34,-29.11,126.69,65.45,259.68,255.24,275.69,-292.62,-131.11,-203.86,-29.11,65.45,126.69,0,155.8,0.21
rw_cut_5_p1_3f_opt_disp_struct_10.xyz,Nucleus 7C :,2.476134,1.588281,0.686909,51.54,137.55,-1.51,18.59,273.62,259.81,266.66,-122.34,-275.11,-248.0,-1.51,18.59,137.55,0,139.06,-0.71
rw_cut_5_p1_3f_opt_disp_struct_10.xyz,Nucleus 8C :,0.051424,0.307172,-1.797715,61.86,155.41,30.59,-0.43,237.34,264.36,271.46,-82.58,-234.7,-270.31,-0.43,30.59,155.41,0,155.84,-0.6
rw_cut_5_p1_3f_opt_disp_struct_10.xyz,Nucleus 9C :,4.409364,-7.963319,3.726319,18.98,-52.83,78.62,31.14,234.13,267.68,268.1,-155.82,-236.36,-320.79,-52.83,31.14,78.62,0,131.45,0.28
rw_cut_5_p1_3f_opt_disp_struct_10.xyz,Nucleus 11C :,4.600412,-7.596164,4.741684,79.71,154.09,15.04,69.99,235.38,263.52,277.41,-81.68,-253.04,-202.47,15.04,69.99,154.09,0,139.05,-0.21
rw_cut_5_p1_3f_opt_disp_struct_10.xyz,Nucleus 13C :,3.451484,-8.492511,3.693408,27.4,87.71,19.03,-24.53,233.58,260.66,272.37,-145.93,-252.23,-286.25,-24.53,19.03,87.71,0,112.24,-0.22
rw_cut_5_p1_3f_opt_disp_struct_10.xyz,Nucleus 15C :,4.435175,-6.883979,2.742533,38.9,88.95,26.5,1.26,234.12,272.36,265.11,-145.6,-245.35,-263.93,1.26,26.5,88.95,0,87.69,-0.42
rw_cut_5_p1_3f_opt_disp_struct_10.xyz,Nucleus 19C :,5.264825,-6.791819,2.179449,155.17,130.41,146.43,188.67,208.58,190.26,271.71,-43.67,-75.36,-86.0,130.41,146.43,188.67,0,58.26,-0.45
rw_cut_5_p1_3f_opt_disp_struct_10.xyz,Nucleus 24C :,3.537067,-5.890689,2.663858,21.39,115.41,-15.6,-35.64,239.06,271.02,263.83,-123.92,-281.09,-304.72,-35.64,-15.6,115.41,0,151.05,-0.73
rw_cut_5_p1_3f_opt_disp_struct_10.xyz,Nucleus 5N :,3.67405,-4.967782,1.711497,120.66,48.04,184.89,129.06,294.9,337.0,331.16,-110.35,-206.73,-283.98,48.04,129.06,184.89,0,136.85,0.18
rw_cut_5_p1_3f_opt_disp_struct_10.xyz,Nucleus 22N :,3.035477,-4.184161,1.627224,167.3,99.47,221.78,180.65,278.39,348.2,329.63,-235.08,-123.43,-95.82,99.47,180.65,221.78,0,122.31,0.33
rw_cut_5_p1_3f_opt_disp_struct_10.xyz,Nucleus 25N :,2.510948,-5.789551,3.508939,175.28,115.74,176.14,233.97,323.86,345.39,334.83,-211.55,-164.63,-102.04,115.74,176.14,233.97,0,118.23,0.02
rw_cut_5_p1_3f_opt_disp_struct_10.xyz,Nucleus 27N :,2.410435,-6.420898,4.285452,174.96,115.08,213.67,196.14,300.08,339.25,324.64,-210.92,-125.09,-103.07,115.08,196.14,213.67,0,98.59,0.64
rw_cut_5_p1_3f_opt_disp_struct_10.xyz,Nucleus 10F :,1.770981,-5.122923,3.327201,301.1,397.59,218.75,286.97,483.4,458.06,465.78,-68.1,-240.07,-195.76,218.75,286.97,397.59,0,178.84,-0.24
rw_cut_5_p1_3f_opt_disp_struct_10.xyz,Nucleus 14F :,5.190788,-8.677615,3.467412,321.68,411.63,295.88,257.53,459.5,474.59,479.87,-63.07,-182.14,-203.71,257.53,295.88,411.63,0,154.1,-0.5
rw_cut_5_p1_3f_opt_disp_struct_10.xyz,Nucleus 16F :,4.342704,-5.094537,0.970638,347.75,456.47,300.66,286.11,484.23,468.69,457.84,-11.89,-166.87,-188.77,286.11,300.66,456.47,0,170.36,-0.83
rw_cut_5_p1_3f_opt_disp_struct_11.xyz,Nucleus 1H :,0.981399,-0.024373,-1.324554,29.1,35.31,23.46,28.52,40.85,26.02,31.19,-6.68,-0.82,-3.28,23.46,28.52,35.31,0,11.85,-0.15
rw_cut_5_p1_3f_opt_disp_struct_11.xyz,Nucleus 2H :,1.795408,0.586751,-1.71981,28.97,24.07,28.01,34.83,47.12,28.47,26.03,-12.65,-4.06,2.0,24.07,28.01,34.83,0,10.76,-0.27
rw_cut_5_p1_3f_opt_disp_struct_11.xyz,Nucleus 6H :,1.145635,-1.058186,-1.646847,23.6,15.39,25.18,30.22,51.09,10.85,29.96,-21.25,-4.68,4.82,15.39,25.18,30.22,0,14.83,0.32
rw_cut_5_p1_3f_opt_disp_struct_11.xyz,Nucleus 12H :,0.905116,0.09174,0.155743,24.41,20.68,25.02,27.52,48.34,16.4,31.78,-23.41,4.45,-4.34,20.68,25.02,27.52,0,6.84,0.27
rw_cut_5_p1_3f_opt_disp_struct_11.xyz,Nucleus 17H :,1.690058,0.899114,0.95722,24.17,20.57,25.42,26.53,45.11,27.1,32.21,-19.67,-6.36,-5.87,20.57,25.42,26.53,0,5.96,0.63
rw_cut_5_p1_3f_opt_disp_struct_11.xyz,Nucleus 18H :,1.307493,0.722728,2.259985,28.66,35.06,27.08,23.85,42.58,27.36,32.22,-0.5,-8.95,-6.73,23.85,27.08,35.06,0,11.21,-0.42
rw_cut_5_p1_3f_opt_disp_struct_11.xyz,Nucleus 20H :,1.683008,1.21115,3.056402,28.56,35.11,24.13,26.44,-12.1,15.98,39.79,39.1,8.74,-5.84,24.13,26.44,35.11,0,10.98,-0.58
rw_cut_5_p1_3f_opt_disp_struct_11.xyz,Nucleus 21H :,0.280041,-0.186162,2.326801,28.55,34.45,26.84,24.35,-9.79,19.04,40.07,36.6,6.56,-6.85,24.35,26.84,34.45,0,10.1,-0.51
rw_cut_5_p1_3f_opt_disp_struct_11.xyz,Nucleus 23H :,0.000484,-0.600889,1.022463,26.92,18.65,33.94,28.17,50.57,2.92,27.46,-16.67,16.03,0.46,18.65,28.17,33.94,0,15.29,0.25
rw_cut_5_p1_3f_opt_disp_struct_11.xyz,Nucleus 26H :,-1.033911,-1.543398,0.834772,26.94,37.03,23.87,19.92,74.89,47.23,26.85,-54.75,-10.76,-2.65,19.92,23.87,37.03,0,17.11,-0.54
rw_cut_5_p1_3f_opt_disp_struct_11.xyz,Nucleus 28H :,-1.345669,-1.97385,-0.396096,26.56,19.73,26.33,33.62,-1.1,25.01,56.51,20.94,1.22,-22.89,19.73,26.33,33.62,0,13.89,-0.05
rw_cut_5_p1_3f_opt_disp_struct_11.xyz,Nucleus 29H :,-1.748654,-2.043226,1.924093,26.67,35.87,24.17,19.96,30.21,44.01,57.08,-37.05,-5.62,-8.64,19.96,24.17,35.87,0,15.91,-0.47
rw_cut_5_p1_3f_opt_disp_struct_11.xyz,Nucleus 30H :,-2.556332,-2.750557,1.772223,28.17,35.08,23.52,25.92,-26.03,12.03,38.36,49.71,13.83,-3.38,23.52,25.92,35.08,0,11.56,-0.58
rw_cut_5_p1_3f_opt_disp_struct_11.xyz,Nucleus 31H :,-1.439009,-1.606831,3.204403,27.14,34.61,20.63,26.18,28.29,40.35,49.03,-22.85,-11.76,-1.63,20.63,26.18,34.61,0,13.98,-0.21
rw_cut_5_p1_3f_opt_disp_struct_11.xyz,Nucleus 0C :,-2.133026,-2.094737,4.242684,171.31,186.77,160.56,166.6,259.36,236.93,238.38,-80.55,-73.66,-66.53,160.56,166.6,186.77,0,26.21,-0.54
rw_cut_5_p1_3f_opt_disp_struct_11.xyz,Nucleus 3C :,-0.425595,-0.67535,3.428368,61.3,148.17,53.07,-17.33,242.08,275.48,263.98,-93.97,-222.34,-281.32,-17.33,53.07,148.17,0,165.5,-0.15
rw_cut_5_p1_3f_opt_disp_struct_11.xyz,Nucleus 4C :,-0.135025,-0.259092,4.668064,54.51,-28.9,126.68,65.75,259.45,255.61,275.53,-292.46,-131.16,-203.43,-28.9,65.75,126.68,0,155.58,0.22
rw_cut_5_p1_3f_opt_disp_struct_11.xyz,Nucleus 7C :,2.476134,1.588281,0.686909,51.52,137.52,-1.59,18.62,259.85,273.35,266.68,-122.37,-274.91,-248.05,-1.59,18.62,137.52,0,139.11,-0.71
rw_cut_5_p1_3f_opt_disp_struct_11.xyz,Nucleus 8C :,0.051424,0.307172,-1.797715,61.79,155.34,30.49,-0.46,237.41,264.42,270.84,-82.64,-234.61,-270.05,-0.46,30.49,155.34,0,155.8,-0.6
rw_cut_5_p1_3f_opt_disp_struct_11.xyz,Nucleus 9C :,4.574842,-8.149217,3.749961,18.94,-52.9,78.56,31.17,234.09,267.38,267.72,-155.79,-236.1,-320.48,-52.9,31.17,78.56,0,131.46,0.28
rw_cut_5_p1_3f_opt_disp_struct_11.xyz,Nucleus 11C :,4.76589,-7.782062,4.765326,79.67,154.02,14.98,70.01,235.46,263.56,277.11,-81.8,-252.99,-202.33,14.98,70.01,154.02,0,139.04,-0.21
rw_cut_5_p1_3f_opt_disp_struct_11.xyz,Nucleus 13C :,3.616962,-8.678409,3.71705,27.35,87.67,19.01,-24.63,233.49,260.65,272.14,-145.86,-252.08,-286.29,-24.63,19.01,87.67,0,112.3,-0.22
rw_cut_5_p1_3f_opt_disp_struct_11.xyz,Nucleus 15C :,4.600653,-7.069877,2.766174,38.89,88.92,26.51,1.23,234.18,272.08,265.22,-145.63,-245.14,-264.05,1.23,26.51,88.92,0,87.69,-0.42
rw_cut_5_p1_3f_opt_disp_struct_11.xyz,Nucleus 19C :,5.430303,-6.977717,2.20309,155.16,130.39,146.44,188.65,208.13,189.32,272.28,-42.74,-75.18,-86.32,130.39,146.44,188.65,0,58.26,-0.45
rw_cut_5_p1_3f_opt_disp_struct_11.xyz,Nucleus 24C :,3.702545,-6.076587,2.687499,21.37,115.44,-15.66,-35.68,239.32,271.47,263.64,-124.16,-281.02,-305.14,-35.68,-15.66,115.44,0,151.12,-0.74
rw_cut_5_p1_3f_opt_disp_struct_11.xyz,Nucleus 5N :,3.839528,-5.153681,1.735139,120.86,48.34,184.89,129.34,294.91,336.98,331.08,-110.29,-206.45,-283.66,48.34,129.34,184.89,0,136.55,0.19
rw_cut_5_p1_3f_opt_disp_struct_11.xyz,Nucleus 22N :,3.200955,-4.370059,1.650865,167.21,99.36,221.6,180.68,276.88,348.57,329.58,-235.57,-123.46,-94.35,99.36,180.68,221.6,0,122.24,0.33
rw_cut_5_p1_3f_opt_disp_struct_11.xyz,Nucleus 25N :,2.676426,-5.975449,3.532581,175.26,115.65,176.16,233.98,323.77,346.4,335.01,-211.73,-165.63,-102.02,115.65,176.16,233.98,0,118.33,0.02
rw_cut_5_p1_3f_opt_disp_struct_11.xyz,Nucleus 27N :,2.575913,-6.606797,4.309094,174.97,115.01,213.75,196.15,300.99,339.61,324.49,-210.86,-125.34,-103.99,115.01,196.15,213.75,0,98.74,0.64
rw_cut_5_p1_3f_opt_disp_struct_11.xyz,Nucleus 10F :,1.936459,-5.308821,3.350843,301.36,397.6,219.22,287.27,483.38,458.16,465.79,-68.1,-239.61,-195.53,219.22,287.27,397.6,0,178.38,-0.24
rw_cut_5_p1_3f_opt_disp_struct_11.xyz,Nucleus 14F :,5.356266,-8.863514,3.491054,321.8,411.68,296.04,257.68,459.95,474.32,479.62,-62.72,-182.05,-203.73,257.68,296.04,411.68,0,154.0,-0.5
rw_cut_5_p1_3f_opt_disp_struct_11.xyz,Nucleus 16F :,4.508182,-5.280435,0.99428,348.04,456.64,300.95,286.54,484.36,467.99,458.18,-11.15,-166.68,-188.57,286.54,300.95,456.64,0,170.1,-0.83
rw_cut_5_p1_3f_opt_disp_struct_12.xyz,Nucleus 1H :,0.981399,-0.024373,-1.324554,29.1,35.3,23.46,28.54,40.82,26.03,31.13,-6.65,-0.81,-3.21,23.46,28.54,35.3,0,11.84,-0.14
rw_cut_5_p1_3f_opt_disp_struct_12.xyz,Nucleus 2H :,1.795408,0.586751,-1.71981,28.96,24.05,28.0,34.84,47.01,28.38,25.99,-12.56,-3.96,2.02,24.05,28.0,34.84,0,10.79,-0.27
rw_cut_5_p1_3f_opt_disp_struct_12.xyz,Nucleus 6H :,1.145635,-1.058186,-1.646847,23.61,15.4,25.2,30.24,50.97,10.85,30.02,-21.1,-4.71,4.81,15.4,25.2,30.24,0,14.84,0.32
rw_cut_5_p1_3f_opt_disp_struct_12.xyz,Nucleus 12H :,0.905116,0.09174,0.155743,24.42,20.67,25.03,27.55,48.25,16.39,31.73,-23.3,4.43,-4.25,20.67,25.03,27.55,0,6.88,0.27
rw_cut_5_p1_3f_opt_disp_struct_12.xyz,Nucleus 17H :,1.690058,0.899114,0.95722,24.19,20.58,25.43,26.55,45.08,27.11,32.17,-19.62,-6.38,-5.8,20.58,25.43,26.55,0,5.97,0.62
rw_cut_5_p1_3f_opt_disp_struct_12.xyz,Nucleus 18H :,1.307493,0.722728,2.259985,28.67,35.05,27.09,23.86,42.55,27.32,32.24,-0.47,-8.99,-6.65,23.86,27.09,35.05,0,11.19,-0.42
rw_cut_5_p1_3f_opt_disp_struct_12.xyz,Nucleus 20H :,1.683008,1.21115,3.056402,28.55,35.1,24.13,26.42,-13.01,15.92,39.85,40.03,8.79,-5.94,24.13,26.42,35.1,0,10.97,-0.58
rw_cut_5_p1_3f_opt_disp_struct_12.xyz,Nucleus 21H :,0.280041,-0.186162,2.326801,28.54,34.44,26.82,24.35,-10.62,18.99,40.15,37.47,6.59,-6.97,24.35,26.82,34.44,0,10.09,-0.51
rw_cut_5_p1_3f_opt_disp_struct_12.xyz,Nucleus 23H :,0.000484,-0.600889,1.022463,26.91,18.66,33.92,28.14,1.67,50.75,27.3,-16.88,17.27,0.6,18.66,28.14,33.92,0,15.26,0.24
rw_cut_5_p1_3f_opt_disp_struct_12.xyz,Nucleus 26H :,-1.033911,-1.543398,0.834772,26.88,36.76,23.89,19.98,76.73,46.82,27.25,-56.54,-10.67,-2.96,19.98,23.89,36.76,0,16.78,-0.53
rw_cut_5_p1_3f_opt_disp_struct_12.xyz,Nucleus 28H :,-1.345669,-1.97385,-0.396096,26.54,19.75,26.27,33.61,-1.14,25.03,56.94,20.99,1.14,-23.33,19.75,26.27,33.61,0,13.86,-0.06
rw_cut_5_p1_3f_opt_disp_struct_12.xyz,Nucleus 29H :,-1.748654,-2.043226,1.924093,26.63,35.69,24.19,20.0,58.86,43.87,30.56,-38.78,-6.02,-8.61,20.0,24.19,35.69,0,15.69,-0.47
rw_cut_5_p1_3f_opt_disp_struct_12.xyz,Nucleus 30H :,-2.556332,-2.750557,1.772223,28.17,35.05,23.53,25.92,-27.36,11.74,38.33,51.04,14.12,-3.37,23.53,25.92,35.05,0,11.52,-0.59
rw_cut_5_p1_3f_opt_disp_struct_12.xyz,Nucleus 31H :,-1.439009,-1.606831,3.204403,27.11,34.62,20.65,26.07,28.07,40.5,49.33,-1.52,-11.9,-23.16,20.65,26.07,34.62,0,13.97,-0.22
rw_cut_5_p1_3f_opt_disp_struct_12.xyz,Nucleus 0C :,-2.133026,-2.094737,4.242684,171.31,186.79,160.58,166.55,259.26,236.96,238.28,-80.38,-73.66,-66.53,160.58,166.55,186.79,0,26.21,-0.54
rw_cut_5_p1_3f_opt_disp_struct_12.xyz,Nucleus 3C :,-0.425595,-0.67535,3.428368,61.31,148.17,53.1,-17.33,242.07,275.23,263.96,-93.95,-222.08,-281.29,-17.33,53.1,148.17,0,165.5,-0.15
rw_cut_5_p1_3f_opt_disp_struct_12.xyz,Nucleus 4C :,-0.135025,-0.259092,4.668064,54.64,-28.73,126.63,66.01,259.22,255.95,275.38,-292.34,-131.24,-203.05,-28.73,66.01,126.63,0,155.36,0.22
rw_cut_5_p1_3f_opt_disp_struct_12.xyz,Nucleus 7C :,2.476134,1.588281,0.686909,51.5,137.48,-1.65,18.66,259.86,273.11,266.7,-122.39,-274.72,-248.08,-1.65,18.66,137.48,0,139.13,-0.71
rw_cut_5_p1_3f_opt_disp_struct_12.xyz,Nucleus 8C :,0.051424,0.307172,-1.797715,61.77,155.32,30.44,-0.46,237.47,264.45,270.34,-82.66,-234.5,-269.81,-0.46,30.44,155.32,0,155.78,-0.6
rw_cut_5_p1_3f_opt_disp_struct_12.xyz,Nucleus 9C :,4.74032,-8.335115,3.773602,18.91,-52.96,78.5,31.19,234.07,267.11,267.41,-155.77,-235.89,-320.2,-52.96,31.19,78.5,0,131.46,0.28
rw_cut_5_p1_3f_opt_disp_struct_12.xyz,Nucleus 11C :,4.931368,-7.96796,4.788967,79.64,153.96,14.93,70.03,235.52,263.59,276.84,-81.91,-252.92,-202.2,14.93,70.03,153.96,0,139.03,-0.21
rw_cut_5_p1_3f_opt_disp_struct_12.xyz,Nucleus 13C :,3.78244,-8.864307,3.740692,27.31,87.62,19.0,-24.7,233.4,260.65,271.94,-145.81,-251.95,-286.31,-24.7,19.0,87.62,0,112.32,-0.22
rw_cut_5_p1_3f_opt_disp_struct_12.xyz,Nucleus 15C :,4.766131,-7.255776,2.789816,38.86,88.87,26.51,1.21,234.24,271.84,265.31,-145.69,-244.97,-264.14,1.21,26.51,88.87,0,87.66,-0.42
rw_cut_5_p1_3f_opt_disp_struct_12.xyz,Nucleus 19C :,5.595781,-7.163615,2.226732,155.15,130.38,146.45,188.63,207.69,188.4,272.84,-41.82,-74.98,-86.67,130.38,146.45,188.63,0,58.25,-0.45
rw_cut_5_p1_3f_opt_disp_struct_12.xyz,Nucleus 24C :,3.868023,-6.262485,2.711141,21.35,115.47,-15.71,-35.72,239.56,271.9,263.48,-124.4,-280.95,-305.55,-35.72,-15.71,115.47,0,151.19,-0.74
rw_cut_5_p1_3f_opt_disp_struct_12.xyz,Nucleus 5N :,4.005006,-5.339579,1.758781,121.0,48.59,184.85,129.56,294.88,336.97,331.0,-110.25,-206.23,-283.36,48.59,129.56,184.85,0,136.26,0.19
rw_cut_5_p1_3f_opt_disp_struct_12.xyz,Nucleus 22N :,3.366433,-4.555957,1.674507,167.13,99.24,221.44,180.72,275.39,348.95,329.53,-236.07,-123.49,-92.9,99.24,180.72,221.44,0,122.2,0.33
rw_cut_5_p1_3f_opt_disp_struct_12.xyz,Nucleus 25N :,2.841904,-6.161347,3.556223,175.24,115.57,176.16,233.98,323.68,347.44,335.19,-211.92,-166.66,-102.03,115.57,176.16,233.98,0,118.41,0.02
rw_cut_5_p1_3f_opt_disp_struct_12.xyz,Nucleus 27N :,2.741391,-6.792695,4.332735,174.96,114.94,213.81,196.14,301.84,339.98,324.35,-210.81,-125.59,-104.88,114.94,196.14,213.81,0,98.87,0.64
rw_cut_5_p1_3f_opt_disp_struct_12.xyz,Nucleus 10F :,2.101937,-5.494719,3.374484,301.6,397.62,219.6,287.57,483.35,458.23,465.8,-68.1,-239.23,-195.26,219.6,287.57,397.62,0,178.02,-0.24
rw_cut_5_p1_3f_opt_disp_struct_12.xyz,Nucleus 14F :,5.521744,-9.049412,3.514696,321.91,411.72,296.21,257.79,460.25,474.11,479.49,-62.44,-181.94,-203.75,257.79,296.21,411.72,0,153.93,-0.5
rw_cut_5_p1_3f_opt_disp_struct_12.xyz,Nucleus 16F :,4.67366,-5.466333,1.017922,348.29,456.71,301.25,286.92,484.44,467.46,458.44,-10.63,-166.5,-188.31,286.92,301.25,456.71,0,169.79,-0.83
rw_cut_5_p1_3f_opt_disp_struct_13.xyz,Nucleus 1H :,0.981399,-0.024373,-1.324554,29.11,35.3,23.47,28.56,40.8,26.05,31.06,-6.63,-0.8,-3.14,23.47,28.56,35.3,0,11.83,-0.14
rw_cut_5_p1_3f_opt_disp_struct_13.xyz,Nucleus 2H :,1.795408,0.586751,-1.71981,28.95,24.03,27.98,34.85,46.89,28.3,25.96,-12.46,-3.86,2.03,24.03,27.98,34.85,0,10.82,-0.27
rw_cut_5_p1_3f_opt_disp_struct_13.xyz,Nucleus 6H :,1.145635,-1.058186,-1.646847,23.63,15.4,25.23,30.26,50.85,10.85,30.07,-20.96,-4.73,4.8,15.4,25.23,30.26,0,14.86,0.32
rw_cut_5_p1_3f_opt_disp_struct_13.xyz,Nucleus 12H :,0.905116,0.09174,0.155743,24.43,20.67,25.04,27.58,48.15,16.37,31.68,-23.19,4.42,-4.16,20.67,25.04,27.58,0,6.91,0.26
rw_cut_5_p1_3f_opt_disp_struct_13.xyz,Nucleus 17H :,1.690058,0.899114,0.95722,24.2,20.59,25.43,26.57,45.05,27.12,32.12,-19.58,-6.39,-5.73,20.59,25.43,26.57,0,5.98,0.62
rw_cut_5_p1_3f_opt_disp_struct_13.xyz,Nucleus 18H :,1.307493,0.722728,2.259985,28.67,35.04,27.1,23.88,42.52,27.29,32.25,-0.44,-9.02,-6.57,23.88,27.1,35.04,0,11.16,-0.42
rw_cut_5_p1_3f_opt_disp_struct_13.xyz,Nucleus 20H :,1.683008,1.21115,3.056402,28.54,35.09,24.13,26.41,-13.91,15.86,39.92,40.96,8.84,-6.05,24.13,26.41,35.09,0,10.96,-0.58
rw_cut_5_p1_3f_opt_disp_struct_13.xyz,Nucleus 21H :,0.280041,-0.186162,2.326801,28.53,34.43,26.8,24.36,-11.45,18.93,40.24,38.34,6.62,-7.09,24.36,26.8,34.43,0,10.07,-0.52
rw_cut_5_p1_3f_opt_disp_struct_13.xyz,Nucleus 23H :,0.000484,-0.600889,1.022463,26.89,18.66,33.91,28.1,0.43,50.93,27.14,-17.08,18.51,0.74,18.66,28.1,33.91,0,15.25,0.24
rw_cut_5_p1_3f_opt_disp_struct_13.xyz,Nucleus 26H :,-1.033911,-1.543398,0.834772,26.83,36.53,23.91,20.04,78.54,46.46,27.62,-58.3,-10.6,-3.23,20.04,23.91,36.53,0,16.49,-0.53
rw_cut_5_p1_3f_opt_disp_struct_13.xyz,Nucleus 28H :,-1.345669,-1.97385,-0.396096,26.53,19.76,26.22,33.6,-1.21,25.05,57.37,21.07,1.07,-23.77,19.76,26.22,33.6,0,13.84,-0.07
rw_cut_5_p1_3f_opt_disp_struct_13.xyz,Nucleus 29H :,-1.748654,-2.043226,1.924093,26.59,35.53,24.2,20.04,60.61,43.76,30.87,-40.49,-6.39,-8.58,20.04,24.2,35.53,0,15.49,-0.46
rw_cut_5_p1_3f_opt_disp_struct_13.xyz,Nucleus 30H :,-2.556332,-2.750557,1.772223,28.16,35.02,23.53,25.93,-28.68,11.46,38.29,52.37,14.4,-3.37,23.53,25.93,35.02,0,11.49,-0.58
rw_cut_5_p1_3f_opt_disp_struct_13.xyz,Nucleus 31H :,-1.439009,-1.606831,3.204403,27.09,34.62,20.67,25.97,27.88,40.65,49.63,-1.42,-12.04,-23.45,20.67,25.97,34.62,0,13.95,-0.24
rw_cut_5_p1_3f_opt_disp_struct_13.xyz,Nucleus 0C :,-2.133026,-2.094737,4.242684,171.3,186.8,160.59,166.5,259.16,236.99,238.19,-80.22,-73.68,-66.54,160.59,166.5,186.8,0,26.21,-0.55
rw_cut_5_p1_3f_opt_disp_struct_13.xyz,Nucleus 3C :,-0.425595,-0.67535,3.428368,61.31,148.16,53.12,-17.34,242.05,275.01,263.93,-93.94,-221.84,-281.26,-17.34,53.12,148.16,0,165.5,-0.15
rw_cut_5_p1_3f_opt_disp_struct_13.xyz,Nucleus 4C :,-0.135025,-0.259092,4.668064,54.75,-28.58,126.59,66.24,259.01,256.27,275.23,-292.24,-131.31,-202.7,-28.58,66.24,126.59,0,155.17,0.22
rw_cut_5_p1_3f_opt_disp_struct_13.xyz,Nucleus 7C :,2.476134,1.588281,0.686909,51.47,137.44,-1.71,18.69,259.86,272.9,266.73,-122.42,-274.54,-248.09,-1.71,18.69,137.44,0,139.15,-0.71
rw_cut_5_p1_3f_opt_disp_struct_13.xyz,Nucleus 8C :,0.051424,0.307172,-1.797715,61.75,155.3,30.4,-0.46,237.5,264.46,269.92,-82.66,-234.4,-269.59,-0.46,30.4,155.3,0,155.76,-0.6
rw_cut_5_p1_3f_opt_disp_struct_13.xyz,Nucleus 9C :,4.905798,-8.521014,3.797244,18.88,-53.01,78.45,31.2,234.06,266.85,267.14,-155.76,-235.7,-319.93,-53.01,31.2,78.45,0,131.46,0.28
rw_cut_5_p1_3f_opt_disp_struct_13.xyz,Nucleus 11C :,5.096845,-8.153859,4.812609,79.62,153.91,14.89,70.05,235.58,263.61,276.57,-81.99,-252.85,-202.08,14.89,70.05,153.91,0,139.02,-0.21
rw_cut_5_p1_3f_opt_disp_struct_13.xyz,Nucleus 13C :,3.947918,-9.050205,3.764333,27.27,87.58,18.99,-24.76,233.3,260.64,271.75,-145.75,-251.81,-286.32,-24.76,18.99,87.58,0,112.34,-0.22
rw_cut_5_p1_3f_opt_disp_struct_13.xyz,Nucleus 15C :,4.931608,-7.441674,2.813457,38.84,88.83,26.5,1.19,234.3,271.61,265.38,-145.75,-244.8,-264.22,1.19,26.5,88.83,0,87.64,-0.42
rw_cut_5_p1_3f_opt_disp_struct_13.xyz,Nucleus 19C :,5.761259,-7.349513,2.250374,155.14,130.36,146.46,188.61,207.25,187.49,273.41,-40.92,-74.75,-87.04,130.36,146.46,188.61,0,58.25,-0.45
rw_cut_5_p1_3f_opt_disp_struct_13.xyz,Nucleus 24C :,4.033501,-6.448383,2.734782,21.32,115.49,-15.76,-35.76,239.79,272.33,263.34,-124.63,-280.9,-305.94,-35.76,-15.76,115.49,0,151.25,-0.74
rw_cut_5_p1_3f_opt_disp_struct_13.xyz,Nucleus 5N :,4.170484,-5.525477,1.782422,121.13,48.81,184.82,129.76,294.83,336.98,330.91,-110.2,-206.06,-283.06,48.81,129.76,184.82,0,136.01,0.19
rw_cut_5_p1_3f_opt_disp_struct_13.xyz,Nucleus 22N :,3.531911,-4.741856,1.698149,167.07,99.14,221.31,180.75,273.92,349.34,329.48,-236.56,-123.51,-91.47,99.14,180.75,221.31,0,122.17,0.34
rw_cut_5_p1_3f_opt_disp_struct_13.xyz,Nucleus 25N :,3.007382,-6.347245,3.579864,175.21,115.5,176.16,233.98,323.61,348.5,335.37,-212.12,-167.67,-102.05,115.5,176.16,233.98,0,118.48,0.02
rw_cut_5_p1_3f_opt_disp_struct_13.xyz,Nucleus 27N :,2.906869,-6.978593,4.356377,174.96,114.89,213.86,196.13,302.63,340.34,324.22,-210.78,-125.83,-105.69,114.89,196.13,213.86,0,98.97,0.64
rw_cut_5_p1_3f_opt_disp_struct_13.xyz,Nucleus 10F :,2.267415,-5.680617,3.398126,301.8,397.63,219.92,287.84,483.3,458.29,465.81,-68.1,-238.91,-195.01,219.92,287.84,397.63,0,177.71,-0.24
rw_cut_5_p1_3f_opt_disp_struct_13.xyz,Nucleus 14F :,5.687222,-9.23531,3.538337,322.0,411.75,296.35,257.9,460.44,473.95,479.42,-62.24,-181.83,-203.73,257.9,296.35,411.75,0,153.85,-0.5
rw_cut_5_p1_3f_opt_disp_struct_13.xyz,Nucleus 16F :,4.839138,-5.652231,1.041563,348.51,456.77,301.51,287.25,484.48,467.07,458.63,-10.23,-166.32,-188.09,287.25,301.51,456.77,0,169.52,-0.83
rw_cut_5_p1_3f_opt_disp_struct_14.xyz,Nucleus 1H :,0.981399,-0.024373,-1.324554,29.12,35.3,23.47,28.58,40.79,26.06,30.98,-6.61,-0.78,-3.07,23.47,28.58,35.3,0,11.83,-0.14
rw_cut_5_p1_3f_opt_disp_struct_14.xyz,Nucleus 2H :,1.795408,0.586751,-1.71981,28.95,24.02,27.97,34.86,46.78,28.22,25.93,-12.37,-3.77,2.05,24.02,27.97,34.86,0,10.84,-0.27
rw_cut_5_p1_3f_opt_disp_struct_14.xyz,Nucleus 6H :,1.145635,-1.058186,-1.646847,23.64,15.41,25.24,30.27,50.74,10.85,30.11,-20.82,-4.75,4.79,15.41,25.24,30.27,0,14.86,0.32
rw_cut_5_p1_3f_opt_disp_struct_14.xyz,Nucleus 12H :,0.905116,0.09174,0.155743,24.44,20.66,25.05,27.6,48.06,16.36,31.63,-23.08,4.42,-4.08,20.66,25.05,27.6,0,6.94,0.26
rw_cut_5_p1_3f_opt_disp_struct_14.xyz,Nucleus 17H :,1.690058,0.899114,0.95722,24.21,20.6,25.44,26.58,45.03,27.13,32.07,-19.55,-6.4,-5.66,20.6,25.44,26.58,0,5.98,0.62
rw_cut_5_p1_3f_opt_disp_struct_14.xyz,Nucleus 18H :,1.307493,0.722728,2.259985,28.68,35.04,27.12,23.89,42.5,27.26,32.25,-0.41,-9.05,-6.49,23.89,27.12,35.04,0,11.15,-0.42
rw_cut_5_p1_3f_opt_disp_struct_14.xyz,Nucleus 20H :,1.683008,1.21115,3.056402,28.53,35.08,24.13,26.39,-14.81,15.8,39.99,41.89,8.9,-6.16,24.13,26.39,35.08,0,10.95,-0.59
rw_cut_5_p1_3f_opt_disp_struct_14.xyz,Nucleus 21H :,0.280041,-0.186162,2.326801,28.52,34.43,26.78,24.36,-12.27,18.88,40.32,39.21,6.65,-7.21,24.36,26.78,34.43,0,10.07,-0.52
rw_cut_5_p1_3f_opt_disp_struct_14.xyz,Nucleus 23H :,0.000484,-0.600889,1.022463,26.88,18.67,33.89,28.07,-0.8,51.11,26.98,-17.28,19.74,0.88,18.67,28.07,33.89,0,15.22,0.23
rw_cut_5_p1_3f_opt_disp_struct_14.xyz,Nucleus 26H :,-1.033911,-1.543398,0.834772,26.78,36.33,23.93,20.09,80.32,46.13,27.95,-60.04,-10.54,-3.48,20.09,23.93,36.33,0,16.24,-0.53
rw_cut_5_p1_3f_opt_disp_struct_14.xyz,Nucleus 28H :,-1.345669,-1.97385,-0.396096,26.51,19.77,26.17,33.59,-1.29,25.06,57.8,21.17,1.02,-24.22,19.77,26.17,33.59,0,13.82,-0.07
rw_cut_5_p1_3f_opt_disp_struct_14.xyz,Nucleus 29H :,-1.748654,-2.043226,1.924093,26.56,35.39,24.21,20.08,62.33,43.67,31.16,-42.18,-6.74,-8.56,20.08,24.21,35.39,0,15.31,-0.46
rw_cut_5_p1_3f_opt_disp_struct_14.xyz,Nucleus 30H :,-2.556332,-2.750557,1.772223,28.15,34.99,23.53,25.93,-30.0,11.17,38.26,53.69,14.69,-3.36,23.53,25.93,34.99,0,11.46,-0.58
rw_cut_5_p1_3f_opt_disp_struct_14.xyz,Nucleus 31H :,-1.439009,-1.606831,3.204403,27.06,34.63,20.68,25.88,27.7,40.78,49.92,-1.32,-12.17,-23.73,20.68,25.88,34.63,0,13.95,-0.25
rw_cut_5_p1_3f_opt_disp_struct_14.xyz,Nucleus 0C :,-2.133026,-2.094737,4.242684,171.29,186.82,160.6,166.46,259.06,237.03,238.1,-80.07,-73.69,-66.55,160.6,166.46,186.82,0,26.22,-0.55
rw_cut_5_p1_3f_opt_disp_struct_14.xyz,Nucleus 3C :,-0.425595,-0.67535,3.428368,61.32,148.15,53.15,-17.34,242.02,274.81,263.9,-93.91,-221.62,-281.23,-17.34,53.15,148.15,0,165.49,-0.15
rw_cut_5_p1_3f_opt_disp_struct_14.xyz,Nucleus 4C :,-0.135025,-0.259092,4.668064,54.85,-28.45,126.56,66.44,258.83,256.54,275.09,-292.16,-131.37,-202.38,-28.45,66.44,126.56,0,155.01,0.22
rw_cut_5_p1_3f_opt_disp_struct_14.xyz,Nucleus 7C :,2.476134,1.588281,0.686909,51.46,137.41,-1.76,18.72,259.86,272.71,266.74,-122.46,-274.38,-248.1,-1.76,18.72,137.41,0,139.17,-0.71
rw_cut_5_p1_3f_opt_disp_struct_14.xyz,Nucleus 8C :,0.051424,0.307172,-1.797715,61.73,155.28,30.36,-0.46,237.51,264.45,269.57,-82.65,-234.32,-269.39,-0.46,30.36,155.28,0,155.74,-0.6
rw_cut_5_p1_3f_opt_disp_struct_14.xyz,Nucleus 9C :,5.071276,-8.706912,3.820885,18.86,-53.05,78.41,31.21,234.05,266.59,266.93,-155.77,-235.54,-319.69,-53.05,31.21,78.41,0,131.46,0.28
rw_cut_5_p1_3f_opt_disp_struct_14.xyz,Nucleus 11C :,5.262323,-8.339757,4.83625,79.59,153.86,14.86,70.06,235.62,263.61,276.34,-82.06,-252.77,-201.97,14.86,70.06,153.86,0,139.0,-0.21
rw_cut_5_p1_3f_opt_disp_struct_14.xyz,Nucleus 13C :,4.113396,-9.236103,3.787975,27.23,87.54,18.97,-24.81,233.22,260.64,271.57,-145.7,-251.69,-286.33,-24.81,18.97,87.54,0,112.35,-0.22
rw_cut_5_p1_3f_opt_disp_struct_14.xyz,Nucleus 15C :,5.097086,-7.627572,2.837099,38.81,88.79,26.49,1.16,234.34,271.4,265.42,-145.8,-244.65,-264.28,1.16,26.49,88.79,0,87.63,-0.42
rw_cut_5_p1_3f_opt_disp_struct_14.xyz,Nucleus 19C :,5.926737,-7.535411,2.274015,155.13,130.35,146.46,188.59,206.81,186.59,273.97,-40.03,-74.5,-87.44,130.35,146.46,188.59,0,58.24,-0.45
rw_cut_5_p1_3f_opt_disp_struct_14.xyz,Nucleus 24C :,4.198979,-6.634282,2.758424,21.31,115.51,-15.8,-35.78,240.02,272.74,263.21,-124.88,-280.84,-306.32,-35.78,-15.8,115.51,0,151.29,-0.74
rw_cut_5_p1_3f_opt_disp_struct_14.xyz,Nucleus 5N :,4.335962,-5.711375,1.806064,121.24,49.0,184.78,129.93,294.77,336.99,330.82,-110.15,-205.93,-282.78,49.0,129.93,184.78,0,135.78,0.19
rw_cut_5_p1_3f_opt_disp_struct_14.xyz,Nucleus 22N :,3.697389,-4.927754,1.72179,167.0,99.06,221.18,180.77,272.48,349.74,329.43,-237.04,-123.54,-90.05,99.06,180.77,221.18,0,122.12,0.34
rw_cut_5_p1_3f_opt_disp_struct_14.xyz,Nucleus 25N :,3.17286,-6.533143,3.603506,175.19,115.43,176.17,233.98,323.54,349.57,335.54,-212.32,-168.67,-102.07,115.43,176.17,233.98,0,118.55,0.02
rw_cut_5_p1_3f_opt_disp_struct_14.xyz,Nucleus 27N :,3.072347,-7.164491,4.380019,174.96,114.84,213.91,196.13,303.37,340.7,324.11,-210.77,-126.07,-106.45,114.84,196.13,213.91,0,99.07,0.64
rw_cut_5_p1_3f_opt_disp_struct_14.xyz,Nucleus 10F :,2.432893,-5.866516,3.421768,301.97,397.64,220.2,288.06,483.25,458.33,465.82,-68.1,-238.63,-194.77,220.2,288.06,397.64,0,177.44,-0.24
rw_cut_5_p1_3f_opt_disp_struct_14.xyz,Nucleus 14F :,5.8527,-9.421208,3.561979,322.09,411.78,296.48,258.0,460.55,473.85,479.38,-62.1,-181.73,-203.68,258.0,296.48,411.78,0,153.78,-0.5
rw_cut_5_p1_3f_opt_disp_struct_14.xyz,Nucleus 16F :,5.004616,-5.838129,1.065205,348.7,456.83,301.74,287.52,484.48,466.79,458.78,-9.93,-166.16,-187.88,287.52,301.74,456.83,0,169.31,-0.83
rw_cut_5_p1_3f_opt_disp_struct_15.xyz,Nucleus 1H :,0.981399,-0.024373,-1.324554,29.12,35.3,23.47,28.6,40.77,26.06,30.91,-6.6,-0.77,-3.0,23.47,28.6,35.3,0,11.83,-0.13
rw_cut_5_p1_3f_opt_disp_struct_15.xyz,Nucleus 2H :,1.795408,0.586751,-1.71981,28.94,24.0,27.96,34.86,46.68,28.14,25.9,-12.29,-3.68,2.07,24.0,27.96,34.86,0,10.86,-0.27
rw_cut_5_p1_3f_opt_disp_struct_15.xyz,Nucleus 6H :,1.145635,-1.058186,-1.646847,23.65,15.41,25.26,30.29,50.63,10.85,30.14,-20.69,-4.76,4.78,15.41,25.26,30.29,0,14.88,0.32
rw_cut_5_p1_3f_opt_disp_struct_15.xyz,Nucleus 12H :,0.905116,0.09174,0.155743,24.44,20.65,25.05,27.62,47.97,16.34,31.59,-22.97,4.41,-4.01,20.65,25.05,27.62,0,6.97,0.26
rw_cut_5_p1_3f_opt_disp_struct_15.xyz,Nucleus 17H :,1.690058,0.899114,0.95722,24.22,20.61,25.44,26.6,45.0,27.13,32.02,-19.51,-6.41,-5.59,20.61,25.44,26.6,0,5.99,0.61
rw_cut_5_p1_3f_opt_disp_struct_15.xyz,Nucleus 18H :,1.307493,0.722728,2.259985,28.69,35.04,27.13,23.9,42.47,27.23,32.24,-0.39,-9.08,-6.42,23.9,27.13,35.04,0,11.14,-0.42
rw_cut_5_p1_3f_opt_disp_struct_15.xyz,Nucleus 20H :,1.683008,1.21115,3.056402,28.53,35.08,24.13,26.37,-15.72,15.74,40.06,42.82,8.96,-6.28,24.13,26.37,35.08,0,10.95,-0.59
rw_cut_5_p1_3f_opt_disp_struct_15.xyz,Nucleus 21H :,0.280041,-0.186162,2.326801,28.52,34.42,26.77,24.36,-13.1,18.83,40.42,40.07,6.69,-7.34,24.36,26.77,34.42,0,10.06,-0.52
rw_cut_5_p1_3f_opt_disp_struct_15.xyz,Nucleus 23H :,0.000484,-0.600889,1.022463,26.87,18.67,33.88,28.05,-2.04,51.28,26.84,20.98,-17.47,1.01,18.67,28.05,33.88,0,15.21,0.23
rw_cut_5_p1_3f_opt_disp_struct_15.xyz,Nucleus 26H :,-1.033911,-1.543398,0.834772,26.74,36.15,23.94,20.13,82.08,45.85,28.26,-61.76,-10.5,-3.7,20.13,23.94,36.15,0,16.02,-0.52
rw_cut_5_p1_3f_opt_disp_struct_15.xyz,Nucleus 28H :,-1.345669,-1.97385,-0.396096,26.5,19.79,26.12,33.58,-1.39,25.06,58.24,21.28,0.97,-24.66,19.79,26.12,33.58,0,13.79,-0.08
rw_cut_5_p1_3f_opt_disp_struct_15.xyz,Nucleus 29H :,-1.748654,-2.043226,1.924093,26.53,35.27,24.21,20.11,64.04,43.59,31.42,-43.85,-7.06,-8.54,20.11,24.21,35.27,0,15.16,-0.46
rw_cut_5_p1_3f_opt_disp_struct_15.xyz,Nucleus 30H :,-2.556332,-2.750557,1.772223,28.15,34.97,23.54,25.93,-31.32,10.89,38.24,55.01,14.98,-3.36,23.54,25.93,34.97,0,11.43,-0.58
rw_cut_5_p1_3f_opt_disp_struct_15.xyz,Nucleus 31H :,-1.439009,-1.606831,3.204403,27.04,34.63,20.7,25.8,27.53,40.91,50.2,-1.23,-12.29,-23.99,20.7,25.8,34.63,0,13.93,-0.27
rw_cut_5_p1_3f_opt_disp_struct_15.xyz,Nucleus 0C :,-2.133026,-2.094737,4.242684,171.29,186.83,160.62,166.42,258.96,237.08,238.03,-79.93,-73.7,-66.56,160.62,166.42,186.83,0,26.21,-0.56
rw_cut_5_p1_3f_opt_disp_struct_15.xyz,Nucleus 3C :,-0.425595,-0.67535,3.428368,61.33,148.15,53.17,-17.33,242.0,274.63,263.86,-93.9,-221.41,-281.2,-17.33,53.17,148.15,0,165.48,-0.15
rw_cut_5_p1_3f_opt_disp_struct_15.xyz,Nucleus 4C :,-0.135025,-0.259092,4.668064,54.93,-28.34,126.52,66.62,258.66,256.77,274.96,-292.09,-131.41,-202.09,-28.34,66.62,126.52,0,154.86,0.23
rw_cut_5_p1_3f_opt_disp_struct_15.xyz,Nucleus 7C :,2.476134,1.588281,0.686909,51.44,137.38,-1.8,18.75,259.86,272.55,266.75,-122.5,-274.24,-248.09,-1.8,18.75,137.38,0,139.18,-0.7
rw_cut_5_p1_3f_opt_disp_struct_15.xyz,Nucleus 8C :,0.051424,0.307172,-1.797715,61.72,155.26,30.34,-0.45,237.51,264.44,269.28,-82.63,-234.25,-269.2,-0.45,30.34,155.26,0,155.71,-0.6
rw_cut_5_p1_3f_opt_disp_struct_15.xyz,Nucleus 9C :,5.236754,-8.89281,3.844527,18.84,-53.08,78.37,31.22,234.04,266.36,266.77,-155.78,-235.41,-319.47,-53.08,31.22,78.37,0,131.45,0.28
rw_cut_5_p1_3f_opt_disp_struct_15.xyz,Nucleus 11C :,5.427801,-8.525655,4.859892,79.57,153.82,14.83,70.07,235.66,263.61,276.13,-82.12,-252.69,-201.89,14.83,70.07,153.82,0,138.99,-0.21
rw_cut_5_p1_3f_opt_disp_struct_15.xyz,Nucleus 13C :,4.278874,-9.422002,3.811616,27.2,87.5,18.96,-24.85,233.13,260.64,271.41,-145.65,-251.57,-286.35,-24.85,18.96,87.5,0,112.35,-0.22
rw_cut_5_p1_3f_opt_disp_struct_15.xyz,Nucleus 15C :,5.262564,-7.81347,2.860741,38.8,88.76,26.48,1.15,234.37,271.21,265.46,-145.83,-244.51,-264.32,1.15,26.48,88.76,0,87.61,-0.42
rw_cut_5_p1_3f_opt_disp_struct_15.xyz,Nucleus 19C :,6.092215,-7.721309,2.297657,155.13,130.34,146.47,188.58,206.38,185.69,274.54,-39.15,-74.23,-87.85,130.34,146.47,188.58,0,58.24,-0.45
rw_cut_5_p1_3f_opt_disp_struct_15.xyz,Nucleus 24C :,4.364456,-6.82018,2.782066,21.29,115.53,-15.85,-35.8,240.26,273.14,263.1,-125.13,-280.8,-306.7,-35.8,-15.85,115.53,0,151.33,-0.74
rw_cut_5_p1_3f_opt_disp_struct_15.xyz,Nucleus 5N :,4.50144,-5.897273,1.829705,121.33,49.16,184.76,130.07,294.72,337.0,330.72,-110.11,-205.83,-282.5,49.16,130.07,184.76,0,135.6,0.19
rw_cut_5_p1_3f_opt_disp_struct_15.xyz,Nucleus 22N :,3.862866,-5.113652,1.745432,166.95,98.99,221.07,180.8,271.04,350.14,329.37,-237.5,-123.55,-88.64,98.99,180.8,221.07,0,122.08,0.34
rw_cut_5_p1_3f_opt_disp_struct_15.xyz,Nucleus 25N :,3.338338,-6.719041,3.627148,175.17,115.36,176.17,233.98,323.47,350.63,335.71,-212.53,-169.65,-102.11,115.36,176.17,233.98,0,118.62,0.03
rw_cut_5_p1_3f_opt_disp_struct_15.xyz,Nucleus 27N :,3.237824,-7.350389,4.40366,174.96,114.8,213.96,196.13,304.06,341.05,324.01,-210.77,-126.3,-107.17,114.8,196.13,213.96,0,99.16,0.64
rw_cut_5_p1_3f_opt_disp_struct_15.xyz,Nucleus 10F :,2.598371,-6.052414,3.445409,302.11,397.65,220.44,288.25,483.19,458.36,465.83,-68.11,-238.38,-194.55,220.44,288.25,397.65,0,177.21,-0.23
rw_cut_5_p1_3f_opt_disp_struct_15.xyz,Nucleus 14F :,6.018178,-9.607106,3.58562,322.16,411.8,296.59,258.1,460.61,473.78,479.35,-62.0,-181.64,-203.61,258.1,296.59,411.8,0,153.7,-0.5
rw_cut_5_p1_3f_opt_disp_struct_15.xyz,Nucleus 16F :,5.170094,-6.024027,1.088846,348.85,456.87,301.93,287.75,484.46,466.59,458.89,-9.7,-166.01,-187.69,287.75,301.93,456.87,0,169.12,-0.83
rw_cut_5_p1_3f_opt_disp_struct_16.xyz,Nucleus 1H :,0.981399,-0.024373,-1.324554,29.14,35.31,23.48,28.62,40.76,26.07,30.83,-6.58,-0.75,-2.93,23.48,28.62,35.31,0,11.83,-0.13
rw_cut_5_p1_3f_opt_disp_struct_16.xyz,Nucleus 2H :,1.795408,0.586751,-1.71981,28.93,23.98,27.95,34.87,46.57,28.07,25.88,-12.21,-3.59,2.09,23.98,27.95,34.87,0,10.89,-0.27
rw_cut_5_p1_3f_opt_disp_struct_16.xyz,Nucleus 6H :,1.145635,-1.058186,-1.646847,23.66,15.41,25.28,30.3,50.52,10.85,30.17,-20.56,-4.77,4.78,15.41,25.28,30.3,0,14.89,0.33
rw_cut_5_p1_3f_opt_disp_struct_16.xyz,Nucleus 12H :,0.905116,0.09174,0.155743,24.45,20.64,25.06,27.64,47.88,16.32,31.55,-22.87,4.42,-3.95,20.64,25.06,27.64,0,7.0,0.26
rw_cut_5_p1_3f_opt_disp_struct_16.xyz,Nucleus 17H :,1.690058,0.899114,0.95722,24.22,20.61,25.44,26.61,44.98,27.13,31.97,-19.48,-6.41,-5.52,20.61,25.44,26.61,0,6.0,0.61
rw_cut_5_p1_3f_opt_disp_struct_16.xyz,Nucleus 18H :,1.307493,0.722728,2.259985,28.69,35.03,27.14,23.91,42.45,27.2,32.23,-0.36,-9.1,-6.35,23.91,27.14,35.03,0,11.12,-0.42
rw_cut_5_p1_3f_opt_disp_struct_16.xyz,Nucleus 20H :,1.683008,1.21115,3.056402,28.52,35.07,24.13,26.36,-16.62,15.67,40.14,43.74,9.02,-6.39,24.13,26.36,35.07,0,10.94,-0.59
rw_cut_5_p1_3f_opt_disp_struct_16.xyz,Nucleus 21H :,0.280041,-0.186162,2.326801,28.51,34.42,26.75,24.37,-13.94,18.77,40.51,40.94,6.72,-7.47,24.37,26.75,34.42,0,10.05,-0.53
rw_cut_5_p1_3f_opt_disp_struct_16.xyz,Nucleus 23H :,0.000484,-0.600889,1.022463,26.86,18.68,33.87,28.02,-3.27,51.46,26.69,22.21,-17.67,1.14,18.68,28.02,33.87,0,15.19,0.23
rw_cut_5_p1_3f_opt_disp_struct_16.xyz,Nucleus 26H :,-1.033911,-1.543398,0.834772,26.71,35.99,23.96,20.17,83.82,45.6,28.55,-63.47,-10.47,-3.9,20.17,23.96,35.99,0,15.82,-0.52
rw_cut_5_p1_3f_opt_disp_struct_16.xyz,Nucleus 28H :,-1.345669,-1.97385,-0.396096,26.49,19.8,26.08,33.58,-1.51,25.06,58.68,21.4,0.93,-25.1,19.8,26.08,33.58,0,13.78,-0.09
rw_cut_5_p1_3f_opt_disp_struct_16.xyz,Nucleus 29H :,-1.748654,-2.043226,1.924093,26.51,35.17,24.22,20.14,65.72,43.53,31.67,-45.51,-8.53,-7.36,20.14,24.22,35.17,0,15.03,-0.46
rw_cut_5_p1_3f_opt_disp_struct_16.xyz,Nucleus 30H :,-2.556332,-2.750557,1.772223,28.14,34.95,23.54,25.93,-32.63,10.6,38.21,56.32,15.27,-3.36,23.54,25.93,34.95,0,11.41,-0.58
rw_cut_5_p1_3f_opt_disp_struct_16.xyz,Nucleus 31H :,-1.439009,-1.606831,3.204403,27.02,34.63,20.71,25.73,27.37,41.02,50.48,-1.14,-12.41,-24.24,20.71,25.73,34.63,0,13.92,-0.28
rw_cut_5_p1_3f_opt_disp_struct_16.xyz,Nucleus 0C :,-2.133026,-2.094737,4.242684,171.29,186.85,160.63,166.39,258.87,237.12,237.96,-79.79,-73.72,-66.57,160.63,166.39,186.85,0,26.22,-0.56
rw_cut_5_p1_3f_opt_disp_struct_16.xyz,Nucleus 3C :,-0.425595,-0.67535,3.428368,61.34,148.14,53.2,-17.33,241.98,274.46,263.83,-93.88,-221.22,-281.16,-17.33,53.2,148.14,0,165.47,-0.15
rw_cut_5_p1_3f_opt_disp_struct_16.xyz,Nucleus 4C :,-0.135025,-0.259092,4.668064,55.01,-28.24,126.49,66.78,258.51,256.97,274.85,-292.04,-131.45,-201.82,-28.24,66.78,126.49,0,154.73,0.23
rw_cut_5_p1_3f_opt_disp_struct_16.xyz,Nucleus 7C :,2.476134,1.588281,0.686909,51.43,137.36,-1.83,18.77,259.87,272.41,266.75,-122.54,-274.13,-248.07,-1.83,18.77,137.36,0,139.19,-0.7
rw_cut_5_p1_3f_opt_disp_struct_16.xyz,Nucleus 8C :,0.051424,0.307172,-1.797715,61.71,155.25,30.32,-0.45,237.49,264.43,269.04,-82.61,-234.21,-269.03,-0.45,30.32,155.25,0,155.7,-0.6
rw_cut_5_p1_3f_opt_disp_struct_16.xyz,Nucleus 9C :,5.402232,-9.078708,3.868169,18.82,-53.11,78.33,31.23,234.04,266.14,266.65,-155.79,-235.3,-319.29,-53.11,31.23,78.33,0,131.44,0.28
rw_cut_5_p1_3f_opt_disp_struct_16.xyz,Nucleus 11C :,5.593279,-8.711553,4.883534,79.55,153.78,14.8,70.08,235.68,263.61,275.94,-82.16,-252.6,-201.81,14.8,70.08,153.78,0,138.98,-0.2
rw_cut_5_p1_3f_opt_disp_struct_16.xyz,Nucleus 13C :,4.444352,-9.6079,3.835258,27.18,87.47,18.96,-24.89,233.06,260.64,271.25,-145.6,-251.45,-286.36,-24.89,18.96,87.47,0,112.36,-0.22
rw_cut_5_p1_3f_opt_disp_struct_16.xyz,Nucleus 15C :,5.428042,-7.999368,2.884382,38.78,88.73,26.47,1.13,234.39,271.04,265.48,-145.85,-244.38,-264.34,1.13,26.47,88.73,0,87.6,-0.42
rw_cut_5_p1_3f_opt_disp_struct_16.xyz,Nucleus 19C :,6.257693,-7.907208,2.321299,155.12,130.32,146.47,188.56,205.95,184.81,275.1,-38.27,-73.95,-88.29,130.32,146.47,188.56,0,58.24,-0.45
rw_cut_5_p1_3f_opt_disp_struct_16.xyz,Nucleus 24C :,4.529934,-7.006078,2.805707,21.28,115.54,-15.89,-35.82,240.5,273.54,263.0,-125.38,-280.76,-307.06,-35.82,-15.89,115.54,0,151.36,-0.74
rw_cut_5_p1_3f_opt_disp_struct_16.xyz,Nucleus 5N :,4.666918,-6.083171,1.853347,121.41,49.3,184.73,130.19,294.67,337.01,330.62,-110.08,-205.75,-282.25,49.3,130.19,184.73,0,135.43,0.19
rw_cut_5_p1_3f_opt_disp_struct_16.xyz,Nucleus 22N :,4.028344,-5.29955,1.769073,166.91,98.92,220.98,180.82,269.61,350.56,329.31,-237.94,-123.57,-87.24,98.92,180.82,220.98,0,122.06,0.34
rw_cut_5_p1_3f_opt_disp_struct_16.xyz,Nucleus 25N :,3.503816,-6.904939,3.650789,175.15,115.3,176.18,233.98,351.67,323.41,335.87,-212.74,-170.61,-102.15,115.3,176.18,233.98,0,118.68,0.03
rw_cut_5_p1_3f_opt_disp_struct_16.xyz,Nucleus 27N :,3.403302,-7.536287,4.427302,174.96,114.76,214.0,196.12,304.73,341.39,323.93,-210.77,-126.52,-107.87,114.76,196.12,214.0,0,99.24,0.64
rw_cut_5_p1_3f_opt_disp_struct_16.xyz,Nucleus 10F :,2.763849,-6.238312,3.469051,302.24,397.65,220.64,288.42,483.12,458.39,465.84,-68.12,-238.17,-194.35,220.64,288.42,397.65,0,177.01,-0.23
rw_cut_5_p1_3f_opt_disp_struct_16.xyz,Nucleus 14F :,6.183656,-9.793004,3.609262,322.24,411.82,296.69,258.2,460.64,473.75,479.33,-61.94,-181.55,-203.53,258.2,296.69,411.82,0,153.62,-0.5
rw_cut_5_p1_3f_opt_disp_struct_16.xyz,Nucleus 16F :,5.335572,-6.209926,1.112488,348.99,456.91,302.1,287.95,484.43,466.44,458.98,-9.51,-165.87,-187.51,287.95,302.1,456.91,0,168.96,-0.83
rw_cut_5_p1_3f_opt_disp_struct_17.xyz,Nucleus 1H :,0.981399,-0.024373,-1.324554,29.14,35.31,23.48,28.63,40.75,26.07,30.75,-6.57,-0.73,-2.86,23.48,28.63,35.31,0,11.83,-0.13
rw_cut_5_p1_3f_opt_disp_struct_17.xyz,Nucleus 2H :,1.795408,0.586751,-1.71981,28.93,23.97,27.94,34.87,46.47,27.99,25.85,-12.14,-3.5,2.11,23.97,27.94,34.87,0,10.9,-0.27
rw_cut_5_p1_3f_opt_disp_struct_17.xyz,Nucleus 6H :,1.145635,-1.058186,-1.646847,23.67,15.41,25.29,30.31,50.41,10.85,30.2,-20.44,-4.77,4.77,15.41,25.29,30.31,0,14.9,0.33
rw_cut_5_p1_3f_opt_disp_struct_17.xyz,Nucleus 12H :,0.905116,0.09174,0.155743,24.45,20.63,25.07,27.65,47.79,16.3,31.51,-22.77,4.42,-3.89,20.63,25.07,27.65,0,7.02,0.26
rw_cut_5_p1_3f_opt_disp_struct_17.xyz,Nucleus 17H :,1.690058,0.899114,0.95722,24.23,20.62,25.45,26.62,44.95,27.14,31.92,-19.44,-6.42,-5.45,20.62,25.45,26.62,0,6.0,0.61
rw_cut_5_p1_3f_opt_disp_struct_17.xyz,Nucleus 18H :,1.307493,0.722728,2.259985,28.7,35.03,27.15,23.92,42.43,27.18,32.22,-0.34,-9.12,-6.28,23.92,27.15,35.03,0,11.11,-0.42
rw_cut_5_p1_3f_opt_disp_struct_17.xyz,Nucleus 20H :,1.683008,1.21115,3.056402,28.52,35.07,24.14,26.35,-17.52,15.6,40.22,44.67,9.09,-6.51,24.14,26.35,35.07,0,10.93,-0.6
rw_cut_5_p1_3f_opt_disp_struct_17.xyz,Nucleus 21H :,0.280041,-0.186162,2.326801,28.51,34.42,26.74,24.37,-14.77,18.72,40.61,41.8,6.76,-7.59,24.37,26.74,34.42,0,10.05,-0.53
rw_cut_5_p1_3f_opt_disp_struct_17.xyz,Nucleus 23H :,0.000484,-0.600889,1.022463,26.85,18.68,33.86,28.0,-4.5,51.63,26.55,23.44,-17.86,1.27,18.68,28.0,33.86,0,15.18,0.23
rw_cut_5_p1_3f_opt_disp_struct_17.xyz,Nucleus 26H :,-1.033911,-1.543398,0.834772,26.68,35.86,23.97,20.2,85.54,45.38,28.81,-65.17,-10.45,-4.09,20.2,23.97,35.86,0,15.66,-0.52
rw_cut_5_p1_3f_opt_disp_struct_17.xyz,Nucleus 28H :,-1.345669,-1.97385,-0.396096,26.48,19.81,26.05,33.57,-1.63,25.06,59.11,21.54,0.89,-25.54,19.81,26.05,33.57,0,13.76,-0.09
rw_cut_5_p1_3f_opt_disp_struct_17.xyz,Nucleus 29H :,-1.748654,-2.043226,1.924093,26.49,35.07,24.22,20.17,67.4,43.48,31.91,-47.16,-8.52,-7.64,20.17,24.22,35.07,0,14.9,-0.46
rw_cut_5_p1_3f_opt_disp_struct_17.xyz,Nucleus 30H :,-2.556332,-2.750557,1.772223,28.14,34.93,23.54,25.94,-33.94,10.31,38.19,57.64,15.57,-3.35,23.54,25.94,34.93,0,11.39,-0.58
rw_cut_5_p1_3f_opt_disp_struct_17.xyz,Nucleus 31H :,-1.439009,-1.606831,3.204403,27.01,34.64,20.73,25.66,27.23,41.13,50.74,-1.06,-12.53,-24.49,20.73,25.66,34.64,0,13.91,-0.29
rw_cut_5_p1_3f_opt_disp_struct_17.xyz,Nucleus 0C :,-2.133026,-2.094737,4.242684,171.29,186.86,160.64,166.36,258.79,237.16,237.89,-79.66,-73.74,-66.58,160.64,166.36,186.86,0,26.22,-0.56
rw_cut_5_p1_3f_opt_disp_struct_17.xyz,Nucleus 3C :,-0.425595,-0.67535,3.428368,61.34,148.14,53.22,-17.33,241.95,274.3,263.8,-93.86,-221.03,-281.13,-17.33,53.22,148.14,0,165.47,-0.15
rw_cut_5_p1_3f_opt_disp_struct_17.xyz,Nucleus 4C :,-0.135025,-0.259092,4.668064,55.07,-28.15,126.46,66.91,258.37,257.14,274.75,-291.99,-131.48,-201.58,-28.15,66.91,126.46,0,154.61,0.23
rw_cut_5_p1_3f_opt_disp_struct_17.xyz,Nucleus 7C :,2.476134,1.588281,0.686909,51.42,137.33,-1.87,18.79,259.88,272.29,266.74,-122.57,-274.03,-248.05,-1.87,18.79,137.33,0,139.2,-0.7
rw_cut_5_p1_3f_opt_disp_struct_17.xyz,Nucleus 8C :,0.051424,0.307172,-1.797715,61.7,155.24,30.3,-0.44,237.47,264.41,268.83,-82.58,-234.16,-268.87,-0.44,30.3,155.24,0,155.68,-0.61
rw_cut_5_p1_3f_opt_disp_struct_17.xyz,Nucleus 9C :,5.56771,-9.264606,3.89181,18.8,-53.13,78.3,31.23,234.04,266.55,265.95,-155.8,-235.21,-319.11,-53.13,31.23,78.3,0,131.43,0.28
rw_cut_5_p1_3f_opt_disp_struct_17.xyz,Nucleus 11C :,5.758757,-8.897451,4.907175,79.53,153.74,14.78,70.08,235.71,263.59,275.77,-82.2,-252.52,-201.74,14.78,70.08,153.74,0,138.96,-0.2
rw_cut_5_p1_3f_opt_disp_struct_17.xyz,Nucleus 13C :,4.60983,-9.793798,3.8589,27.16,87.45,18.95,-24.92,232.99,260.64,271.11,-145.56,-251.33,-286.38,-24.92,18.95,87.45,0,112.37,-0.22
rw_cut_5_p1_3f_opt_disp_struct_17.xyz,Nucleus 15C :,5.59352,-8.185266,2.908024,38.76,88.7,26.47,1.12,234.39,270.88,265.49,-145.86,-244.25,-264.36,1.12,26.47,88.7,0,87.58,-0.42
rw_cut_5_p1_3f_opt_disp_struct_17.xyz,Nucleus 19C :,6.423171,-8.093106,2.34494,155.11,130.31,146.48,188.55,205.52,183.92,275.67,-37.39,-73.65,-88.74,130.31,146.48,188.55,0,58.24,-0.44
rw_cut_5_p1_3f_opt_disp_struct_17.xyz,Nucleus 24C :,4.695412,-7.191976,2.829349,21.27,115.56,-15.92,-35.83,240.74,273.93,262.91,-125.64,-280.73,-307.42,-35.83,-15.92,115.56,0,151.39,-0.74
rw_cut_5_p1_3f_opt_disp_struct_17.xyz,Nucleus 5N :,4.832395,-6.269069,1.876989,121.47,49.42,184.7,130.3,294.62,337.03,330.53,-110.05,-205.69,-282.01,49.42,130.3,184.7,0,135.28,0.2
rw_cut_5_p1_3f_opt_disp_struct_17.xyz,Nucleus 22N :,4.193822,-5.485448,1.792715,166.87,98.87,220.89,180.84,268.18,350.97,329.24,-238.38,-123.58,-85.83,98.87,180.84,220.89,0,122.02,0.34
rw_cut_5_p1_3f_opt_disp_struct_17.xyz,Nucleus 25N :,3.669294,-7.090838,3.674431,175.14,115.25,176.19,233.98,352.71,323.36,336.03,-212.95,-171.55,-102.19,115.25,176.19,233.98,0,118.73,0.03
rw_cut_5_p1_3f_opt_disp_struct_17.xyz,Nucleus 27N :,3.56878,-7.722185,4.450943,174.96,114.73,214.03,196.12,305.37,341.72,323.85,-210.79,-126.74,-108.53,114.73,196.12,214.03,0,99.3,0.64
rw_cut_5_p1_3f_opt_disp_struct_17.xyz,Nucleus 10F :,2.929327,-6.42421,3.492693,302.35,397.65,220.82,288.57,483.05,458.41,465.85,-68.13,-237.98,-194.16,220.82,288.57,397.65,0,176.83,-0.23
rw_cut_5_p1_3f_opt_disp_struct_17.xyz,Nucleus 14F :,6.349134,-9.978902,3.632904,322.3,411.83,296.78,258.28,460.66,473.72,479.32,-61.88,-181.47,-203.45,258.28,296.78,411.83,0,153.55,-0.5
rw_cut_5_p1_3f_opt_disp_struct_17.xyz,Nucleus 16F :,5.50105,-6.395824,1.13613,349.11,456.94,302.25,288.13,484.39,466.33,459.05,-9.37,-165.74,-187.35,288.13,302.25,456.94,0,168.81,-0.83
rw_cut_5_p1_3f_opt_disp_struct_18.xyz,Nucleus 1H :,0.981399,-0.024373,-1.324554,29.15,35.31,23.48,28.65,40.74,26.07,30.67,-6.56,-0.7,-2.79,23.48,28.65,35.31,0,11.83,-0.13
rw_cut_5_p1_3f_opt_disp_struct_18.xyz,Nucleus 2H :,1.795408,0.586751,-1.71981,28.92,23.95,27.93,34.88,46.38,27.92,25.82,-12.07,-3.42,2.13,23.95,27.93,34.88,0,10.93,-0.27
rw_cut_5_p1_3f_opt_disp_struct_18.xyz,Nucleus 6H :,1.145635,-1.058186,-1.646847,23.68,15.41,25.3,30.33,50.31,10.85,30.22,-20.33,-4.77,4.76,15.41,25.3,30.33,0,14.92,0.33
rw_cut_5_p1_3f_opt_disp_struct_18.xyz,Nucleus 12H :,0.905116,0.09174,0.155743,24.46,20.63,25.08,27.67,47.71,16.28,31.47,-22.68,4.42,-3.83,20.63,25.08,27.67,0,7.04,0.26
rw_cut_5_p1_3f_opt_disp_struct_18.xyz,Nucleus 17H :,1.690058,0.899114,0.95722,24.24,20.62,25.45,26.64,44.93,27.14,31.87,-19.41,-6.42,-5.39,20.62,25.45,26.64,0,6.02,0.6
rw_cut_5_p1_3f_opt_disp_struct_18.xyz,Nucleus 18H :,1.307493,0.722728,2.259985,28.7,35.03,27.16,23.92,42.42,27.15,32.21,-0.32,-9.13,-6.21,23.92,27.16,35.03,0,11.11,-0.42
rw_cut_5_p1_3f_opt_disp_struct_18.xyz,Nucleus 20H :,1.683008,1.21115,3.056402,28.51,35.06,24.14,26.34,-18.43,15.53,40.31,45.6,9.15,-6.63,24.14,26.34,35.06,0,10.92,-0.6
rw_cut_5_p1_3f_opt_disp_struct_18.xyz,Nucleus 21H :,0.280041,-0.186162,2.326801,28.5,34.41,26.73,24.37,-15.61,18.66,40.71,42.67,6.81,-7.72,24.37,26.73,34.41,0,10.04,-0.53
rw_cut_5_p1_3f_opt_disp_struct_18.xyz,Nucleus 23H :,0.000484,-0.600889,1.022463,26.84,18.69,33.85,27.98,-5.73,51.81,26.41,24.68,-18.05,1.4,18.69,27.98,33.85,0,15.16,0.23
rw_cut_5_p1_3f_opt_disp_struct_18.xyz,Nucleus 26H :,-1.033911,-1.543398,0.834772,26.65,35.74,23.98,20.23,87.26,45.18,29.07,-66.85,-10.44,-4.26,20.23,23.98,35.74,0,15.51,-0.52
rw_cut_5_p1_3f_opt_disp_struct_18.xyz,Nucleus 28H :,-1.345669,-1.97385,-0.396096,26.47,19.82,26.01,33.57,-1.77,25.06,59.55,21.68,0.86,-25.99,19.82,26.01,33.57,0,13.75,-0.1
rw_cut_5_p1_3f_opt_disp_struct_18.xyz,Nucleus 29H :,-1.748654,-2.043226,1.924093,26.47,34.99,24.23,20.19,69.07,43.44,32.13,-48.8,-8.53,-7.89,20.19,24.23,34.99,0,14.8,-0.45
rw_cut_5_p1_3f_opt_disp_struct_18.xyz,Nucleus 30H :,-2.556332,-2.750557,1.772223,28.13,34.91,23.55,25.94,-35.26,10.02,38.17,58.95,15.86,-3.35,23.55,25.94,34.91,0,11.36,-0.58
rw_cut_5_p1_3f_opt_disp_struct_18.xyz,Nucleus 31H :,-1.439009,-1.606831,3.204403,26.99,34.64,20.74,25.6,27.09,41.23,51.0,-0.98,-12.65,-24.72,20.74,25.6,34.64,0,13.9,-0.3
rw_cut_5_p1_3f_opt_disp_struct_18.xyz,Nucleus 0C :,-2.133026,-2.094737,4.242684,171.28,186.87,160.65,166.33,258.71,237.2,237.83,-79.54,-73.75,-66.59,160.65,166.33,186.87,0,26.22,-0.57
rw_cut_5_p1_3f_opt_disp_struct_18.xyz,Nucleus 3C :,-0.425595,-0.67535,3.428368,61.35,148.13,53.25,-17.32,241.93,274.14,263.78,-93.84,-220.86,-281.09,-17.32,53.25,148.13,0,165.45,-0.15
rw_cut_5_p1_3f_opt_disp_struct_18.xyz,Nucleus 4C :,-0.135025,-0.259092,4.668064,55.13,-28.08,126.43,67.04,258.25,257.3,274.65,-291.94,-131.51,-201.35,-28.08,67.04,126.43,0,154.51,0.23
rw_cut_5_p1_3f_opt_disp_struct_18.xyz,Nucleus 7C :,2.476134,1.588281,0.686909,51.41,137.31,-1.9,18.81,259.89,272.18,266.74,-122.61,-273.93,-248.03,-1.9,18.81,137.31,0,139.21,-0.7
rw_cut_5_p1_3f_opt_disp_struct_18.xyz,Nucleus 8C :,0.051424,0.307172,-1.797715,61.69,155.23,30.28,-0.44,237.45,264.38,268.63,-82.56,-234.11,-268.73,-0.44,30.28,155.23,0,155.67,-0.61
rw_cut_5_p1_3f_opt_disp_struct_18.xyz,Nucleus 9C :,5.733188,-9.450504,3.915452,18.79,-53.15,78.28,31.24,234.03,266.45,265.76,-155.82,-235.12,-318.95,-53.15,31.24,78.28,0,131.43,0.28
rw_cut_5_p1_3f_opt_disp_struct_18.xyz,Nucleus 11C :,5.924235,-9.083349,4.930817,79.52,153.72,14.76,70.09,235.72,263.58,275.6,-82.24,-252.43,-201.67,14.76,70.09,153.72,0,138.96,-0.2
rw_cut_5_p1_3f_opt_disp_struct_18.xyz,Nucleus 13C :,4.775308,-9.979696,3.882541,27.14,87.42,18.94,-24.94,232.94,260.64,270.97,-145.53,-251.21,-286.39,-24.94,18.94,87.42,0,112.36,-0.22
rw_cut_5_p1_3f_opt_disp_struct_18.xyz,Nucleus 15C :,5.758998,-8.371164,2.931665,38.75,88.68,26.46,1.11,234.39,270.72,265.5,-145.87,-244.13,-264.37,1.11,26.46,88.68,0,87.57,-0.42
rw_cut_5_p1_3f_opt_disp_struct_18.xyz,Nucleus 19C :,6.588649,-8.279004,2.368582,155.11,130.3,146.48,188.54,205.09,183.03,276.24,-36.51,-73.33,-89.21,130.3,146.48,188.54,0,58.24,-0.44
rw_cut_5_p1_3f_opt_disp_struct_18.xyz,Nucleus 24C :,4.86089,-7.377874,2.85299,21.25,115.57,-15.96,-35.85,240.98,274.32,262.84,-125.89,-280.69,-307.78,-35.85,-15.96,115.57,0,151.42,-0.74
rw_cut_5_p1_3f_opt_disp_struct_18.xyz,Nucleus 5N :,4.997873,-6.454968,1.90063,121.54,49.53,184.68,130.4,294.59,337.04,330.43,-110.03,-205.63,-281.8,49.53,130.4,184.68,0,135.15,0.2
rw_cut_5_p1_3f_opt_disp_struct_18.xyz,Nucleus 22N :,4.3593,-5.671346,1.816357,166.83,98.83,220.82,180.85,266.76,351.4,329.17,-238.81,-123.58,-84.43,98.83,180.85,220.82,0,121.99,0.34
rw_cut_5_p1_3f_opt_disp_struct_18.xyz,Nucleus 25N :,3.834772,-7.276736,3.698072,175.12,115.2,176.19,233.97,353.74,323.31,336.19,-213.17,-172.47,-102.24,115.2,176.19,233.97,0,118.77,0.03
rw_cut_5_p1_3f_opt_disp_struct_18.xyz,Nucleus 27N :,3.734258,-7.908084,4.474585,174.96,114.7,214.06,196.12,306.0,342.04,323.79,-210.82,-126.94,-109.18,114.7,196.12,214.06,0,99.36,0.64
rw_cut_5_p1_3f_opt_disp_struct_18.xyz,Nucleus 10F :,3.094805,-6.610108,3.516334,302.44,397.65,220.97,288.7,482.98,458.42,465.86,-68.14,-237.81,-193.99,220.97,288.7,397.65,0,176.68,-0.23
rw_cut_5_p1_3f_opt_disp_struct_18.xyz,Nucleus 14F :,6.514612,-10.164801,3.656545,322.35,411.85,296.86,258.35,460.66,473.7,479.31,-61.85,-181.4,-203.36,258.35,296.86,411.85,0,153.5,-0.5
rw_cut_5_p1_3f_opt_disp_struct_18.xyz,Nucleus 16F :,5.666528,-6.581722,1.159771,349.21,456.97,302.38,288.27,484.35,466.23,459.11,-9.24,-165.62,-187.2,288.27,302.38,456.97,0,168.7,-0.83
rw_cut_5_p1_3f_opt_disp_struct_19.xyz,Nucleus 1H :,0.981399,-0.024373,-1.324554,29.15,35.31,23.48,28.66,40.73,26.07,30.6,-6.54,-0.68,-2.73,23.48,28.66,35.31,0,11.83,-0.12
rw_cut_5_p1_3f_opt_disp_struct_19.xyz,Nucleus 2H :,1.795408,0.586751,-1.71981,28.91,23.94,27.92,34.88,46.28,27.85,25.8,-12.0,-3.33,2.14,23.94,27.92,34.88,0,10.94,-0.27
rw_cut_5_p1_3f_opt_disp_struct_19.xyz,Nucleus 6H :,1.145635,-1.058186,-1.646847,23.69,15.41,25.31,30.34,50.21,10.84,30.23,-20.22,4.76,-4.78,15.41,25.31,30.34,0,14.93,0.33
rw_cut_5_p1_3f_opt_disp_struct_19.xyz,Nucleus 12H :,0.905116,0.09174,0.155743,24.46,20.62,25.08,27.68,47.62,16.27,31.43,-22.58,4.43,-3.78,20.62,25.08,27.68,0,7.06,0.26
rw_cut_5_p1_3f_opt_disp_struct_19.xyz,Nucleus 17H :,1.690058,0.899114,0.95722,24.24,20.63,25.45,26.65,44.9,27.14,31.82,-19.38,-6.43,-5.32,20.63,25.45,26.65,0,6.02,0.6
rw_cut_5_p1_3f_opt_disp_struct_19.xyz,Nucleus 18H :,1.307493,0.722728,2.259985,28.71,35.03,27.17,23.93,42.4,27.13,32.2,-0.3,-9.14,-6.15,23.93,27.17,35.03,0,11.1,-0.42
rw_cut_5_p1_3f_opt_disp_struct_19.xyz,Nucleus 20H :,1.683008,1.21115,3.056402,28.51,35.06,24.14,26.33,-19.34,15.46,40.39,46.53,9.23,-6.74,24.14,26.33,35.06,0,10.92,-0.6
rw_cut_5_p1_3f_opt_disp_struct_19.xyz,Nucleus 21H :,0.280041,-0.186162,2.326801,28.5,34.41,26.72,24.38,-16.45,18.6,40.81,43.54,6.85,-7.86,24.38,26.72,34.41,0,10.03,-0.53
rw_cut_5_p1_3f_opt_disp_struct_19.xyz,Nucleus 23H :,0.000484,-0.600889,1.022463,26.83,18.69,33.84,27.96,-6.97,51.98,26.27,25.91,-18.23,1.53,18.69,27.96,33.84,0,15.15,0.22
rw_cut_5_p1_3f_opt_disp_struct_19.xyz,Nucleus 26H :,-1.033911,-1.543398,0.834772,26.63,35.63,23.99,20.26,88.96,45.0,29.31,-68.53,-10.44,-4.41,20.26,23.99,35.63,0,15.37,-0.52
rw_cut_5_p1_3f_opt_disp_struct_19.xyz,Nucleus 28H :,-1.345669,-1.97385,-0.396096,26.46,19.83,25.98,33.57,-1.9,25.05,59.99,21.82,0.84,-26.43,19.83,25.98,33.57,0,13.74,-0.1
rw_cut_5_p1_3f_opt_disp_struct_19.xyz,Nucleus 29H :,-1.748654,-2.043226,1.924093,26.45,34.92,24.23,20.21,70.73,43.41,32.34,-50.44,-8.56,-8.11,20.21,24.23,34.92,0,14.71,-0.45
rw_cut_5_p1_3f_opt_disp_struct_19.xyz,Nucleus 30H :,-2.556332,-2.750557,1.772223,28.13,34.89,23.55,25.94,-36.57,9.73,38.15,60.27,16.15,-3.35,23.55,25.94,34.89,0,11.34,-0.58
rw_cut_5_p1_3f_opt_disp_struct_19.xyz,Nucleus 31H :,-1.439009,-1.606831,3.204403,26.98,34.65,20.75,25.55,26.96,41.33,51.26,-0.9,-12.76,-24.95,20.75,25.55,34.65,0,13.9,-0.31
rw_cut_5_p1_3f_opt_disp_struct_19.xyz,Nucleus 0C :,-2.133026,-2.094737,4.242684,171.29,186.88,160.67,166.31,258.63,237.24,237.77,-79.42,-73.77,-66.6,160.67,166.31,186.88,0,26.21,-0.57
rw_cut_5_p1_3f_opt_disp_struct_19.xyz,Nucleus 3C :,-0.425595,-0.67535,3.428368,61.36,148.13,53.27,-17.31,241.91,274.0,263.75,-93.83,-220.69,-281.06,-17.31,53.27,148.13,0,165.44,-0.15
rw_cut_5_p1_3f_opt_disp_struct_19.xyz,Nucleus 4C :,-0.135025,-0.259092,4.668064,55.18,-28.01,126.41,67.15,258.12,257.44,274.57,-291.91,-131.53,-201.15,-28.01,67.15,126.41,0,154.42,0.23
rw_cut_5_p1_3f_opt_disp_struct_19.xyz,Nucleus 7C :,2.476134,1.588281,0.686909,51.4,137.29,-1.92,18.83,259.89,272.08,266.73,-122.65,-273.84,-248.02,-1.92,18.83,137.29,0,139.21,-0.7
rw_cut_5_p1_3f_opt_disp_struct_19.xyz,Nucleus 8C :,0.051424,0.307172,-1.797715,61.68,155.22,30.26,-0.43,237.43,264.34,268.46,-82.53,-234.06,-268.59,-0.43,30.26,155.22,0,155.65,-0.61
rw_cut_5_p1_3f_opt_disp_struct_19.xyz,Nucleus 9C :,5.898666,-9.636402,3.939093,18.77,-53.17,78.25,31.24,234.03,266.37,265.59,-155.83,-235.04,-318.8,-53.17,31.24,78.25,0,131.42,0.28
rw_cut_5_p1_3f_opt_disp_struct_19.xyz,Nucleus 11C :,6.089713,-9.269247,4.954458,79.51,153.69,14.74,70.09,235.74,263.56,275.44,-82.27,-252.35,-201.61,14.74,70.09,153.69,0,138.95,-0.2
rw_cut_5_p1_3f_opt_disp_struct_19.xyz,Nucleus 13C :,4.940786,-10.165594,3.906183,27.12,87.4,18.94,-24.97,232.89,260.64,270.83,-145.5,-251.1,-286.39,-24.97,18.94,87.4,0,112.37,-0.22
rw_cut_5_p1_3f_opt_disp_struct_19.xyz,Nucleus 15C :,5.924476,-8.557063,2.955307,38.74,88.65,26.46,1.11,234.39,270.57,265.5,-145.87,-244.01,-264.37,1.11,26.46,88.65,0,87.54,-0.42
rw_cut_5_p1_3f_opt_disp_struct_19.xyz,Nucleus 19C :,6.754127,-8.464902,2.392223,155.11,130.3,146.49,188.53,204.66,182.14,276.81,-35.63,-73.0,-89.68,130.3,146.49,188.53,0,58.23,-0.44
rw_cut_5_p1_3f_opt_disp_struct_19.xyz,Nucleus 24C :,5.026368,-7.563772,2.876632,21.24,115.58,-15.99,-35.86,241.21,274.7,262.78,-126.15,-280.67,-308.13,-35.86,-15.99,115.58,0,151.44,-0.74
rw_cut_5_p1_3f_opt_disp_struct_19.xyz,Nucleus 5N :,5.163351,-6.640866,1.924272,121.59,49.62,184.66,130.48,294.55,337.05,330.34,-110.01,-205.59,-281.59,49.62,130.48,184.66,0,135.04,0.2
rw_cut_5_p1_3f_opt_disp_struct_19.xyz,Nucleus 22N :,4.524778,-5.857244,1.839998,166.8,98.79,220.75,180.87,265.34,351.82,329.1,-239.24,-123.59,-83.02,98.79,180.87,220.75,0,121.96,0.35
rw_cut_5_p1_3f_opt_disp_struct_19.xyz,Nucleus 25N :,4.00025,-7.462634,3.721714,175.11,115.15,176.2,233.97,354.76,323.27,336.35,-213.39,-173.38,-102.28,115.15,176.2,233.97,0,118.82,0.03
rw_cut_5_p1_3f_opt_disp_struct_19.xyz,Nucleus 27N :,3.899736,-8.093982,4.498227,174.96,114.67,214.09,196.12,342.36,306.61,323.73,-210.85,-127.15,-109.81,114.67,196.12,214.09,0,99.42,0.64
rw_cut_5_p1_3f_opt_disp_struct_19.xyz,Nucleus 10F :,3.260283,-6.796006,3.539976,302.52,397.65,221.1,288.82,482.92,458.44,465.86,-68.15,-237.67,-193.82,221.1,288.82,397.65,0,176.55,-0.23
rw_cut_5_p1_3f_opt_disp_struct_19.xyz,Nucleus 14F :,6.68009,-10.350699,3.680187,322.4,411.86,296.93,258.42,460.65,473.68,479.29,-61.81,-181.33,-203.27,258.42,296.93,411.86,0,153.44,-0.5
rw_cut_5_p1_3f_opt_disp_struct_19.xyz,Nucleus 16F :,5.832006,-6.76762,1.183413,349.29,456.99,302.49,288.4,484.3,466.14,459.16,-9.13,-165.52,-187.06,288.4,302.49,456.99,0,168.59,-0.83
rw_cut_5_p1_3f_opt_disp_struct_2.xyz,Nucleus 1H :,0.981399,-0.024373,-1.324554,28.97,35.45,23.31,28.16,41.05,25.56,31.8,-0.69,-6.63,-4.17,23.31,28.16,35.45,0,12.14,-0.2
rw_cut_5_p1_3f_opt_disp_struct_2.xyz,Nucleus 2H :,1.795408,0.586751,-1.71981,29.03,24.12,28.38,34.6,48.32,28.93,26.58,1.93,-4.75,-13.92,24.12,28.38,34.6,0,10.48,-0.19
rw_cut_5_p1_3f_opt_disp_struct_2.xyz,Nucleus 6H :,1.145635,-1.058186,-1.646847,23.31,15.14,24.84,29.94,52.22,10.54,28.93,-22.71,-4.14,5.07,15.14,24.84,29.94,0,14.8,0.31
rw_cut_5_p1_3f_opt_disp_struct_2.xyz,Nucleus 12H :,0.905116,0.09174,0.155743,24.2,20.6,25.08,26.91,48.89,16.56,31.0,-24.12,4.51,-4.26,20.6,25.08,26.91,0,6.31,0.42
rw_cut_5_p1_3f_opt_disp_struct_2.xyz,Nucleus 17H :,1.690058,0.899114,0.95722,23.95,20.25,25.35,26.25,45.1,26.51,32.75,-19.7,-5.95,-6.85,20.25,25.35,26.25,0,6.0,0.7
rw_cut_5_p1_3f_opt_disp_struct_2.xyz,Nucleus 18H :,1.307493,0.722728,2.259985,28.6,35.23,26.91,23.65,43.03,27.72,32.13,-0.72,-8.6,-7.76,23.65,26.91,35.23,0,11.58,-0.44
rw_cut_5_p1_3f_opt_disp_struct_2.xyz,Nucleus 20H :,1.683008,1.21115,3.056402,28.7,35.28,24.1,26.73,-3.65,16.5,39.42,30.35,8.39,-4.9,24.1,26.73,35.28,0,11.18,-0.53
rw_cut_5_p1_3f_opt_disp_struct_2.xyz,Nucleus 21H :,0.280041,-0.186162,2.326801,28.67,34.6,27.12,24.3,-2.26,19.66,39.59,28.55,6.34,-5.86,24.3,27.12,34.6,0,10.3,-0.45
rw_cut_5_p1_3f_opt_disp_struct_2.xyz,Nucleus 23H :,0.000484,-0.600889,1.022463,27.24,18.56,34.37,28.78,49.07,14.34,29.37,-14.74,4.85,-1.19,18.56,28.78,34.37,0,15.81,0.29
rw_cut_5_p1_3f_opt_disp_struct_2.xyz,Nucleus 26H :,-1.033911,-1.543398,0.834772,28.19,43.0,18.45,23.12,20.11,53.56,56.2,-35.89,3.04,-12.44,18.45,23.12,43.0,0,24.55,-0.62
rw_cut_5_p1_3f_opt_disp_struct_2.xyz,Nucleus 28H :,-1.345669,-1.97385,-0.396096,26.88,19.53,27.15,33.96,-0.3,24.55,52.84,20.05,2.43,-18.92,19.53,27.15,33.96,0,14.43,0.06
rw_cut_5_p1_3f_opt_disp_struct_2.xyz,Nucleus 29H :,-1.748654,-2.043226,1.924093,27.48,40.13,23.4,18.91,23.81,48.25,38.34,-19.36,0.73,-9.31,18.91,23.4,40.13,0,21.22,-0.58
rw_cut_5_p1_3f_opt_disp_struct_2.xyz,Nucleus 30H :,-2.556332,-2.750557,1.772223,28.33,35.55,23.51,25.93,-13.64,14.68,38.91,37.33,11.17,-3.46,23.51,25.93,35.55,0,12.04,-0.6
rw_cut_5_p1_3f_opt_disp_struct_2.xyz,Nucleus 31H :,-1.439009,-1.606831,3.204403,27.7,20.34,34.67,28.09,31.3,38.64,45.75,-19.77,-10.04,-2.77,20.34,28.09,34.67,0,14.33,0.08
rw_cut_5_p1_3f_opt_disp_struct_2.xyz,Nucleus 0C :,-2.133026,-2.094737,4.242684,171.55,160.45,167.41,186.8,260.89,236.67,239.83,-82.92,-73.06,-66.74,160.45,167.41,186.8,0,26.35,-0.47
rw_cut_5_p1_3f_opt_disp_struct_2.xyz,Nucleus 3C :,-0.425595,-0.67535,3.428368,61.37,148.1,52.94,-16.93,242.17,277.72,264.17,-94.14,-224.72,-281.11,-16.93,52.94,148.1,0,165.03,-0.15
rw_cut_5_p1_3f_opt_disp_struct_2.xyz,Nucleus 4C :,-0.135025,-0.259092,4.668064,51.52,-32.97,127.28,60.26,277.64,258.74,255.06,-296.52,-130.09,-210.26,-32.97,60.26,127.28,0,160.25,0.16
rw_cut_5_p1_3f_opt_disp_struct_2.xyz,Nucleus 7C :,2.476134,1.588281,0.686909,51.87,138.17,-0.37,17.82,275.32,260.34,266.73,-122.82,-275.63,-248.32,-0.37,17.82,138.17,0,138.54,-0.74
rw_cut_5_p1_3f_opt_disp_struct_2.xyz,Nucleus 8C :,0.051424,0.307172,-1.797715,63.05,155.99,32.83,0.32,237.11,273.26,260.34,-81.71,-229.07,-270.79,0.32,32.83,155.99,0,155.67,-0.58
rw_cut_5_p1_3f_opt_disp_struct_2.xyz,Nucleus 9C :,3.085541,-6.476134,3.537186,19.41,-51.56,79.75,30.04,237.61,267.91,271.14,-158.28,-237.53,-322.61,-51.56,30.04,79.75,0,131.31,0.24
rw_cut_5_p1_3f_opt_disp_struct_2.xyz,Nucleus 11C :,3.276588,-6.108979,4.552551,79.74,155.18,15.36,68.69,234.05,262.76,278.07,-80.1,-252.16,-203.39,15.36,68.69,155.18,0,139.82,-0.24
rw_cut_5_p1_3f_opt_disp_struct_2.xyz,Nucleus 13C :,2.12766,-7.005326,3.504275,28.87,88.75,19.55,-21.69,235.93,260.22,272.8,-148.2,-251.61,-282.53,-21.69,19.55,88.75,0,110.44,-0.25
rw_cut_5_p1_3f_opt_disp_struct_2.xyz,Nucleus 15C :,3.111351,-5.396794,2.5534,38.67,89.82,25.67,0.52,235.39,273.8,264.82,-146.56,-246.79,-264.66,0.52,25.67,89.82,0,89.3,-0.44
rw_cut_5_p1_3f_opt_disp_struct_2.xyz,Nucleus 19C :,3.941002,-5.304634,1.990316,155.35,130.75,146.37,188.93,212.61,198.13,266.95,-51.45,-84.87,-75.31,130.75,146.37,188.93,0,58.18,-0.46
rw_cut_5_p1_3f_opt_disp_struct_2.xyz,Nucleus 24C :,2.213243,-4.403504,2.474725,21.8,115.49,-15.91,-34.17,235.82,267.65,265.45,-120.51,-283.5,-299.49,-34.17,-15.91,115.49,0,149.66,-0.76
rw_cut_5_p1_3f_opt_disp_struct_2.xyz,Nucleus 5N :,2.350226,-3.480597,1.522364,116.91,41.84,185.23,123.65,294.29,337.15,331.62,-109.79,-211.28,-291.27,41.84,123.65,185.23,0,143.39,0.14
rw_cut_5_p1_3f_opt_disp_struct_2.xyz,Nucleus 22N :,1.711653,-2.696976,1.438091,169.37,102.84,225.48,179.8,291.78,346.16,330.11,-229.18,-122.77,-107.98,102.84,179.8,225.48,0,122.64,0.26
rw_cut_5_p1_3f_opt_disp_struct_2.xyz,Nucleus 25N :,1.187124,-4.302366,3.319807,174.77,116.21,176.2,231.9,322.74,328.53,339.73,-209.11,-153.78,-103.8,116.21,176.2,231.9,0,115.69,0.04
rw_cut_5_p1_3f_opt_disp_struct_2.xyz,Nucleus 27N :,1.086611,-4.933713,4.096319,174.09,115.87,196.48,209.92,292.16,334.54,326.57,-211.99,-124.5,-94.5,115.87,196.48,209.92,0,94.05,0.71
rw_cut_5_p1_3f_opt_disp_struct_2.xyz,Nucleus 10F :,0.447157,-3.635738,3.138068,295.61,396.68,209.26,280.9,482.74,455.82,465.87,-68.85,-249.11,-199.64,209.26,280.9,396.68,0,187.42,-0.24
rw_cut_5_p1_3f_opt_disp_struct_2.xyz,Nucleus 14F :,3.866964,-7.19043,3.278279,320.36,410.4,293.74,256.94,454.6,475.24,484.61,-68.08,-182.77,-202.53,256.94,293.74,410.4,0,153.46,-0.52
rw_cut_5_p1_3f_opt_disp_struct_2.xyz,Nucleus 16F :,3.018881,-3.607352,0.781505,341.5,454.59,275.91,293.99,454.66,476.26,482.6,-21.68,-173.72,-193.63,275.91,293.99,454.59,0,178.68,-0.8
rw_cut_5_p1_3f_opt_disp_struct_3.xyz,Nucleus 1H :,0.981399,-0.024373,-1.324554,28.99,35.41,23.34,28.22,41.04,25.69,31.76,-0.76,-6.71,-4.06,23.34,28.22,35.41,0,12.07,-0.19
rw_cut_5_p1_3f_opt_disp_struct_3.xyz,Nucleus 2H :,1.795408,0.586751,-1.71981,29.03,24.14,28.31,34.63,48.16,28.98,26.51,1.89,-4.76,-13.72,24.14,28.31,34.63,0,10.49,-0.21
rw_cut_5_p1_3f_opt_disp_struct_3.xyz,Nucleus 6H :,1.145635,-1.058186,-1.646847,23.36,15.2,24.9,29.97,52.08,10.59,29.08,-22.56,-4.19,5.07,15.2,24.9,29.97,0,14.77,0.31
rw_cut_5_p1_3f_opt_disp_struct_3.xyz,Nucleus 12H :,0.905116,0.09174,0.155743,24.23,20.64,25.03,27.02,48.86,16.51,31.41,-24.09,4.59,-4.58,20.64,25.03,27.02,0,6.38,0.38
rw_cut_5_p1_3f_opt_disp_struct_3.xyz,Nucleus 17H :,1.690058,0.899114,0.95722,24.0,20.32,25.37,26.3,45.16,26.63,32.67,-19.78,-6.0,-6.69,20.32,25.37,26.3,0,5.98,0.69
rw_cut_5_p1_3f_opt_disp_struct_3.xyz,Nucleus 18H :,1.307493,0.722728,2.259985,28.6,35.19,26.93,23.68,42.98,27.73,32.09,-0.75,-8.6,-7.63,23.68,26.93,35.19,0,11.51,-0.44
rw_cut_5_p1_3f_opt_disp_struct_3.xyz,Nucleus 20H :,1.683008,1.21115,3.056402,28.68,35.25,24.1,26.68,-4.65,16.43,39.43,31.38,8.43,-5.0,24.1,26.68,35.25,0,11.15,-0.54
rw_cut_5_p1_3f_opt_disp_struct_3.xyz,Nucleus 21H :,0.280041,-0.186162,2.326801,28.65,34.57,27.07,24.3,-3.13,19.56,39.61,29.49,6.37,-5.95,24.3,27.07,34.57,0,10.27,-0.46
rw_cut_5_p1_3f_opt_disp_struct_3.xyz,Nucleus 23H :,0.000484,-0.600889,1.022463,27.18,18.58,34.28,28.67,49.19,13.06,29.11,-14.93,6.07,-0.97,18.58,28.67,34.28,0,15.7,0.28
rw_cut_5_p1_3f_opt_disp_struct_3.xyz,Nucleus 26H :,-1.033911,-1.543398,0.834772,28.03,41.79,18.88,23.41,21.54,53.31,57.83,-38.28,1.87,-12.19,18.88,23.41,41.79,0,22.91,-0.6
rw_cut_5_p1_3f_opt_disp_struct_3.xyz,Nucleus 28H :,-1.345669,-1.97385,-0.396096,26.83,19.56,27.02,33.91,-0.48,24.6,53.2,20.22,2.26,-19.31,19.56,27.02,33.91,0,14.35,0.04
rw_cut_5_p1_3f_opt_disp_struct_3.xyz,Nucleus 29H :,-1.748654,-2.043226,1.924093,27.39,39.22,23.73,19.21,25.24,47.2,40.64,-21.36,-0.41,-9.15,19.21,23.73,39.22,0,20.01,-0.55
rw_cut_5_p1_3f_opt_disp_struct_3.xyz,Nucleus 30H :,-2.556332,-2.750557,1.772223,28.29,35.47,23.5,25.91,-15.08,14.37,38.82,38.76,11.48,-3.44,23.5,25.91,35.47,0,11.97,-0.6
rw_cut_5_p1_3f_opt_disp_struct_3.xyz,Nucleus 31H :,-1.439009,-1.606831,3.204403,27.61,20.39,34.67,27.76,30.84,38.85,46.17,-20.12,-10.28,-2.64,20.39,27.76,34.67,0,14.28,0.03
rw_cut_5_p1_3f_opt_disp_struct_3.xyz,Nucleus 0C :,-2.133026,-2.094737,4.242684,171.5,160.46,167.28,186.75,260.62,236.71,239.64,-82.57,-73.16,-66.75,160.46,167.28,186.75,0,26.29,-0.48
rw_cut_5_p1_3f_opt_disp_struct_3.xyz,Nucleus 3C :,-0.425595,-0.67535,3.428368,61.39,148.15,53.01,-17.0,241.97,277.45,264.18,-93.85,-224.36,-281.23,-17.0,53.01,148.15,0,165.15,-0.15
rw_cut_5_p1_3f_opt_disp_struct_3.xyz,Nucleus 4C :,-0.135025,-0.259092,4.668064,52.14,-32.09,127.17,61.35,259.41,254.41,277.33,-295.58,-130.19,-208.94,-32.09,61.35,127.17,0,159.26,0.17
rw_cut_5_p1_3f_opt_disp_struct_3.xyz,Nucleus 7C :,2.476134,1.588281,0.686909,51.84,138.07,-0.52,17.97,275.26,259.9,266.6,-122.29,-275.73,-248.22,-0.52,17.97,138.07,0,138.59,-0.73
rw_cut_5_p1_3f_opt_disp_struct_3.xyz,Nucleus 8C :,0.051424,0.307172,-1.797715,62.79,155.87,32.31,0.18,237.37,274.01,261.4,-82.21,-230.83,-271.39,0.18,32.31,155.87,0,155.69,-0.59
rw_cut_5_p1_3f_opt_disp_struct_3.xyz,Nucleus 9C :,3.251019,-6.662032,3.560828,19.41,-51.74,79.53,30.43,236.4,268.52,270.94,-157.46,-237.57,-322.61,-51.74,30.43,79.53,0,131.27,0.25
rw_cut_5_p1_3f_opt_disp_struct_3.xyz,Nucleus 11C :,3.442066,-6.294877,4.576193,79.89,154.98,15.48,69.2,234.34,262.73,278.54,-80.29,-252.33,-203.33,15.48,69.2,154.98,0,139.5,-0.23
rw_cut_5_p1_3f_opt_disp_struct_3.xyz,Nucleus 13C :,2.293138,-7.191224,3.527917,28.51,88.51,19.41,-22.38,235.43,259.98,272.95,-147.56,-251.85,-283.41,-22.38,19.41,88.51,0,110.89,-0.25
rw_cut_5_p1_3f_opt_disp_struct_3.xyz,Nucleus 15C :,3.276829,-5.582692,2.577041,38.88,89.64,26.03,0.97,235.04,274.0,264.71,-146.35,-246.63,-264.13,0.97,26.03,89.64,0,88.67,-0.43
rw_cut_5_p1_3f_opt_disp_struct_3.xyz,Nucleus 19C :,4.106479,-5.490532,2.013958,155.31,130.67,146.37,188.89,212.06,197.11,267.58,-50.46,-84.88,-75.47,130.67,146.37,188.89,0,58.22,-0.46
rw_cut_5_p1_3f_opt_disp_struct_3.xyz,Nucleus 24C :,2.378721,-4.589402,2.498366,21.72,115.36,-15.63,-34.57,236.19,267.58,265.6,-121.01,-282.81,-300.39,-34.57,-15.63,115.36,0,149.93,-0.75
rw_cut_5_p1_3f_opt_disp_struct_3.xyz,Nucleus 5N :,2.515704,-3.666495,1.546006,117.74,43.21,185.18,124.84,294.1,337.19,331.57,-109.78,-210.4,-289.45,43.21,124.84,185.18,0,141.97,0.15
rw_cut_5_p1_3f_opt_disp_struct_3.xyz,Nucleus 22N :,1.877131,-2.882874,1.461733,168.85,101.94,224.61,179.99,289.97,346.27,330.03,-230.34,-122.82,-106.57,101.94,179.99,224.61,0,122.67,0.27
rw_cut_5_p1_3f_opt_disp_struct_3.xyz,Nucleus 25N :,1.352602,-4.488264,3.343448,175.2,116.28,176.34,232.97,323.28,339.96,330.15,-209.49,-155.39,-102.91,116.28,176.34,232.97,0,116.69,0.03
rw_cut_5_p1_3f_opt_disp_struct_3.xyz,Nucleus 27N :,1.252089,-5.119611,4.119961,174.62,115.84,196.49,211.53,293.42,335.34,326.19,-211.58,-123.68,-95.83,115.84,196.49,211.53,0,95.69,0.69
rw_cut_5_p1_3f_opt_disp_struct_3.xyz,Nucleus 10F :,0.612635,-3.821636,3.16171,296.88,396.95,211.49,282.2,482.97,456.27,465.76,-68.58,-246.97,-198.79,211.49,282.2,396.95,0,185.46,-0.24
rw_cut_5_p1_3f_opt_disp_struct_3.xyz,Nucleus 14F :,4.032442,-7.376328,3.301921,320.59,410.69,294.14,256.93,454.84,475.34,484.32,-67.22,-182.69,-202.84,256.93,294.14,410.69,0,153.76,-0.52
rw_cut_5_p1_3f_opt_disp_struct_3.xyz,Nucleus 16F :,3.184359,-3.79325,0.805147,343.02,455.0,278.55,295.51,454.95,475.67,482.71,-20.18,-171.73,-192.35,278.55,295.51,455.0,0,176.45,-0.81
rw_cut_5_p1_3f_opt_disp_struct_4.xyz,Nucleus 1H :,0.981399,-0.024373,-1.324554,28.98,35.37,23.31,28.26,41.03,25.75,31.69,-6.77,-0.82,-3.93,23.31,28.26,35.37,0,12.06,-0.18
rw_cut_5_p1_3f_opt_disp_struct_4.xyz,Nucleus 2H :,1.795408,0.586751,-1.71981,29.0,24.1,28.23,34.66,48.0,28.96,26.42,1.88,-4.74,-13.54,24.1,28.23,34.66,0,10.56,-0.22
rw_cut_5_p1_3f_opt_disp_struct_4.xyz,Nucleus 6H :,1.145635,-1.058186,-1.646847,23.39,15.23,24.92,30.01,51.96,10.61,29.19,-22.42,-4.26,5.08,15.23,24.92,30.01,0,14.78,0.31
rw_cut_5_p1_3f_opt_disp_struct_4.xyz,Nucleus 12H :,0.905116,0.09174,0.155743,24.23,20.67,24.97,27.06,48.8,16.46,31.62,-24.05,4.65,-4.77,20.67,24.97,27.06,0,6.39,0.35
rw_cut_5_p1_3f_opt_disp_struct_4.xyz,Nucleus 17H :,1.690058,0.899114,0.95722,24.01,20.31,25.38,26.34,45.18,26.69,32.59,-19.86,-6.06,-6.53,20.31,25.38,26.34,0,6.03,0.68
rw_cut_5_p1_3f_opt_disp_struct_4.xyz,Nucleus 18H :,1.307493,0.722728,2.259985,28.59,35.16,26.91,23.71,42.93,27.7,32.07,-0.77,-8.65,-7.5,23.71,26.91,35.16,0,11.45,-0.44
rw_cut_5_p1_3f_opt_disp_struct_4.xyz,Nucleus 20H :,1.683008,1.21115,3.056402,28.69,35.23,24.15,26.7,-5.56,16.39,39.45,32.41,8.49,-5.1,24.15,26.7,35.23,0,11.08,-0.54
rw_cut_5_p1_3f_opt_disp_struct_4.xyz,Nucleus 21H :,0.280041,-0.186162,2.326801,28.67,34.57,27.09,24.34,-3.92,19.5,39.64,30.43,6.41,-6.06,24.34,27.09,34.57,0,10.23,-0.46
rw_cut_5_p1_3f_opt_disp_struct_4.xyz,Nucleus 23H :,0.000484,-0.600889,1.022463,27.16,18.65,34.23,28.59,49.35,11.86,28.87,-15.14,7.28,-0.76,18.65,28.59,34.23,0,15.58,0.28
rw_cut_5_p1_3f_opt_disp_struct_4.xyz,Nucleus 26H :,-1.033911,-1.543398,0.834772,27.74,40.72,19.0,23.51,22.57,52.22,60.11,-40.65,0.95,-11.96,19.0,23.51,40.72,0,21.72,-0.58
rw_cut_5_p1_3f_opt_disp_struct_4.xyz,Nucleus 28H :,-1.345669,-1.97385,-0.396096,26.79,19.62,26.93,33.81,-0.64,24.7,53.59,20.41,2.1,-19.8,19.62,26.93,33.81,0,14.19,0.03
rw_cut_5_p1_3f_opt_disp_struct_4.xyz,Nucleus 29H :,-1.748654,-2.043226,1.924093,27.2,38.48,23.85,19.27,26.29,46.4,42.79,-23.47,-1.37,-9.04,19.27,23.85,38.48,0,19.21,-0.52
rw_cut_5_p1_3f_opt_disp_struct_4.xyz,Nucleus 30H :,-2.556332,-2.750557,1.772223,28.34,35.41,23.65,25.96,-16.42,14.09,38.74,40.25,11.81,-3.43,23.65,25.96,35.41,0,11.76,-0.61
rw_cut_5_p1_3f_opt_disp_struct_4.xyz,Nucleus 31H :,-1.439009,-1.606831,3.204403,27.5,34.61,20.43,27.45,30.43,39.09,46.56,-20.52,-10.54,-2.53,20.43,27.45,34.61,0,14.18,-0.01
rw_cut_5_p1_3f_opt_disp_struct_4.xyz,Nucleus 0C :,-2.133026,-2.094737,4.242684,171.42,160.42,167.1,186.73,260.44,236.74,239.46,-82.27,-73.34,-66.78,160.42,167.1,186.73,0,26.31,-0.49
rw_cut_5_p1_3f_opt_disp_struct_4.xyz,Nucleus 3C :,-0.425595,-0.67535,3.428368,61.32,148.11,52.97,-17.13,241.95,277.24,264.14,-93.86,-224.19,-281.34,-17.13,52.97,148.11,0,165.24,-0.15
rw_cut_5_p1_3f_opt_disp_struct_4.xyz,Nucleus 4C :,-0.135025,-0.259092,4.668064,52.69,-31.29,127.0,62.37,259.75,254.17,277.1,-294.73,-130.42,-207.79,-31.29,62.37,127.0,0,158.29,0.18
rw_cut_5_p1_3f_opt_disp_struct_4.xyz,Nucleus 7C :,2.476134,1.588281,0.686909,51.75,137.97,-0.8,18.09,275.04,259.74,266.56,-122.13,-275.8,-248.14,-0.8,18.09,137.97,0,138.77,-0.73
rw_cut_5_p1_3f_opt_disp_struct_4.xyz,Nucleus 8C :,0.051424,0.307172,-1.797715,62.29,155.6,31.45,-0.18,237.35,274.11,262.02,-82.52,-232.37,-271.71,-0.18,31.45,155.6,0,155.78,-0.59
rw_cut_5_p1_3f_opt_disp_struct_4.xyz,Nucleus 9C :,3.416497,-6.84793,3.584469,19.4,-51.89,79.51,30.59,235.72,268.76,270.63,-156.82,-237.63,-322.46,-51.89,30.59,79.51,0,131.4,0.26
rw_cut_5_p1_3f_opt_disp_struct_4.xyz,Nucleus 11C :,3.607544,-6.480775,4.599834,79.83,154.69,15.31,69.5,234.47,262.74,278.67,-80.58,-252.54,-203.26,15.31,69.5,154.69,0,139.38,-0.22
rw_cut_5_p1_3f_opt_disp_struct_4.xyz,Nucleus 13C :,2.458616,-7.377122,3.551559,28.2,88.53,19.12,-23.05,235.05,259.95,272.96,-146.95,-252.19,-284.22,-23.05,19.12,88.53,0,111.58,-0.24
rw_cut_5_p1_3f_opt_disp_struct_4.xyz,Nucleus 15C :,3.442307,-5.76859,2.600683,38.98,89.58,26.18,1.19,234.77,273.99,264.65,-146.1,-246.57,-263.79,1.19,26.18,89.58,0,88.39,-0.43
rw_cut_5_p1_3f_opt_disp_struct_4.xyz,Nucleus 19C :,4.271957,-5.67643,2.037599,155.39,130.76,146.54,188.86,211.58,196.18,268.12,-49.37,-75.52,-84.83,130.76,146.54,188.86,0,58.1,-0.46
rw_cut_5_p1_3f_opt_disp_struct_4.xyz,Nucleus 24C :,2.544199,-4.7753,2.522008,21.65,115.34,-15.45,-34.93,236.64,267.92,265.43,-121.49,-282.3,-301.23,-34.93,-15.45,115.34,0,150.27,-0.74
rw_cut_5_p1_3f_opt_disp_struct_4.xyz,Nucleus 5N :,2.681182,-3.852394,1.569648,118.41,44.44,184.99,125.81,294.08,337.21,331.5,-109.96,-209.61,-287.98,44.44,125.81,184.99,0,140.55,0.16
rw_cut_5_p1_3f_opt_disp_struct_4.xyz,Nucleus 22N :,2.042609,-3.068772,1.485374,168.6,101.45,224.0,180.35,288.41,346.51,329.99,-231.18,-122.86,-105.05,101.45,180.35,224.0,0,122.55,0.29
rw_cut_5_p1_3f_opt_disp_struct_4.xyz,Nucleus 25N :,1.51808,-4.674162,3.36709,175.26,116.14,176.14,233.51,323.59,340.31,331.41,-209.88,-157.14,-102.51,116.14,176.14,233.51,0,117.37,0.02
rw_cut_5_p1_3f_opt_disp_struct_4.xyz,Nucleus 27N :,1.417567,-5.30551,4.143602,174.83,115.72,196.41,212.36,294.43,336.11,325.81,-211.32,-123.54,-97.0,115.72,196.41,212.36,0,96.64,0.67
rw_cut_5_p1_3f_opt_disp_struct_4.xyz,Nucleus 10F :,0.778113,-4.007534,3.185352,297.83,397.13,213.23,283.14,482.98,456.54,465.7,-68.39,-245.25,-198.07,213.23,283.14,397.13,0,183.9,-0.24
rw_cut_5_p1_3f_opt_disp_struct_4.xyz,Nucleus 14F :,4.19792,-7.562227,3.325563,320.79,411.2,294.35,256.83,455.16,475.39,484.02,-66.41,-182.68,-203.11,256.83,294.35,411.2,0,154.37,-0.51
rw_cut_5_p1_3f_opt_disp_struct_4.xyz,Nucleus 16F :,3.349837,-3.979148,0.828789,344.33,455.86,280.53,296.61,455.21,475.27,482.73,-18.71,-170.16,-191.34,280.53,296.61,455.86,0,175.33,-0.82
rw_cut_5_p1_3f_opt_disp_struct_5.xyz,Nucleus 1H :,0.981399,-0.024373,-1.324554,29.02,35.35,23.38,28.32,41.03,25.86,31.6,-6.8,-0.84,-3.79,23.38,28.32,35.35,0,11.97,-0.18
rw_cut_5_p1_3f_opt_disp_struct_5.xyz,Nucleus 2H :,1.795408,0.586751,-1.71981,29.01,24.15,28.19,34.69,47.85,28.97,26.35,1.89,-4.67,-13.36,24.15,28.19,34.69,0,10.54,-0.23
rw_cut_5_p1_3f_opt_disp_struct_5.xyz,Nucleus 6H :,1.145635,-1.058186,-1.646847,23.44,15.28,24.99,30.05,51.82,10.68,29.36,-22.24,-4.34,5.02,15.28,24.99,30.05,0,14.77,0.31
rw_cut_5_p1_3f_opt_disp_struct_5.xyz,Nucleus 12H :,0.905116,0.09174,0.155743,24.3,20.69,25.0,27.21,48.82,16.43,31.84,-24.01,4.63,-4.8,20.69,25.0,27.21,0,6.52,0.32
rw_cut_5_p1_3f_opt_disp_struct_5.xyz,Nucleus 17H :,1.690058,0.899114,0.95722,24.06,20.41,25.39,26.37,45.23,26.82,32.48,-19.87,-6.11,-6.38,20.41,25.39,26.37,0,5.96,0.67
rw_cut_5_p1_3f_opt_disp_struct_5.xyz,Nucleus 18H :,1.307493,0.722728,2.259985,28.61,35.13,26.97,23.74,42.88,27.68,32.07,-0.76,-8.68,-7.35,23.74,26.97,35.13,0,11.39,-0.43
rw_cut_5_p1_3f_opt_disp_struct_5.xyz,Nucleus 20H :,1.683008,1.21115,3.056402,28.64,35.2,24.11,26.61,-6.56,16.3,39.49,33.36,8.51,-5.2,24.11,26.61,35.2,0,11.09,-0.55
rw_cut_5_p1_3f_opt_disp_struct_5.xyz,Nucleus 21H :,0.280041,-0.186162,2.326801,28.62,34.53,27.0,24.32,-4.8,19.39,39.68,31.29,6.43,-6.16,24.32,27.0,34.53,0,10.21,-0.48
rw_cut_5_p1_3f_opt_disp_struct_5.xyz,Nucleus 23H :,0.000484,-0.600889,1.022463,27.08,18.6,34.15,28.5,49.49,10.52,28.63,-15.36,8.53,-0.56,18.6,28.5,34.15,0,15.55,0.27
rw_cut_5_p1_3f_opt_disp_struct_5.xyz,Nucleus 26H :,-1.033911,-1.543398,0.834772,27.63,39.93,19.32,23.65,23.44,51.25,62.54,-42.84,-11.72,0.23,19.32,23.65,39.93,0,20.61,-0.58
rw_cut_5_p1_3f_opt_disp_struct_5.xyz,Nucleus 28H :,-1.345669,-1.97385,-0.396096,26.74,19.61,26.8,33.8,-0.81,24.73,54.03,20.56,1.94,-20.24,19.61,26.8,33.8,0,14.19,0.01
rw_cut_5_p1_3f_opt_disp_struct_5.xyz,Nucleus 29H :,-1.748654,-2.043226,1.924093,27.13,37.87,23.99,19.52,27.14,45.85,45.06,-25.54,-2.2,-8.94,19.52,23.99,37.87,0,18.35,-0.51
rw_cut_5_p1_3f_opt_disp_struct_5.xyz,Nucleus 30H :,-2.556332,-2.750557,1.772223,28.25,35.34,23.51,25.91,-17.89,13.75,38.66,41.56,12.09,-3.42,23.51,25.91,35.34,0,11.83,-0.59
rw_cut_5_p1_3f_opt_disp_struct_5.xyz,Nucleus 31H :,-1.439009,-1.606831,3.204403,27.44,34.64,20.47,27.2,30.04,39.28,47.01,-20.86,-10.77,-2.39,20.47,27.2,34.64,0,14.17,-0.05
rw_cut_5_p1_3f_opt_disp_struct_5.xyz,Nucleus 0C :,-2.133026,-2.094737,4.242684,171.4,160.48,167.03,186.7,260.16,236.82,239.26,-81.9,-73.41,-66.72,160.48,167.03,186.7,0,26.22,-0.5
rw_cut_5_p1_3f_opt_disp_struct_5.xyz,Nucleus 3C :,-0.425595,-0.67535,3.428368,61.36,148.17,53.04,-17.14,242.02,277.09,264.11,-93.91,-223.91,-281.35,-17.14,53.04,148.17,0,165.31,-0.15
rw_cut_5_p1_3f_opt_disp_struct_5.xyz,Nucleus 4C :,-0.135025,-0.259092,4.668064,53.08,-30.79,127.01,63.03,260.23,253.91,276.69,-294.18,-130.48,-206.92,-30.79,63.03,127.01,0,157.8,0.19
rw_cut_5_p1_3f_opt_disp_struct_5.xyz,Nucleus 7C :,2.476134,1.588281,0.686909,51.75,137.87,-0.86,18.23,274.92,259.63,266.62,-122.05,-275.76,-248.12,-0.86,18.23,137.87,0,138.73,-0.72
rw_cut_5_p1_3f_opt_disp_struct_5.xyz,Nucleus 8C :,0.051424,0.307172,-1.797715,62.31,155.62,31.44,-0.14,237.41,274.45,263.08,-82.64,-233.54,-271.84,-0.14,31.44,155.62,0,155.76,-0.59
rw_cut_5_p1_3f_opt_disp_struct_5.xyz,Nucleus 9C :,3.581975,-7.033828,3.608111,19.28,-52.16,79.16,30.85,234.93,268.95,270.2,-156.42,-237.54,-322.28,-52.16,30.85,79.16,0,131.32,0.26
rw_cut_5_p1_3f_opt_disp_struct_5.xyz,Nucleus 11C :,3.773022,-6.666673,4.623476,79.92,154.64,15.43,69.68,234.76,263.03,278.74,-80.77,-252.79,-203.22,15.43,69.68,154.64,0,139.21,-0.22
rw_cut_5_p1_3f_opt_disp_struct_5.xyz,Nucleus 13C :,2.624094,-7.56302,3.5752,28.0,88.18,19.23,-23.4,234.49,260.24,273.16,-146.5,-252.4,-285.0,-23.4,19.23,88.18,0,111.58,-0.24
rw_cut_5_p1_3f_opt_disp_struct_5.xyz,Nucleus 15C :,3.607785,-5.954489,2.624324,39.02,89.38,26.38,1.31,234.34,273.96,264.66,-145.85,-246.42,-263.64,1.31,26.38,89.38,0,88.07,-0.43
rw_cut_5_p1_3f_opt_disp_struct_5.xyz,Nucleus 19C :,4.437435,-5.862328,2.061241,155.26,130.56,146.4,188.82,210.97,195.13,268.81,-48.49,-75.66,-84.99,130.56,146.4,188.82,0,58.26,-0.46
rw_cut_5_p1_3f_opt_disp_struct_5.xyz,Nucleus 24C :,2.709677,-4.961198,2.545649,21.59,115.29,-15.44,-35.09,237.14,268.41,265.14,-122.04,-281.94,-301.94,-35.09,-15.44,115.29,0,150.38,-0.74
rw_cut_5_p1_3f_opt_disp_struct_5.xyz,Nucleus 5N :,2.84666,-4.038292,1.593289,119.04,45.35,185.11,126.65,294.14,337.22,331.5,-109.93,-208.98,-286.84,45.35,126.65,185.11,0,139.76,0.16
rw_cut_5_p1_3f_opt_disp_struct_5.xyz,Nucleus 22N :,2.208087,-3.25467,1.509016,168.14,100.79,223.36,180.28,286.5,346.68,329.91,-232.08,-123.05,-103.52,100.79,180.28,223.36,0,122.57,0.3
rw_cut_5_p1_3f_opt_disp_struct_5.xyz,Nucleus 25N :,1.683558,-4.86006,3.390731,175.43,116.21,176.31,233.77,324.01,341.11,332.8,-210.33,-158.9,-102.4,116.21,176.31,233.77,0,117.56,0.02
rw_cut_5_p1_3f_opt_disp_struct_5.xyz,Nucleus 27N :,1.583045,-5.491408,4.167244,174.97,115.62,196.37,212.91,295.67,336.96,325.61,-211.27,-123.76,-98.31,115.62,196.37,212.91,0,97.29,0.66
rw_cut_5_p1_3f_opt_disp_struct_5.xyz,Nucleus 10F :,0.943591,-4.193432,3.208993,298.69,397.28,214.73,284.07,483.23,457.05,465.7,-68.28,-243.91,-197.7,214.73,284.07,397.28,0,182.55,-0.24
rw_cut_5_p1_3f_opt_disp_struct_5.xyz,Nucleus 14F :,4.363398,-7.748125,3.349204,320.96,411.13,294.74,257.01,455.82,475.44,483.11,-65.67,-182.59,-203.23,257.01,294.74,411.13,0,154.12,-0.51
rw_cut_5_p1_3f_opt_disp_struct_5.xyz,Nucleus 16F :,3.515315,-4.165046,0.85243,345.14,455.7,282.03,297.68,455.6,473.94,483.09,-17.22,-169.18,-190.82,282.03,297.68,455.7,0,173.67,-0.82
rw_cut_5_p1_3f_opt_disp_struct_6.xyz,Nucleus 1H :,0.981399,-0.024373,-1.324554,29.03,35.34,23.4,28.36,41.01,25.91,31.51,-6.81,-0.85,-3.67,23.4,28.36,35.34,0,11.94,-0.17
rw_cut_5_p1_3f_opt_disp_struct_6.xyz,Nucleus 2H :,1.795408,0.586751,-1.71981,29.01,24.15,28.15,34.72,47.7,28.92,26.28,1.91,-4.59,-13.21,24.15,28.15,34.72,0,10.57,-0.24
rw_cut_5_p1_3f_opt_disp_struct_6.xyz,Nucleus 6H :,1.145635,-1.058186,-1.646847,23.48,15.31,25.03,30.09,51.69,10.73,29.49,-22.06,-4.41,4.98,15.31,25.03,30.09,0,14.78,0.31
rw_cut_5_p1_3f_opt_disp_struct_6.xyz,Nucleus 12H :,0.905116,0.09174,0.155743,24.32,20.7,24.98,27.29,48.77,16.41,31.92,-23.94,4.61,-4.79,20.7,24.98,27.29,0,6.59,0.3
rw_cut_5_p1_3f_opt_disp_struct_6.xyz,Nucleus 17H :,1.690058,0.899114,0.95722,24.08,20.45,25.39,26.4,45.24,26.9,32.41,-19.87,-6.16,-6.26,20.45,25.39,26.4,0,5.95,0.66
rw_cut_5_p1_3f_opt_disp_struct_6.xyz,Nucleus 18H :,1.307493,0.722728,2.259985,28.62,35.11,26.99,23.76,42.82,27.63,32.08,-0.73,-8.72,-7.22,23.76,26.99,35.11,0,11.35,-0.43
rw_cut_5_p1_3f_opt_disp_struct_6.xyz,Nucleus 20H :,1.683008,1.21115,3.056402,28.62,35.17,24.11,26.57,-7.49,16.25,39.53,34.33,8.55,-5.31,24.11,26.57,35.17,0,11.06,-0.56
rw_cut_5_p1_3f_opt_disp_struct_6.xyz,Nucleus 21H :,0.280041,-0.186162,2.326801,28.6,34.51,26.97,24.32,-5.62,19.32,39.73,32.18,6.45,-6.27,24.32,26.97,34.51,0,10.19,-0.48
rw_cut_5_p1_3f_opt_disp_struct_6.xyz,Nucleus 23H :,0.000484,-0.600889,1.022463,27.05,18.61,34.1,28.43,49.66,9.25,28.41,-15.59,9.77,-0.37,18.61,28.43,34.1,0,15.49,0.27
rw_cut_5_p1_3f_opt_disp_struct_6.xyz,Nucleus 26H :,-1.033911,-1.543398,0.834772,27.46,39.22,23.7,19.46,24.16,50.35,64.79,-45.0,-11.51,-0.4,19.46,23.7,39.22,0,19.76,-0.57
rw_cut_5_p1_3f_opt_disp_struct_6.xyz,Nucleus 28H :,-1.345669,-1.97385,-0.396096,26.7,19.63,26.7,33.76,-0.93,24.79,54.45,20.7,1.79,-20.7,19.63,26.7,33.76,0,14.13,0.0
rw_cut_5_p1_3f_opt_disp_struct_6.xyz,Nucleus 29H :,-1.748654,-2.043226,1.924093,27.01,37.37,24.04,19.62,27.84,47.33,45.28,-27.62,-2.93,-8.86,19.62,24.04,37.37,0,17.75,-0.5
rw_cut_5_p1_3f_opt_disp_struct_6.xyz,Nucleus 30H :,-2.556332,-2.750557,1.772223,28.23,35.29,23.5,25.91,-19.27,13.46,38.6,42.93,12.39,-3.41,23.5,25.91,35.29,0,11.79,-0.59
rw_cut_5_p1_3f_opt_disp_struct_6.xyz,Nucleus 31H :,-1.439009,-1.606831,3.204403,27.36,34.62,20.5,26.97,29.68,39.47,47.39,-21.2,-10.98,-2.25,20.5,26.97,34.62,0,14.12,-0.08
rw_cut_5_p1_3f_opt_disp_struct_6.xyz,Nucleus 0C :,-2.133026,-2.094737,4.242684,171.37,160.49,166.94,186.69,259.98,236.86,239.09,-81.62,-73.49,-66.68,160.49,166.94,186.69,0,26.2,-0.51
rw_cut_5_p1_3f_opt_disp_struct_6.xyz,Nucleus 3C :,-0.425595,-0.67535,3.428368,61.33,148.17,53.03,-17.22,242.05,276.87,264.07,-93.95,-223.69,-281.37,-17.22,53.03,148.17,0,165.39,-0.15
rw_cut_5_p1_3f_opt_disp_struct_6.xyz,Nucleus 4C :,-0.135025,-0.259092,4.668064,53.44,-30.32,126.96,63.68,260.32,253.99,276.44,-293.69,-130.61,-206.12,-30.32,63.68,126.96,0,157.28,0.2
rw_cut_5_p1_3f_opt_disp_struct_6.xyz,Nucleus 7C :,2.476134,1.588281,0.686909,51.69,137.8,-1.04,18.31,274.67,259.62,266.65,-122.1,-275.7,-248.07,-1.04,18.31,137.8,0,138.84,-0.72
rw_cut_5_p1_3f_opt_disp_struct_6.xyz,Nucleus 8C :,0.051424,0.307172,-1.797715,62.13,155.53,31.12,-0.27,237.3,274.09,263.55,-82.65,-234.26,-271.64,-0.27,31.12,155.53,0,155.8,-0.6
rw_cut_5_p1_3f_opt_disp_struct_6.xyz,Nucleus 9C :,3.747452,-7.219727,3.631752,19.2,-52.36,79.01,30.94,234.6,268.83,269.77,-156.19,-237.38,-322.04,-52.36,30.94,79.01,0,131.37,0.27
rw_cut_5_p1_3f_opt_disp_struct_6.xyz,Nucleus 11C :,3.9385,-6.852572,4.647117,79.87,154.5,15.33,69.78,234.91,263.19,278.58,-80.98,-252.97,-203.13,15.33,69.78,154.5,0,139.17,-0.22
rw_cut_5_p1_3f_opt_disp_struct_6.xyz,Nucleus 13C :,2.789572,-7.748918,3.598842,27.81,88.07,19.15,-23.78,234.15,260.44,273.11,-146.22,-252.52,-285.52,-23.78,19.15,88.07,0,111.85,-0.23
rw_cut_5_p1_3f_opt_disp_struct_6.xyz,Nucleus 15C :,3.773263,-6.140387,2.647966,39.02,89.28,26.44,1.33,234.16,273.69,264.7,-145.67,-246.23,-263.59,1.33,26.44,89.28,0,87.95,-0.43
rw_cut_5_p1_3f_opt_disp_struct_6.xyz,Nucleus 19C :,4.602913,-6.048226,2.084882,155.24,130.52,146.41,188.79,210.46,194.15,269.4,-47.52,-75.68,-85.11,130.52,146.41,188.79,0,58.27,-0.45
rw_cut_5_p1_3f_opt_disp_struct_6.xyz,Nucleus 24C :,2.875155,-5.147096,2.569291,21.54,115.31,-15.44,-35.26,237.62,268.97,264.82,-122.52,-281.66,-302.62,-35.26,-15.44,115.31,0,150.57,-0.74
rw_cut_5_p1_3f_opt_disp_struct_6.xyz,Nucleus 5N :,3.012138,-4.22419,1.616931,119.51,46.11,185.09,127.32,294.32,337.19,331.44,-110.05,-208.41,-285.96,46.11,127.32,185.09,0,138.98,0.17
rw_cut_5_p1_3f_opt_disp_struct_6.xyz,Nucleus 22N :,2.373565,-3.440569,1.532657,167.9,100.4,222.91,180.38,284.81,346.94,329.85,-232.78,-123.17,-101.96,100.4,180.38,222.91,0,122.51,0.31
rw_cut_5_p1_3f_opt_disp_struct_6.xyz,Nucleus 25N :,1.849036,-5.045958,3.414373,175.42,116.12,176.26,233.88,324.13,341.88,333.57,-210.68,-160.34,-102.3,116.12,176.26,233.88,0,117.76,0.02
rw_cut_5_p1_3f_opt_disp_struct_6.xyz,Nucleus 27N :,1.748523,-5.677306,4.190886,174.99,115.48,213.18,196.3,296.52,337.58,325.39,-211.22,-124.03,-99.26,115.48,196.3,213.18,0,97.7,0.65
rw_cut_5_p1_3f_opt_disp_struct_6.xyz,Nucleus 10F :,1.109069,-4.37933,3.232635,299.34,397.38,215.89,284.76,483.3,457.34,465.71,-68.22,-242.8,-197.3,215.89,284.76,397.38,0,181.49,-0.24
rw_cut_5_p1_3f_opt_disp_struct_6.xyz,Nucleus 14F :,4.528876,-7.934023,3.372846,321.11,411.29,294.96,257.08,456.51,475.42,482.36,-65.04,-182.57,-203.36,257.08,294.96,411.29,0,154.21,-0.51
rw_cut_5_p1_3f_opt_disp_struct_6.xyz,Nucleus 16F :,3.680793,-4.350944,0.876072,345.86,455.97,298.43,283.19,456.01,472.88,483.34,-15.89,-168.41,-190.34,283.19,298.43,455.97,0,172.78,-0.82
rw_cut_5_p1_3f_opt_disp_struct_7.xyz,Nucleus 1H :,0.981399,-0.024373,-1.324554,29.05,35.32,23.42,28.4,40.98,25.94,31.43,-6.8,-0.85,-3.57,23.42,28.4,35.32,0,11.9,-0.16
rw_cut_5_p1_3f_opt_disp_struct_7.xyz,Nucleus 2H :,1.795408,0.586751,-1.71981,29.0,24.14,28.11,34.75,47.57,28.85,26.22,1.93,-4.49,-13.07,24.14,28.11,34.75,0,10.61,-0.25
rw_cut_5_p1_3f_opt_disp_struct_7.xyz,Nucleus 6H :,1.145635,-1.058186,-1.646847,23.5,15.33,25.06,30.12,51.57,10.77,29.61,-21.89,-4.48,4.94,15.33,25.06,30.12,0,14.79,0.32
rw_cut_5_p1_3f_opt_disp_struct_7.xyz,Nucleus 12H :,0.905116,0.09174,0.155743,24.35,20.7,24.99,27.35,48.7,16.41,31.95,-23.85,4.58,-4.74,20.7,24.99,27.35,0,6.65,0.29
rw_cut_5_p1_3f_opt_disp_struct_7.xyz,Nucleus 17H :,1.690058,0.899114,0.95722,24.1,20.48,25.4,26.43,45.22,26.96,32.36,-19.85,-6.21,-6.17,20.48,25.4,26.43,0,5.95,0.66
rw_cut_5_p1_3f_opt_disp_struct_7.xyz,Nucleus 18H :,1.307493,0.722728,2.259985,28.63,35.1,27.01,23.78,42.77,27.58,32.1,-0.69,-8.76,-7.11,23.78,27.01,35.1,0,11.32,-0.43
rw_cut_5_p1_3f_opt_disp_struct_7.xyz,Nucleus 20H :,1.683008,1.21115,3.056402,28.61,35.16,24.12,26.54,-8.42,16.19,39.57,35.29,8.58,-5.41,24.12,26.54,35.16,0,11.04,-0.56
rw_cut_5_p1_3f_opt_disp_struct_7.xyz,Nucleus 21H :,0.280041,-0.186162,2.326801,28.59,34.49,26.94,24.33,-6.45,19.26,39.79,33.07,6.47,-6.38,24.33,26.94,34.49,0,10.16,-0.49
rw_cut_5_p1_3f_opt_disp_struct_7.xyz,Nucleus 23H :,0.000484,-0.600889,1.022463,27.01,18.62,34.05,28.37,49.84,7.98,28.2,-15.81,11.02,-0.18,18.62,28.37,34.05,0,15.43,0.26
rw_cut_5_p1_3f_opt_disp_struct_7.xyz,Nucleus 26H :,-1.033911,-1.543398,0.834772,27.32,38.63,23.75,19.58,24.81,49.55,66.96,-47.09,-11.32,-0.96,19.58,23.75,38.63,0,19.05,-0.56
rw_cut_5_p1_3f_opt_disp_struct_7.xyz,Nucleus 28H :,-1.345669,-1.97385,-0.396096,26.66,19.65,26.61,33.72,-1.01,24.85,54.86,20.79,1.65,-21.15,19.65,26.61,33.72,0,14.07,-0.01
rw_cut_5_p1_3f_opt_disp_struct_7.xyz,Nucleus 29H :,-1.748654,-2.043226,1.924093,26.92,36.96,24.08,19.71,28.43,44.92,49.42,-29.63,-3.59,-8.8,19.71,24.08,36.96,0,17.25,-0.49
rw_cut_5_p1_3f_opt_disp_struct_7.xyz,Nucleus 30H :,-2.556332,-2.750557,1.772223,28.22,35.24,23.51,25.91,-20.64,13.17,38.54,44.31,12.68,-3.4,23.51,25.91,35.24,0,11.73,-0.59
rw_cut_5_p1_3f_opt_disp_struct_7.xyz,Nucleus 31H :,-1.439009,-1.606831,3.204403,27.31,34.62,20.53,26.77,29.34,39.65,47.74,-21.53,-11.16,-2.12,20.53,26.77,34.62,0,14.09,-0.11
rw_cut_5_p1_3f_opt_disp_struct_7.xyz,Nucleus 0C :,-2.133026,-2.094737,4.242684,171.36,160.51,166.86,186.7,259.82,236.88,238.93,-81.36,-73.56,-66.63,160.51,166.86,186.7,0,26.19,-0.52
rw_cut_5_p1_3f_opt_disp_struct_7.xyz,Nucleus 3C :,-0.425595,-0.67535,3.428368,61.32,148.18,53.03,-17.26,242.07,276.62,264.04,-93.97,-223.45,-281.37,-17.26,53.03,148.18,0,165.44,-0.15
rw_cut_5_p1_3f_opt_disp_struct_7.xyz,Nucleus 4C :,-0.135025,-0.259092,4.668064,53.73,-29.93,126.9,64.23,260.28,254.2,276.22,-293.31,-130.74,-205.44,-29.93,64.23,126.9,0,156.83,0.2
rw_cut_5_p1_3f_opt_disp_struct_7.xyz,Nucleus 7C :,2.476134,1.588281,0.686909,51.65,137.73,-1.18,18.39,274.42,259.65,266.66,-122.17,-275.6,-248.02,-1.18,18.39,137.73,0,138.91,-0.72
rw_cut_5_p1_3f_opt_disp_struct_7.xyz,Nucleus 8C :,0.051424,0.307172,-1.797715,62.01,155.48,30.91,-0.35,237.22,273.52,263.87,-82.61,-234.64,-271.32,-0.35,30.91,155.48,0,155.83,-0.6
rw_cut_5_p1_3f_opt_disp_struct_7.xyz,Nucleus 9C :,3.91293,-7.405625,3.655394,19.13,-52.51,78.89,31.01,234.39,268.6,269.34,-156.03,-237.16,-321.75,-52.51,31.01,78.89,0,131.4,0.27
rw_cut_5_p1_3f_opt_disp_struct_7.xyz,Nucleus 11C :,4.103978,-7.03847,4.670759,79.83,154.38,15.25,69.85,235.04,263.3,278.34,-81.17,-253.05,-202.99,15.25,69.85,154.38,0,139.13,-0.22
rw_cut_5_p1_3f_opt_disp_struct_7.xyz,Nucleus 13C :,2.95505,-7.934816,3.622483,27.67,87.96,19.11,-24.05,233.93,260.56,272.99,-146.08,-252.53,-285.85,-24.05,19.11,87.96,0,112.01,-0.23
rw_cut_5_p1_3f_opt_disp_struct_7.xyz,Nucleus 15C :,3.938741,-6.326285,2.671608,39.0,89.19,26.47,1.33,234.07,273.36,264.78,-145.57,-246.02,-263.62,1.33,26.47,89.19,0,87.86,-0.43
rw_cut_5_p1_3f_opt_disp_struct_7.xyz,Nucleus 19C :,4.768391,-6.234124,2.108524,155.22,130.49,146.41,188.75,209.97,193.16,269.99,-46.54,-75.66,-85.27,130.49,146.41,188.75,0,58.26,-0.45
rw_cut_5_p1_3f_opt_disp_struct_7.xyz,Nucleus 24C :,3.040633,-5.332995,2.592933,21.49,115.33,-15.46,-35.39,238.06,269.52,264.52,-122.95,-281.46,-303.22,-35.39,-15.46,115.33,0,150.72,-0.74
rw_cut_5_p1_3f_opt_disp_struct_7.xyz,Nucleus 5N :,3.177616,-4.410088,1.640573,119.89,46.74,185.05,127.88,294.53,337.14,331.37,-110.18,-207.91,-285.28,46.74,127.88,185.05,0,138.31,0.17
rw_cut_5_p1_3f_opt_disp_struct_7.xyz,Nucleus 22N :,2.539043,-3.626467,1.556299,167.71,100.1,222.55,180.47,283.15,347.22,329.79,-233.4,-123.25,-100.4,100.1,180.47,222.55,0,122.45,0.31
rw_cut_5_p1_3f_opt_disp_struct_7.xyz,Nucleus 25N :,2.014514,-5.231856,3.438015,175.39,116.01,176.22,233.93,324.12,342.69,334.06,-210.96,-161.53,-102.21,116.01,176.22,233.93,0,117.92,0.02
rw_cut_5_p1_3f_opt_disp_struct_7.xyz,Nucleus 27N :,1.914001,-5.863204,4.214527,174.99,115.36,213.36,196.25,297.35,338.07,325.18,-211.16,-124.3,-100.17,115.36,196.25,213.36,0,98.0,0.65
rw_cut_5_p1_3f_opt_disp_struct_7.xyz,Nucleus 10F :,1.274547,-4.565229,3.256276,299.9,397.45,216.83,285.41,483.35,457.58,465.73,-68.18,-241.91,-196.89,216.83,285.41,397.45,0,180.62,-0.24
rw_cut_5_p1_3f_opt_disp_struct_7.xyz,Nucleus 14F :,4.694354,-8.119921,3.396487,321.26,411.4,295.2,257.19,457.3,475.33,481.58,-64.48,-182.48,-203.45,257.19,295.2,411.4,0,154.21,-0.51
rw_cut_5_p1_3f_opt_disp_struct_7.xyz,Nucleus 16F :,3.846271,-4.536842,0.899714,346.47,456.16,299.11,284.13,456.47,471.76,483.59,-14.69,-167.85,-189.89,284.13,299.11,456.16,0,172.03,-0.83
rw_cut_5_p1_3f_opt_disp_struct_8.xyz,Nucleus 1H :,0.981399,-0.024373,-1.324554,29.06,35.32,23.43,28.44,40.94,25.97,31.37,-6.77,-0.84,-3.49,23.43,28.44,35.32,0,11.89,-0.16
rw_cut_5_p1_3f_opt_disp_struct_8.xyz,Nucleus 2H :,1.795408,0.586751,-1.71981,28.99,24.13,28.08,34.77,47.45,28.76,26.16,1.95,-4.39,-12.96,24.13,28.08,34.77,0,10.64,-0.26
rw_cut_5_p1_3f_opt_disp_struct_8.xyz,Nucleus 6H :,1.145635,-1.058186,-1.646847,23.53,15.35,25.1,30.15,51.44,10.8,29.72,-21.72,-4.55,4.9,15.35,25.1,30.15,0,14.8,0.32
rw_cut_5_p1_3f_opt_disp_struct_8.xyz,Nucleus 12H :,0.905116,0.09174,0.155743,24.37,20.7,24.99,27.41,48.62,16.41,31.94,-23.75,4.55,-4.66,20.7,24.99,27.41,0,6.71,0.28
rw_cut_5_p1_3f_opt_disp_struct_8.xyz,Nucleus 17H :,1.690058,0.899114,0.95722,24.13,20.51,25.41,26.46,45.2,27.01,32.32,-19.81,-6.25,-6.08,20.51,25.41,26.46,0,5.95,0.65
rw_cut_5_p1_3f_opt_disp_struct_8.xyz,Nucleus 18H :,1.307493,0.722728,2.259985,28.64,35.08,27.03,23.8,42.72,27.52,32.13,-0.64,-8.81,-7.0,23.8,27.03,35.08,0,11.28,-0.43
rw_cut_5_p1_3f_opt_disp_struct_8.xyz,Nucleus 20H :,1.683008,1.21115,3.056402,28.59,35.14,24.12,26.51,-9.35,16.14,39.62,36.25,8.62,-5.52,24.12,26.51,35.14,0,11.02,-0.57
rw_cut_5_p1_3f_opt_disp_struct_8.xyz,Nucleus 21H :,0.280041,-0.186162,2.326801,28.57,34.48,26.91,24.33,-7.29,19.2,39.85,33.96,6.49,-6.5,24.33,26.91,34.48,0,10.15,-0.49
rw_cut_5_p1_3f_opt_disp_struct_8.xyz,Nucleus 23H :,0.000484,-0.600889,1.022463,26.99,18.63,34.02,28.31,50.02,6.7,28.0,-16.03,12.27,-0.01,18.63,28.31,34.02,0,15.39,0.26
rw_cut_5_p1_3f_opt_disp_struct_8.xyz,Nucleus 26H :,-1.033911,-1.543398,0.834772,27.2,38.13,23.78,19.68,25.39,48.86,69.05,-49.1,-11.15,-1.46,19.68,23.78,38.13,0,18.45,-0.56
rw_cut_5_p1_3f_opt_disp_struct_8.xyz,Nucleus 28H :,-1.345669,-1.97385,-0.396096,26.63,19.67,26.53,33.69,-1.05,24.9,55.27,20.84,1.52,-21.59,19.67,26.53,33.69,0,14.02,-0.02
rw_cut_5_p1_3f_opt_disp_struct_8.xyz,Nucleus 29H :,-1.748654,-2.043226,1.924093,26.83,36.61,24.11,19.78,28.96,44.62,51.43,-31.58,-4.17,-8.75,19.78,24.11,36.61,0,16.83,-0.48
rw_cut_5_p1_3f_opt_disp_struct_8.xyz,Nucleus 30H :,-2.556332,-2.750557,1.772223,28.2,35.19,23.51,25.91,-22.0,12.88,38.49,45.67,12.97,-3.39,23.51,25.91,35.19,0,11.68,-0.59
rw_cut_5_p1_3f_opt_disp_struct_8.xyz,Nucleus 31H :,-1.439009,-1.606831,3.204403,27.26,34.61,20.56,26.6,29.04,39.83,48.08,-21.87,-11.33,-1.99,20.56,26.6,34.61,0,14.05,-0.14
rw_cut_5_p1_3f_opt_disp_struct_8.xyz,Nucleus 0C :,-2.133026,-2.094737,4.242684,171.34,160.52,166.78,186.72,259.69,236.89,238.77,-81.13,-73.61,-66.58,160.52,166.78,186.72,0,26.2,-0.52
rw_cut_5_p1_3f_opt_disp_struct_8.xyz,Nucleus 3C :,-0.425595,-0.67535,3.428368,61.31,148.18,53.03,-17.29,242.08,276.33,264.02,-93.98,-223.18,-281.36,-17.29,53.03,148.18,0,165.47,-0.15
rw_cut_5_p1_3f_opt_disp_struct_8.xyz,Nucleus 4C :,-0.135025,-0.259092,4.668064,53.98,-29.6,126.84,64.7,260.13,254.5,276.03,-293.02,-130.86,-204.84,-29.6,64.7,126.84,0,156.44,0.21
rw_cut_5_p1_3f_opt_disp_struct_8.xyz,Nucleus 7C :,2.476134,1.588281,0.686909,51.61,137.67,-1.31,18.46,274.16,259.71,266.66,-122.24,-275.46,-247.99,-1.31,18.46,137.67,0,138.98,-0.72
rw_cut_5_p1_3f_opt_disp_struct_8.xyz,Nucleus 8C :,0.051424,0.307172,-1.797715,61.93,155.43,30.75,-0.4,237.22,272.84,264.1,-82.6,-234.8,-270.98,-0.4,30.75,155.43,0,155.83,-0.6
rw_cut_5_p1_3f_opt_disp_struct_8.xyz,Nucleus 9C :,4.078408,-7.591523,3.679036,19.07,-52.64,78.79,31.06,234.25,268.31,268.93,-155.93,-236.91,-321.44,-52.64,31.06,78.79,0,131.43,0.27
rw_cut_5_p1_3f_opt_disp_struct_8.xyz,Nucleus 11C :,4.269456,-7.224368,4.694401,79.78,154.27,15.17,69.91,235.16,263.4,278.06,-81.35,-253.09,-202.83,15.17,69.91,154.27,0,139.1,-0.21
rw_cut_5_p1_3f_opt_disp_struct_8.xyz,Nucleus 13C :,3.120528,-8.120715,3.646125,27.56,87.87,19.07,-24.26,233.78,260.63,272.81,-146.0,-252.47,-286.06,-24.26,19.07,87.87,0,112.13,-0.23
rw_cut_5_p1_3f_opt_disp_struct_8.xyz,Nucleus 15C :,4.104219,-6.512183,2.695249,38.97,89.11,26.49,1.31,234.04,273.02,264.88,-145.53,-245.8,-263.7,1.31,26.49,89.11,0,87.8,-0.43
rw_cut_5_p1_3f_opt_disp_struct_8.xyz,Nucleus 19C :,4.933869,-6.420022,2.132166,155.2,130.46,146.42,188.72,209.5,192.19,270.57,-45.57,-75.6,-85.48,130.46,146.42,188.72,0,58.26,-0.45
rw_cut_5_p1_3f_opt_disp_struct_8.xyz,Nucleus 24C :,3.206111,-5.518893,2.616574,21.46,115.36,-15.5,-35.49,238.45,270.05,264.26,-123.32,-281.3,-303.77,-35.49,-15.5,115.36,0,150.85,-0.74
rw_cut_5_p1_3f_opt_disp_struct_8.xyz,Nucleus 5N :,3.343094,-4.595986,1.664214,120.2,47.25,185.01,128.35,294.72,337.09,331.3,-110.27,-207.46,-284.76,47.25,128.35,185.01,0,137.76,0.18
rw_cut_5_p1_3f_opt_disp_struct_8.xyz,Nucleus 22N :,2.704521,-3.812365,1.579941,167.55,99.86,222.25,180.54,281.53,347.53,329.73,-233.98,-123.32,-98.84,99.86,180.54,222.25,0,122.39,0.32
rw_cut_5_p1_3f_opt_disp_struct_8.xyz,Nucleus 25N :,2.179992,-5.417754,3.461656,175.35,115.91,176.19,233.96,324.05,343.53,334.38,-211.18,-162.59,-102.13,115.91,176.19,233.96,0,118.05,0.02
rw_cut_5_p1_3f_opt_disp_struct_8.xyz,Nucleus 27N :,2.079479,-6.049102,4.238169,174.98,115.25,213.49,196.2,298.22,338.49,324.99,-211.08,-124.57,-101.1,115.25,196.2,213.49,0,98.24,0.65
rw_cut_5_p1_3f_opt_disp_struct_8.xyz,Nucleus 10F :,1.440025,-4.751127,3.279918,300.37,397.51,217.61,285.99,483.39,457.78,465.75,-68.15,-241.17,-196.5,217.61,285.99,397.51,0,179.9,-0.24
rw_cut_5_p1_3f_opt_disp_struct_8.xyz,Nucleus 14F :,4.859832,-8.305819,3.420129,321.42,411.5,295.44,257.31,458.13,475.14,480.85,-63.96,-182.38,-203.53,257.31,295.44,411.5,0,154.19,-0.51
rw_cut_5_p1_3f_opt_disp_struct_8.xyz,Nucleus 16F :,4.011749,-4.72274,0.923355,346.97,456.32,299.69,284.9,456.96,470.63,483.84,-13.59,-167.44,-189.5,284.9,299.69,456.32,0,171.42,-0.83
rw_cut_5_p1_3f_opt_disp_struct_9.xyz,Nucleus 1H :,0.981399,-0.024373,-1.324554,29.07,35.31,23.44,28.47,40.91,25.99,31.3,-6.74,-0.83,-3.41,23.44,28.47,35.31,0,11.87,-0.15
rw_cut_5_p1_3f_opt_disp_struct_9.xyz,Nucleus 2H :,1.795408,0.586751,-1.71981,28.99,24.11,28.06,34.79,47.34,28.67,26.11,-12.85,-4.28,1.97,24.11,28.06,34.79,0,10.68,-0.26
rw_cut_5_p1_3f_opt_disp_struct_9.xyz,Nucleus 6H :,1.145635,-1.058186,-1.646847,23.56,15.37,25.13,30.18,51.33,10.83,29.81,-21.56,-4.6,4.87,15.37,25.13,30.18,0,14.81,0.32
rw_cut_5_p1_3f_opt_disp_struct_9.xyz,Nucleus 12H :,0.905116,0.09174,0.155743,24.38,20.7,25.0,27.45,48.53,16.41,31.9,-23.64,4.51,-4.56,20.7,25.0,27.45,0,6.75,0.28
rw_cut_5_p1_3f_opt_disp_struct_9.xyz,Nucleus 17H :,1.690058,0.899114,0.95722,24.15,20.54,25.41,26.49,45.17,27.05,32.28,-19.76,-6.3,-6.01,20.54,25.41,26.49,0,5.95,0.64
rw_cut_5_p1_3f_opt_disp_struct_9.xyz,Nucleus 18H :,1.307493,0.722728,2.259985,28.64,35.07,27.04,23.82,42.67,27.46,32.16,-0.59,-8.85,-6.91,23.82,27.04,35.07,0,11.25,-0.43
rw_cut_5_p1_3f_opt_disp_struct_9.xyz,Nucleus 20H :,1.683008,1.21115,3.056402,28.58,35.13,24.12,26.49,-10.27,16.09,39.67,37.21,8.66,-5.62,24.12,26.49,35.13,0,11.01,-0.57
rw_cut_5_p1_3f_opt_disp_struct_9.xyz,Nucleus 21H :,0.280041,-0.186162,2.326801,28.56,34.47,26.88,24.34,-8.13,19.15,39.92,34.85,6.51,-6.61,24.34,26.88,34.47,0,10.13,-0.5
rw_cut_5_p1_3f_opt_disp_struct_9.xyz,Nucleus 23H :,0.000484,-0.600889,1.022463,26.96,18.63,33.99,28.26,50.2,5.43,27.81,-16.25,13.53,0.15,18.63,28.26,33.99,0,15.36,0.25
rw_cut_5_p1_3f_opt_disp_struct_9.xyz,Nucleus 26H :,-1.033911,-1.543398,0.834772,27.09,37.7,23.81,19.77,25.93,48.25,71.05,-51.04,-11.0,-1.9,19.77,23.81,37.7,0,17.93,-0.55
rw_cut_5_p1_3f_opt_disp_struct_9.xyz,Nucleus 28H :,-1.345669,-1.97385,-0.396096,26.6,19.69,26.46,33.66,-1.07,24.94,55.68,20.87,1.41,-22.02,19.69,26.46,33.66,0,13.97,-0.03
rw_cut_5_p1_3f_opt_disp_struct_9.xyz,Nucleus 29H :,-1.748654,-2.043226,1.924093,26.77,36.32,24.14,19.85,29.42,44.38,53.37,-33.45,-4.7,-8.71,19.85,24.14,36.32,0,16.47,-0.48
rw_cut_5_p1_3f_opt_disp_struct_9.xyz,Nucleus 30H :,-2.556332,-2.750557,1.772223,28.19,35.15,23.52,25.91,-23.36,12.59,38.44,47.03,13.26,-3.39,23.52,25.91,35.15,0,11.63,-0.59
rw_cut_5_p1_3f_opt_disp_struct_9.xyz,Nucleus 31H :,-1.439009,-1.606831,3.204403,27.21,34.61,20.58,26.44,28.77,40.01,48.4,-22.2,-11.48,-1.86,20.58,26.44,34.61,0,14.03,-0.16
rw_cut_5_p1_3f_opt_disp_struct_9.xyz,Nucleus 0C :,-2.133026,-2.094737,4.242684,171.33,160.53,166.71,186.74,259.57,236.9,238.62,-80.92,-73.64,-66.55,160.53,166.71,186.74,0,26.21,-0.53
rw_cut_5_p1_3f_opt_disp_struct_9.xyz,Nucleus 3C :,-0.425595,-0.67535,3.428368,61.3,148.18,53.04,-17.31,242.09,276.04,264.01,-93.99,-222.9,-281.35,-17.31,53.04,148.18,0,165.49,-0.15
rw_cut_5_p1_3f_opt_disp_struct_9.xyz,Nucleus 4C :,-0.135025,-0.259092,4.668064,54.18,-29.33,126.78,65.1,259.93,254.85,275.86,-292.79,-130.97,-204.32,-29.33,65.1,126.78,0,156.11,0.21
rw_cut_5_p1_3f_opt_disp_struct_9.xyz,Nucleus 7C :,2.476134,1.588281,0.686909,51.57,137.61,-1.42,18.52,273.9,259.76,266.65,-122.29,-275.31,-247.99,-1.42,18.52,137.61,0,139.03,-0.71
rw_cut_5_p1_3f_opt_disp_struct_9.xyz,Nucleus 8C :,0.051424,0.307172,-1.797715,61.87,155.4,30.64,-0.43,237.27,272.16,264.26,-82.61,-234.81,-270.65,-0.43,30.64,155.4,0,155.83,-0.6
rw_cut_5_p1_3f_opt_disp_struct_9.xyz,Nucleus 9C :,4.243886,-7.777421,3.702677,19.02,-52.74,78.7,31.11,234.16,268.0,268.52,-155.86,-236.64,-321.13,-52.74,31.11,78.7,0,131.44,0.28
rw_cut_5_p1_3f_opt_disp_struct_9.xyz,Nucleus 11C :,4.434934,-7.410266,4.718042,79.74,154.18,15.1,69.95,235.27,263.47,277.75,-81.52,-253.09,-202.66,15.1,69.95,154.18,0,139.08,-0.21
rw_cut_5_p1_3f_opt_disp_struct_9.xyz,Nucleus 13C :,3.286006,-8.306613,3.669767,27.48,87.8,19.05,-24.41,233.66,260.66,272.6,-145.95,-252.36,-286.18,-24.41,19.05,87.8,0,112.21,-0.23
rw_cut_5_p1_3f_opt_disp_struct_9.xyz,Nucleus 15C :,4.269697,-6.698081,2.718891,38.94,89.04,26.5,1.28,234.06,272.68,265.0,-145.54,-245.57,-263.81,1.28,26.5,89.04,0,87.76,-0.43
rw_cut_5_p1_3f_opt_disp_struct_9.xyz,Nucleus 19C :,5.099347,-6.605921,2.155807,155.19,130.44,146.43,188.7,209.03,191.22,271.14,-44.62,-75.49,-85.73,130.44,146.43,188.7,0,58.26,-0.45
rw_cut_5_p1_3f_opt_disp_struct_9.xyz,Nucleus 24C :,3.371589,-5.704791,2.640216,21.42,115.39,-15.55,-35.57,238.77,270.54,264.03,-123.63,-281.19,-304.26,-35.57,-15.55,115.39,0,150.96,-0.73
rw_cut_5_p1_3f_opt_disp_struct_9.xyz,Nucleus 5N :,3.508572,-4.781884,1.687856,120.46,47.68,184.96,128.74,294.84,337.04,331.23,-110.32,-207.07,-284.34,47.68,128.74,184.96,0,137.28,0.18
rw_cut_5_p1_3f_opt_disp_struct_9.xyz,Nucleus 22N :,2.869999,-3.998263,1.603582,167.42,99.66,222.0,180.59,279.94,347.85,329.68,-234.53,-123.37,-97.32,99.66,180.59,222.0,0,122.34,0.32
rw_cut_5_p1_3f_opt_disp_struct_9.xyz,Nucleus 25N :,2.34547,-5.603653,3.485298,175.32,115.82,176.17,233.97,323.96,344.44,334.62,-211.37,-163.61,-102.08,115.82,176.17,233.97,0,118.15,0.02
rw_cut_5_p1_3f_opt_disp_struct_9.xyz,Nucleus 27N :,2.244957,-6.235,4.261811,174.98,115.16,213.59,196.18,299.15,338.88,324.81,-211.0,-124.83,-102.08,115.16,196.18,213.59,0,98.43,0.65
rw_cut_5_p1_3f_opt_disp_struct_9.xyz,Nucleus 10F :,1.605503,-4.937025,3.30356,300.76,397.55,218.24,286.48,483.4,457.94,465.77,-68.13,-240.56,-196.15,218.24,286.48,397.55,0,179.31,-0.24
rw_cut_5_p1_3f_opt_disp_struct_9.xyz,Nucleus 14F :,5.02531,-8.491717,3.443771,321.56,411.57,295.66,257.44,458.89,474.88,480.27,-63.49,-182.27,-203.61,257.44,295.66,411.57,0,154.13,-0.5
rw_cut_5_p1_3f_opt_disp_struct_9.xyz,Nucleus 16F :,4.177227,-4.908639,0.946997,347.39,456.44,300.18,285.55,457.43,469.6,484.05,-12.63,-167.13,-189.15,285.55,300.18,456.44,0,170.89,-0.83
rw_cut_5_p1_4f_opt.xyz,Nucleus 1H :,0.979309,-0.025991,-1.331735,28.93,35.69,23.17,27.93,41.28,25.24,31.22,-0.52,-6.66,-3.76,23.17,27.93,35.69,0,12.52,-0.24
rw_cut_5_p1_4f_opt.xyz,Nucleus 2H :,1.792354,0.5849,-1.729245,29.01,23.97,28.58,34.48,48.43,28.16,26.46,2.29,-4.11,-14.2,23.97,28.58,34.48,0,10.51,-0.12
rw_cut_5_p1_4f_opt.xyz,Nucleus 6H :,1.143633,-1.060252,-1.651975,23.21,14.89,24.64,30.11,52.71,9.75,28.57,-23.08,-3.99,5.68,14.89,24.64,30.11,0,15.22,0.28
rw_cut_5_p1_4f_opt.xyz,Nucleus 17H :,0.907439,0.093305,0.148985,23.8,20.0,26.12,25.29,45.03,26.09,31.99,-19.53,-5.65,-6.52,20.0,25.29,26.12,0,6.12,0.73
rw_cut_5_p1_4f_opt.xyz,Nucleus 18H :,1.695519,0.901917,0.94573,28.58,35.34,26.93,23.48,43.27,27.7,32.11,-0.69,-8.72,-7.93,23.48,26.93,35.34,0,11.86,-0.42
rw_cut_5_p1_4f_opt.xyz,Nucleus 20H :,1.318109,0.729764,2.250337,28.77,34.62,24.27,27.42,-0.7,18.31,39.11,26.7,7.84,-4.95,24.27,27.42,34.62,0,10.35,-0.39
rw_cut_5_p1_4f_opt.xyz,Nucleus 21H :,1.693294,1.225437,3.04248,28.74,35.41,26.71,24.09,1.17,18.04,39.82,25.38,7.11,-5.31,24.09,26.71,35.41,0,11.32,-0.54
rw_cut_5_p1_4f_opt.xyz,Nucleus 23H :,0.289853,-0.178539,2.323195,27.42,18.38,34.74,29.15,48.34,19.09,30.85,-13.81,0.67,-2.87,18.38,29.15,34.74,0,16.36,0.32
rw_cut_5_p1_4f_opt.xyz,Nucleus 26H :,0.005401,-0.596414,1.020587,27.36,47.83,14.6,19.65,12.96,62.53,41.79,7.18,-29.91,-12.47,14.6,19.65,47.83,0,33.23,-0.7
rw_cut_5_p1_4f_opt.xyz,Nucleus 28H :,-1.029464,-1.538095,0.837311,26.86,19.32,27.53,33.73,1.87,24.01,52.14,17.53,3.64,-18.6,19.32,27.53,33.73,0,14.41,0.14
rw_cut_5_p1_4f_opt.xyz,Nucleus 29H :,-1.343296,-1.969362,-0.393388,26.6,43.95,16.21,19.64,54.76,14.64,30.02,6.7,-14.91,-11.4,16.21,19.64,43.95,0,27.74,-0.75
rw_cut_5_p1_4f_opt.xyz,Nucleus 30H :,-1.732136,-2.025927,1.939893,28.42,35.83,25.95,23.49,39.43,15.05,-9.2,32.8,-3.63,10.82,23.49,25.95,35.83,0,12.34,-0.6
rw_cut_5_p1_4f_opt.xyz,Nucleus 31H :,-2.713321,-2.922319,1.75692,28.03,20.1,34.34,29.65,49.33,32.93,32.23,-21.39,-6.31,-2.69,20.1,29.65,34.34,0,14.24,0.34
rw_cut_5_p1_4f_opt.xyz,Nucleus 0C :,-1.425723,-1.593336,3.220609,171.86,160.6,167.81,187.18,261.79,237.3,240.27,-83.62,-73.04,-67.09,160.6,167.81,187.18,0,26.58,-0.46
rw_cut_5_p1_4f_opt.xyz,Nucleus 3C :,-2.111676,-2.073224,4.268667,59.99,146.92,50.65,-17.61,243.43,277.69,264.88,-96.59,-227.0,-282.46,-17.61,50.65,146.92,0,164.53,-0.17
rw_cut_5_p1_4f_opt.xyz,Nucleus 4C :,-0.411257,-0.663313,3.430541,47.89,-37.87,128.06,53.48,276.66,256.35,258.3,-300.91,-129.73,-217.01,-37.87,53.48,128.06,0,165.93,0.1
rw_cut_5_p1_4f_opt.xyz,Nucleus 7C :,-0.111698,-0.240557,4.665821,56.54,139.37,4.13,26.13,276.78,267.43,263.34,-124.55,-272.12,-241.25,4.13,26.13,139.37,0,135.24,-0.67
rw_cut_5_p1_4f_opt.xyz,Nucleus 8C :,2.479643,1.59103,0.669473,63.94,160.56,28.98,2.28,234.05,271.12,255.07,-74.12,-227.0,-267.31,2.28,28.98,160.56,0,158.28,-0.66
rw_cut_5_p1_4f_opt.xyz,Nucleus 9C :,0.048429,0.305341,-1.803042,28.7,85.09,17.53,-16.53,243.83,269.14,276.25,-158.96,-251.61,-292.57,-16.53,17.53,85.09,0,101.62,-0.33
rw_cut_5_p1_4f_opt.xyz,Nucleus 11C :,2.59088,-5.916981,3.468224,36.07,95.89,18.86,-6.54,239.33,264.6,275.79,-144.96,-245.32,-281.23,-6.54,18.86,95.89,0,102.43,-0.5
rw_cut_5_p1_4f_opt.xyz,Nucleus 13C :,2.568056,-5.508438,4.48353,38.39,96.37,17.09,1.71,238.15,275.64,263.3,-142.11,-251.92,-267.89,1.71,17.09,96.37,0,94.66,-0.68
rw_cut_5_p1_4f_opt.xyz,Nucleus 15C :,1.740892,-6.592826,3.316408,37.64,90.97,19.95,1.99,235.09,276.01,263.47,-145.06,-254.94,-261.68,1.99,19.95,90.97,0,88.98,-0.6
rw_cut_5_p1_4f_opt.xyz,Nucleus 19C :,2.614295,-4.839791,2.482025,155.39,131.12,146.13,188.91,202.08,214.18,265.21,-56.02,-85.08,-74.22,131.12,146.13,188.91,0,57.79,-0.48
rw_cut_5_p1_4f_opt.xyz,Nucleus 24C :,3.242205,-4.9435,1.701375,22.34,117.29,-17.85,-32.43,233.92,269.75,263.24,-116.82,-286.8,-296.28,-32.43,-17.85,117.29,0,149.72,-0.81
rw_cut_5_p1_4f_opt.xyz,Nucleus 5N :,1.716518,-3.846154,2.403946,114.96,38.28,184.85,121.75,293.19,339.29,331.05,-108.65,-212.22,-297.79,38.28,121.75,184.85,0,146.57,0.14
rw_cut_5_p1_4f_opt.xyz,Nucleus 22N :,1.851112,-2.925392,1.449172,171.12,106.22,227.8,179.33,298.53,346.52,330.51,-225.37,-115.18,-121.65,106.22,179.33,227.8,0,121.58,0.2
rw_cut_5_p1_4f_opt.xyz,Nucleus 25N :,1.185522,-2.16959,1.334782,168.41,114.07,172.32,218.85,314.06,331.86,340.74,-211.78,-152.61,-117.03,114.07,172.32,218.85,0,104.78,0.11
rw_cut_5_p1_4f_opt.xyz,Nucleus 27N :,0.693051,-3.742591,3.251944,167.74,113.38,195.94,193.91,294.06,328.06,332.13,-98.69,-135.62,-216.72,113.38,193.91,195.94,0,82.56,0.95
rw_cut_5_p1_4f_opt.xyz,Nucleus 10F :,0.481618,-4.474808,3.908594,314.94,439.12,237.66,268.04,477.73,454.86,463.9,-23.57,-227.43,-200.68,237.66,268.04,439.12,0,201.46,-0.7
rw_cut_5_p1_4f_opt.xyz,Nucleus 12F :,0.102193,-2.92133,3.23585,335.59,443.96,285.38,277.43,454.37,475.28,480.33,-31.49,-199.15,-172.57,277.43,285.38,443.96,0,166.53,-0.9
rw_cut_5_p1_4f_opt.xyz,Nucleus 14F :,3.510312,-6.492928,3.364023,340.1,449.56,288.72,282.02,454.65,470.37,487.48,-32.68,-166.91,-192.62,282.02,288.72,449.56,0,167.54,-0.92
rw_cut_5_p1_4f_opt.xyz,Nucleus 16F :,2.698281,-2.872258,0.908955,332.11,442.35,269.77,284.2,453.71,494.47,474.84,-51.17,-183.14,-192.39,269.77,284.2,442.35,0,172.58,-0.83
rw_cut_5_p1_4f_opt_disp_struct_0.xyz,Nucleus 1H :,0.979309,-0.025991,-1.331735,28.95,35.62,23.22,28.0,41.21,25.16,31.44,-0.47,-6.58,-3.91,23.22,28.0,35.62,0,12.4,-0.23
rw_cut_5_p1_4f_opt_disp_struct_0.xyz,Nucleus 2H :,1.792354,0.5849,-1.729245,29.01,24.0,28.53,34.49,48.27,28.37,26.51,2.17,-4.3,-13.98,24.0,28.53,34.49,0,10.49,-0.14
rw_cut_5_p1_4f_opt_disp_struct_0.xyz,Nucleus 6H :,1.143633,-1.060252,-1.651975,23.27,14.96,24.75,30.1,52.71,9.96,28.64,-23.1,-3.92,5.54,14.96,24.75,30.1,0,15.14,0.29
rw_cut_5_p1_4f_opt_disp_struct_0.xyz,Nucleus 17H :,0.907439,0.093305,0.148985,23.85,20.07,26.15,25.32,45.09,26.07,32.27,-19.58,-5.7,-6.61,20.07,25.32,26.15,0,6.08,0.73
rw_cut_5_p1_4f_opt_disp_struct_0.xyz,Nucleus 18H :,1.695519,0.901917,0.94573,28.58,35.3,26.93,23.52,43.11,27.78,31.87,-0.76,-8.39,-7.87,23.52,26.93,35.3,0,11.78,-0.42
rw_cut_5_p1_4f_opt_disp_struct_0.xyz,Nucleus 20H :,1.318109,0.729764,2.250337,28.74,34.58,24.27,27.36,-1.81,18.32,39.05,27.86,7.77,-4.98,24.27,27.36,34.58,0,10.31,-0.4
rw_cut_5_p1_4f_opt_disp_struct_0.xyz,Nucleus 21H :,1.693294,1.225437,3.04248,28.71,35.37,26.67,24.08,0.03,18.02,39.81,26.61,7.05,-5.4,24.08,26.67,35.37,0,11.29,-0.54
rw_cut_5_p1_4f_opt_disp_struct_0.xyz,Nucleus 23H :,0.289853,-0.178539,2.323195,27.34,18.45,34.59,28.98,48.49,17.83,30.48,-14.12,1.8,-2.46,18.45,28.98,34.59,0,16.14,0.3
rw_cut_5_p1_4f_opt_disp_struct_0.xyz,Nucleus 26H :,0.005401,-0.596414,1.020587,28.07,45.82,16.73,21.67,16.2,60.28,46.8,5.65,-31.94,-12.78,16.73,21.67,45.82,0,29.09,-0.66
rw_cut_5_p1_4f_opt_disp_struct_0.xyz,Nucleus 28H :,-1.029464,-1.538095,0.837311,26.89,19.39,27.38,33.9,0.72,24.35,52.34,18.75,3.08,-18.57,19.39,27.38,33.9,0,14.51,0.1
rw_cut_5_p1_4f_opt_disp_struct_0.xyz,Nucleus 29H :,-1.343296,-1.969362,-0.393388,27.31,42.38,17.8,21.76,51.95,18.8,33.05,4.46,-15.75,-10.58,17.8,21.76,42.38,0,24.58,-0.68
rw_cut_5_p1_4f_opt_disp_struct_0.xyz,Nucleus 30H :,-1.732136,-2.025927,1.939893,28.38,35.73,25.93,23.49,-10.7,39.27,14.76,34.3,-3.56,11.08,23.49,25.93,35.73,0,12.24,-0.6
rw_cut_5_p1_4f_opt_disp_struct_0.xyz,Nucleus 31H :,-2.713321,-2.922319,1.75692,27.95,20.18,34.56,29.12,49.45,31.83,33.33,-21.73,-6.66,-2.36,20.18,29.12,34.56,0,14.38,0.24
rw_cut_5_p1_4f_opt_disp_struct_0.xyz,Nucleus 0C :,-1.425723,-1.593336,3.220609,171.8,160.64,167.65,187.1,236.7,240.11,261.48,-83.27,-72.9,-66.72,160.64,167.65,187.1,0,26.46,-0.47
rw_cut_5_p1_4f_opt_disp_struct_0.xyz,Nucleus 3C :,-2.111676,-2.073224,4.268667,60.55,147.13,51.83,-17.31,241.76,277.27,264.28,-94.74,-225.38,-281.54,-17.31,51.83,147.13,0,164.44,-0.16
rw_cut_5_p1_4f_opt_disp_struct_0.xyz,Nucleus 4C :,-0.411257,-0.663313,3.430541,49.01,-36.24,128.02,55.24,276.96,256.62,257.46,-299.3,-129.37,-215.36,-36.24,55.24,128.02,0,164.26,0.11
rw_cut_5_p1_4f_opt_disp_struct_0.xyz,Nucleus 7C :,-0.111698,-0.240557,4.665821,56.91,139.31,4.8,26.62,276.72,262.96,266.58,-123.89,-271.7,-239.94,4.8,26.62,139.31,0,134.51,-0.68
rw_cut_5_p1_4f_opt_disp_struct_0.xyz,Nucleus 8C :,2.479643,1.59103,0.669473,64.55,160.1,29.87,3.68,234.34,272.05,255.98,-74.76,-227.37,-266.6,3.68,29.87,160.1,0,156.42,-0.67
rw_cut_5_p1_4f_opt_disp_struct_0.xyz,Nucleus 9C :,0.048429,0.305341,-1.803042,29.39,84.82,18.75,-15.39,243.0,269.64,276.15,-158.44,-250.74,-291.41,-15.39,18.75,84.82,0,100.21,-0.32
rw_cut_5_p1_4f_opt_disp_struct_0.xyz,Nucleus 11C :,2.756315,-6.102933,3.491751,37.04,95.73,20.26,-4.86,238.83,264.49,275.8,-144.42,-244.01,-279.56,-4.86,20.26,95.73,0,100.59,-0.5
rw_cut_5_p1_4f_opt_disp_struct_0.xyz,Nucleus 13C :,2.73349,-5.694389,4.507057,38.48,95.91,17.51,2.03,238.27,274.79,263.27,-142.87,-250.43,-267.58,2.03,17.51,95.91,0,93.88,-0.67
rw_cut_5_p1_4f_opt_disp_struct_0.xyz,Nucleus 15C :,1.906327,-6.778778,3.339935,38.34,90.79,21.14,3.1,234.52,274.8,263.44,-144.99,-252.83,-259.91,3.1,21.14,90.79,0,87.69,-0.59
rw_cut_5_p1_4f_opt_disp_struct_0.xyz,Nucleus 19C :,2.779729,-5.025742,2.505552,155.35,130.94,146.2,188.91,200.83,213.83,265.89,-54.71,-85.27,-74.52,130.94,146.2,188.91,0,57.97,-0.47
rw_cut_5_p1_4f_opt_disp_struct_0.xyz,Nucleus 24C :,3.40764,-5.129451,1.724902,22.03,116.18,-16.62,-33.46,235.09,268.68,264.12,-119.06,-284.99,-297.74,-33.46,-16.62,116.18,0,149.64,-0.77
rw_cut_5_p1_4f_opt_disp_struct_0.xyz,Nucleus 5N :,1.881953,-4.032105,2.427473,116.32,40.29,184.88,123.8,293.04,339.21,330.84,-108.7,-295.07,-210.37,40.29,123.8,184.88,0,144.59,0.16
rw_cut_5_p1_4f_opt_disp_struct_0.xyz,Nucleus 22N :,2.016546,-3.111344,1.472699,170.09,104.13,226.47,179.67,296.78,346.36,330.36,-227.62,-114.34,-121.26,104.13,179.67,226.47,0,122.34,0.23
rw_cut_5_p1_4f_opt_disp_struct_0.xyz,Nucleus 25N :,1.350956,-2.355541,1.358309,172.26,115.75,174.79,226.23,315.19,331.53,339.5,-210.28,-150.5,-108.67,115.75,174.79,226.23,0,110.48,0.07
rw_cut_5_p1_4f_opt_disp_struct_0.xyz,Nucleus 27N :,0.858485,-3.928542,3.275471,171.31,115.03,203.28,195.62,291.97,327.45,332.86,-213.87,-128.84,-95.64,115.03,195.62,203.28,0,88.25,0.83
rw_cut_5_p1_4f_opt_disp_struct_0.xyz,Nucleus 10F :,0.647053,-4.660759,3.93212,317.5,440.16,241.47,270.88,478.31,455.24,463.93,-22.81,-224.33,-197.84,241.47,270.88,440.16,0,198.69,-0.7
rw_cut_5_p1_4f_opt_disp_struct_0.xyz,Nucleus 12F :,0.267627,-3.107282,3.259377,338.45,445.08,289.22,281.06,454.6,473.91,480.66,-29.29,-196.93,-167.58,281.06,289.22,445.08,0,164.02,-0.9
rw_cut_5_p1_4f_opt_disp_struct_0.xyz,Nucleus 14F :,3.675747,-6.678879,3.38755,341.66,450.35,291.74,282.9,455.99,471.32,486.59,-31.78,-164.92,-192.21,282.9,291.74,450.35,0,167.45,-0.89
rw_cut_5_p1_4f_opt_disp_struct_0.xyz,Nucleus 16F :,2.863715,-3.058209,0.932482,334.86,443.29,274.89,286.39,454.22,492.94,475.02,-48.87,-178.34,-190.4,274.89,286.39,443.29,0,168.4,-0.86
rw_cut_5_p1_4f_opt_disp_struct_1.xyz,Nucleus 1H :,0.979309,-0.025991,-1.331735,28.96,35.56,23.26,28.06,41.17,25.17,31.51,-0.48,-6.57,-3.93,23.26,28.06,35.56,0,12.3,-0.22
rw_cut_5_p1_4f_opt_disp_struct_1.xyz,Nucleus 2H :,1.792354,0.5849,-1.729245,29.0,24.03,28.46,34.52,48.07,28.48,26.51,2.04,-4.37,-13.73,24.03,28.46,34.52,0,10.49,-0.15
rw_cut_5_p1_4f_opt_disp_struct_1.xyz,Nucleus 6H :,1.143633,-1.060252,-1.651975,23.33,15.03,24.84,30.13,52.62,10.05,28.74,-23.01,-3.9,5.5,15.03,24.84,30.13,0,15.1,0.3
rw_cut_5_p1_4f_opt_disp_struct_1.xyz,Nucleus 17H :,0.907439,0.093305,0.148985,23.89,20.14,26.18,25.35,45.12,26.09,32.35,-19.64,-5.67,-6.58,20.14,25.35,26.18,0,6.04,0.73
rw_cut_5_p1_4f_opt_disp_struct_1.xyz,Nucleus 18H :,1.695519,0.901917,0.94573,28.59,35.25,26.95,23.57,42.97,27.83,31.7,-0.81,-8.21,-7.73,23.57,26.95,35.25,0,11.68,-0.42
rw_cut_5_p1_4f_opt_disp_struct_1.xyz,Nucleus 20H :,1.318109,0.729764,2.250337,28.71,34.55,24.28,27.31,-2.79,18.28,39.02,28.91,7.74,-5.03,24.28,27.31,34.55,0,10.27,-0.41
rw_cut_5_p1_4f_opt_disp_struct_1.xyz,Nucleus 21H :,1.693294,1.225437,3.04248,28.68,35.33,26.64,24.08,-1.02,17.98,39.83,27.73,7.03,-5.5,24.08,26.64,35.33,0,11.25,-0.54
rw_cut_5_p1_4f_opt_disp_struct_1.xyz,Nucleus 23H :,0.289853,-0.178539,2.323195,27.27,18.49,34.46,28.85,48.66,16.49,30.18,-14.42,3.03,-2.14,18.49,28.85,34.46,0,15.97,0.3
rw_cut_5_p1_4f_opt_disp_struct_1.xyz,Nucleus 26H :,0.005401,-0.596414,1.020587,28.28,44.14,17.97,22.74,18.77,58.52,50.39,-34.11,4.01,-12.73,17.97,22.74,44.14,0,26.17,-0.64
rw_cut_5_p1_4f_opt_disp_struct_1.xyz,Nucleus 28H :,-1.029464,-1.538095,0.837311,26.87,19.43,27.24,33.94,0.15,24.55,52.64,19.38,2.7,-18.8,19.43,27.24,33.94,0,14.51,0.08
rw_cut_5_p1_4f_opt_disp_struct_1.xyz,Nucleus 29H :,-1.343296,-1.969362,-0.393388,27.55,41.09,18.65,22.9,49.96,21.75,35.72,2.49,-17.28,-10.0,18.65,22.9,41.09,0,22.44,-0.62
rw_cut_5_p1_4f_opt_disp_struct_1.xyz,Nucleus 30H :,-1.732136,-2.025927,1.939893,28.35,35.64,25.91,23.49,-12.17,39.14,14.47,35.77,-3.52,11.36,23.49,25.91,35.64,0,12.15,-0.6
rw_cut_5_p1_4f_opt_disp_struct_1.xyz,Nucleus 31H :,-2.713321,-2.922319,1.75692,27.85,20.26,34.66,28.64,49.59,31.21,33.82,-21.89,-6.99,-2.18,20.26,28.64,34.66,0,14.4,0.16
rw_cut_5_p1_4f_opt_disp_struct_1.xyz,Nucleus 0C :,-1.425723,-1.593336,3.220609,171.72,160.67,167.49,187.0,236.38,239.96,261.14,-82.9,-72.86,-66.55,160.67,167.49,187.0,0,26.33,-0.48
rw_cut_5_p1_4f_opt_disp_struct_1.xyz,Nucleus 3C :,-2.111676,-2.073224,4.268667,60.86,147.24,52.54,-17.2,240.49,276.68,264.03,-93.37,-224.06,-281.19,-17.2,52.54,147.24,0,164.44,-0.15
rw_cut_5_p1_4f_opt_disp_struct_1.xyz,Nucleus 4C :,-0.411257,-0.663313,3.430541,49.88,-35.0,127.92,56.72,276.94,257.29,256.3,-298.04,-129.15,-213.71,-35.0,56.72,127.92,0,162.92,0.13
rw_cut_5_p1_4f_opt_disp_struct_1.xyz,Nucleus 7C :,-0.111698,-0.240557,4.665821,57.04,139.2,4.93,26.98,276.7,262.14,266.15,-123.27,-271.68,-238.93,4.93,26.98,139.2,0,134.27,-0.67
rw_cut_5_p1_4f_opt_disp_struct_1.xyz,Nucleus 8C :,2.479643,1.59103,0.669473,64.55,159.79,29.84,4.01,234.78,272.88,257.0,-75.54,-228.63,-266.85,4.01,29.84,159.79,0,155.78,-0.67
rw_cut_5_p1_4f_opt_disp_struct_1.xyz,Nucleus 9C :,0.048429,0.305341,-1.803042,29.8,84.57,19.53,-14.69,241.87,270.15,275.97,-157.7,-250.28,-290.59,-14.69,19.53,84.57,0,99.26,-0.31
rw_cut_5_p1_4f_opt_disp_struct_1.xyz,Nucleus 11C :,2.921749,-6.288884,3.515277,37.57,95.55,20.89,-3.74,238.78,264.33,275.93,-144.23,-243.49,-278.63,-3.74,20.89,95.55,0,99.29,-0.5
rw_cut_5_p1_4f_opt_disp_struct_1.xyz,Nucleus 13C :,2.898924,-5.880341,4.530583,38.35,95.6,17.51,1.93,238.18,274.53,263.23,-143.42,-249.71,-267.77,1.93,17.51,95.6,0,93.67,-0.67
rw_cut_5_p1_4f_opt_disp_struct_1.xyz,Nucleus 15C :,2.071761,-6.964729,3.363461,38.72,90.62,21.83,3.71,234.34,274.25,263.17,-144.94,-251.61,-259.05,3.71,21.83,90.62,0,86.91,-0.58
rw_cut_5_p1_4f_opt_disp_struct_1.xyz,Nucleus 19C :,2.945164,-5.211694,2.529078,155.33,130.83,146.26,188.9,199.68,213.45,266.55,-53.51,-85.35,-74.82,130.83,146.26,188.9,0,58.07,-0.47
rw_cut_5_p1_4f_opt_disp_struct_1.xyz,Nucleus 24C :,3.573074,-5.315402,1.748429,21.87,115.63,-15.88,-34.14,235.61,267.96,264.88,-120.11,-283.73,-299.0,-34.14,-15.88,115.63,0,149.77,-0.76
rw_cut_5_p1_4f_opt_disp_struct_1.xyz,Nucleus 5N :,2.047387,-4.218056,2.451,117.6,42.28,184.87,125.64,292.87,339.13,330.72,-108.72,-292.44,-208.78,42.28,125.64,184.87,0,142.59,0.17
rw_cut_5_p1_4f_opt_disp_struct_1.xyz,Nucleus 22N :,2.181981,-3.297295,1.496226,169.33,102.72,225.32,179.95,294.96,346.31,330.31,-229.28,-112.92,-121.38,102.72,179.95,225.32,0,122.6,0.26
rw_cut_5_p1_4f_opt_disp_struct_1.xyz,Nucleus 25N :,1.516391,-2.541492,1.381836,174.15,116.47,175.82,230.17,316.94,332.06,338.88,-209.81,-151.06,-104.54,116.47,175.82,230.17,0,113.7,0.04
rw_cut_5_p1_4f_opt_disp_struct_1.xyz,Nucleus 27N :,1.02392,-4.114494,3.298998,173.07,115.53,207.85,195.84,291.76,333.85,326.95,-212.63,-125.71,-95.0,115.53,195.84,207.85,0,92.32,0.74
rw_cut_5_p1_4f_opt_disp_struct_1.xyz,Nucleus 10F :,0.812487,-4.846711,3.955647,319.54,440.89,244.68,273.04,478.71,455.52,463.97,-22.31,-221.52,-195.75,244.68,273.04,440.89,0,196.21,-0.71
rw_cut_5_p1_4f_opt_disp_struct_1.xyz,Nucleus 12F :,0.433062,-3.293233,3.282903,340.55,445.95,283.39,292.32,454.93,473.2,480.87,-27.86,-195.33,-164.14,283.39,292.32,445.95,0,162.56,-0.89
rw_cut_5_p1_4f_opt_disp_struct_1.xyz,Nucleus 14F :,3.841181,-6.864831,3.411076,342.58,451.04,293.25,283.45,456.77,472.06,485.78,-30.72,-164.26,-191.89,283.45,293.25,451.04,0,167.59,-0.88
rw_cut_5_p1_4f_opt_disp_struct_1.xyz,Nucleus 16F :,3.02915,-3.24416,0.956009,336.96,444.02,278.74,288.11,454.52,492.16,475.02,-47.21,-174.68,-188.95,278.74,288.11,444.02,0,165.28,-0.89
rw_cut_5_p1_4f_opt_disp_struct_10.xyz,Nucleus 1H :,0.979309,-0.025991,-1.331735,29.08,35.36,23.42,28.45,40.96,25.69,30.9,-6.64,-0.65,-3.03,23.42,28.45,35.36,0,11.94,-0.16
rw_cut_5_p1_4f_opt_disp_struct_10.xyz,Nucleus 2H :,1.792354,0.5849,-1.729245,28.96,24.04,28.07,34.77,46.86,28.13,26.1,-12.39,-3.75,1.93,24.04,28.07,34.77,0,10.73,-0.25
rw_cut_5_p1_4f_opt_disp_struct_10.xyz,Nucleus 6H :,1.143633,-1.060252,-1.651975,23.65,15.33,25.2,30.42,51.41,10.47,29.82,-21.48,-4.45,5.17,15.33,25.2,30.42,0,15.09,0.31
rw_cut_5_p1_4f_opt_disp_struct_10.xyz,Nucleus 17H :,0.907439,0.093305,0.148985,24.13,20.5,25.43,26.47,45.11,26.8,31.79,-19.64,-6.12,-5.54,20.5,25.43,26.47,0,5.97,0.65
rw_cut_5_p1_4f_opt_disp_struct_10.xyz,Nucleus 18H :,1.695519,0.901917,0.94573,28.64,35.02,27.11,23.78,42.38,27.46,31.75,-0.63,-8.42,-6.61,23.78,27.11,35.02,0,11.24,-0.41
rw_cut_5_p1_4f_opt_disp_struct_10.xyz,Nucleus 20H :,1.318109,0.729764,2.250337,28.55,34.38,24.35,26.93,-10.42,17.59,39.19,36.99,8.07,-5.76,24.35,26.93,34.38,0,10.03,-0.48
rw_cut_5_p1_4f_opt_disp_struct_10.xyz,Nucleus 21H :,1.693294,1.225437,3.04248,28.55,35.15,26.4,24.11,-9.32,17.41,40.38,36.48,7.32,-6.62,24.11,26.4,35.15,0,11.04,-0.58
rw_cut_5_p1_4f_opt_disp_struct_10.xyz,Nucleus 23H :,0.289853,-0.178539,2.323195,26.93,18.63,33.96,28.21,4.81,50.36,28.38,-16.68,14.46,-0.54,18.63,28.21,33.96,0,15.33,0.25
rw_cut_5_p1_4f_opt_disp_struct_10.xyz,Nucleus 26H :,0.005401,-0.596414,1.020587,27.06,37.34,23.91,19.93,72.77,27.09,47.93,-52.77,-11.03,-2.82,19.93,23.91,37.34,0,17.41,-0.54
rw_cut_5_p1_4f_opt_disp_struct_10.xyz,Nucleus 28H :,-1.029464,-1.538095,0.837311,26.57,19.68,26.37,33.65,-0.71,25.05,56.31,20.51,1.27,-22.72,19.68,26.37,33.65,0,13.97,-0.04
rw_cut_5_p1_4f_opt_disp_struct_10.xyz,Nucleus 29H :,-1.343296,-1.969362,-0.393388,26.73,36.13,19.88,24.17,29.8,44.0,55.32,-35.23,-5.23,-8.46,19.88,24.17,36.13,0,16.25,-0.47
rw_cut_5_p1_4f_opt_disp_struct_10.xyz,Nucleus 30H :,-1.732136,-2.025927,1.939893,28.18,35.13,25.91,23.5,-24.55,38.47,11.77,48.17,-3.38,14.07,23.5,25.91,35.13,0,11.63,-0.59
rw_cut_5_p1_4f_opt_disp_struct_10.xyz,Nucleus 31H :,-2.713321,-2.922319,1.75692,27.19,34.65,26.32,20.6,51.96,28.05,36.17,-24.25,-9.1,-1.26,20.6,26.32,34.65,0,14.05,-0.19
rw_cut_5_p1_4f_opt_disp_struct_10.xyz,Nucleus 0C :,-1.425723,-1.593336,3.220609,171.39,186.81,160.76,166.61,259.34,236.38,238.53,-80.27,-73.4,-66.4,160.76,166.61,186.81,0,26.05,-0.55
rw_cut_5_p1_4f_opt_disp_struct_10.xyz,Nucleus 3C :,-2.111676,-2.073224,4.268667,61.08,147.42,53.41,-17.6,240.26,274.36,263.72,-92.9,-220.87,-281.36,-17.6,53.41,147.42,0,165.02,-0.14
rw_cut_5_p1_4f_opt_disp_struct_10.xyz,Nucleus 4C :,-0.411257,-0.663313,3.430541,53.28,-30.41,127.27,62.99,274.88,258.89,255.47,-293.52,-130.07,-205.8,-30.41,62.99,127.27,0,157.68,0.18
rw_cut_5_p1_4f_opt_disp_struct_10.xyz,Nucleus 7C :,-0.111698,-0.240557,4.665821,56.56,138.48,3.35,27.84,275.49,260.94,265.78,-122.59,-272.07,-237.87,3.35,27.84,138.48,0,135.13,-0.64
rw_cut_5_p1_4f_opt_disp_struct_10.xyz,Nucleus 8C :,2.479643,1.59103,0.669473,63.07,158.98,27.14,3.09,235.97,271.72,261.57,-77.5,-236.11,-266.46,3.09,27.14,158.98,0,155.89,-0.69
rw_cut_5_p1_4f_opt_disp_struct_10.xyz,Nucleus 9C :,0.048429,0.305341,-1.803042,29.7,83.33,20.46,-14.7,237.44,269.71,272.16,-154.32,-249.08,-286.83,-14.7,20.46,83.33,0,98.03,-0.28
rw_cut_5_p1_4f_opt_disp_struct_10.xyz,Nucleus 11C :,4.410659,-7.962447,3.727018,37.66,94.58,20.89,-2.49,239.51,264.19,274.35,-145.16,-243.82,-276.09,-2.49,20.89,94.58,0,97.07,-0.52
rw_cut_5_p1_4f_opt_disp_struct_10.xyz,Nucleus 13C :,4.387834,-7.553904,4.742324,36.72,94.5,16.17,-0.5,237.21,263.45,274.32,-142.71,-251.63,-270.46,-0.5,16.17,94.5,0,95.0,-0.65
rw_cut_5_p1_4f_opt_disp_struct_10.xyz,Nucleus 15C :,3.560671,-8.638292,3.575203,38.65,89.7,22.64,3.62,233.17,273.28,262.73,-143.68,-250.26,-259.29,3.62,22.64,89.7,0,86.08,-0.56
rw_cut_5_p1_4f_opt_disp_struct_10.xyz,Nucleus 19C :,4.434073,-6.885257,2.74082,155.14,130.43,146.4,188.6,190.45,209.37,271.84,-44.24,-75.89,-86.11,130.43,146.4,188.6,0,58.17,-0.45
rw_cut_5_p1_4f_opt_disp_struct_10.xyz,Nucleus 24C :,5.061984,-6.988966,1.96017,21.37,115.36,-15.4,-35.86,239.29,271.13,263.48,-124.06,-280.65,-305.09,-35.86,-15.4,115.36,0,151.22,-0.73
rw_cut_5_p1_4f_opt_disp_struct_10.xyz,Nucleus 5N :,3.536297,-5.89162,2.662741,122.16,49.74,184.54,132.19,293.66,338.34,330.51,-109.47,-203.51,-283.04,49.74,132.19,184.54,0,134.8,0.22
rw_cut_5_p1_4f_opt_disp_struct_10.xyz,Nucleus 22N :,3.67089,-4.970858,1.707967,167.02,98.98,221.15,180.93,279.59,348.58,330.29,-236.19,-97.49,-123.72,98.98,180.93,221.15,0,122.17,0.34
rw_cut_5_p1_4f_opt_disp_struct_10.xyz,Nucleus 25N :,3.0053,-4.215056,1.593577,175.5,116.2,176.17,234.12,321.56,345.75,335.32,-211.35,-163.5,-101.28,116.2,176.17,234.12,0,117.92,0.02
rw_cut_5_p1_4f_opt_disp_struct_10.xyz,Nucleus 27N :,2.51283,-5.788057,3.510739,174.57,114.66,213.42,195.62,300.51,339.84,324.62,-211.26,-103.38,-126.64,114.66,195.62,213.42,0,98.76,0.64
rw_cut_5_p1_4f_opt_disp_struct_10.xyz,Nucleus 10F :,2.301397,-6.520274,4.167388,326.42,443.05,256.01,280.2,480.47,458.07,463.64,-20.32,-210.69,-191.91,256.01,280.2,443.05,0,187.04,-0.74
rw_cut_5_p1_4f_opt_disp_struct_10.xyz,Nucleus 12F :,1.921971,-4.966796,3.494645,347.68,449.19,290.37,303.49,480.62,471.48,457.5,-22.39,-189.67,-154.49,290.37,303.49,449.19,0,158.82,-0.83
rw_cut_5_p1_4f_opt_disp_struct_10.xyz,Nucleus 14F :,5.330091,-8.538394,3.622817,344.58,453.38,294.57,285.78,459.92,475.49,479.61,-24.55,-166.09,-190.65,285.78,294.57,453.38,0,167.6,-0.9
rw_cut_5_p1_4f_opt_disp_struct_10.xyz,Nucleus 16F :,4.51806,-4.917724,1.16775,343.95,446.62,295.55,289.67,457.71,483.21,478.42,-35.85,-166.08,-185.57,289.67,295.55,446.62,0,156.95,-0.93
rw_cut_5_p1_4f_opt_disp_struct_11.xyz,Nucleus 1H :,0.979309,-0.025991,-1.331735,29.09,35.36,23.43,28.47,40.93,25.71,30.84,-6.61,-0.63,-2.98,23.43,28.47,35.36,0,11.93,-0.16
rw_cut_5_p1_4f_opt_disp_struct_11.xyz,Nucleus 2H :,1.792354,0.5849,-1.729245,28.95,24.02,28.05,34.79,46.76,28.03,26.07,-12.3,-3.65,1.95,24.02,28.05,34.79,0,10.77,-0.25
rw_cut_5_p1_4f_opt_disp_struct_11.xyz,Nucleus 6H :,1.143633,-1.060252,-1.651975,23.66,15.33,25.22,30.44,51.3,10.48,29.89,-21.33,-4.49,5.14,15.33,25.22,30.44,0,15.11,0.31
rw_cut_5_p1_4f_opt_disp_struct_11.xyz,Nucleus 17H :,0.907439,0.093305,0.148985,24.14,20.51,25.44,26.48,45.07,26.81,31.75,-19.58,-6.14,-5.49,20.51,25.44,26.48,0,5.97,0.65
rw_cut_5_p1_4f_opt_disp_struct_11.xyz,Nucleus 18H :,1.695519,0.901917,0.94573,28.65,35.02,27.12,23.8,42.33,27.41,31.79,-0.58,-8.46,-6.54,23.8,27.12,35.02,0,11.22,-0.41
rw_cut_5_p1_4f_opt_disp_struct_11.xyz,Nucleus 20H :,1.318109,0.729764,2.250337,28.54,34.37,24.35,26.91,-11.25,17.52,39.24,37.86,8.11,-5.86,24.35,26.91,34.37,0,10.02,-0.49
rw_cut_5_p1_4f_opt_disp_struct_11.xyz,Nucleus 21H :,1.693294,1.225437,3.04248,28.55,35.14,26.39,24.11,-10.22,17.36,40.47,37.41,7.36,-6.75,24.11,26.39,35.14,0,11.03,-0.59
rw_cut_5_p1_4f_opt_disp_struct_11.xyz,Nucleus 23H :,0.289853,-0.178539,2.323195,26.92,18.64,33.94,28.17,3.55,50.56,28.22,-16.9,15.72,-0.4,18.64,28.17,33.94,0,15.3,0.25
rw_cut_5_p1_4f_opt_disp_struct_11.xyz,Nucleus 26H :,0.005401,-0.596414,1.020587,26.98,37.03,23.93,19.99,74.64,27.52,47.45,-54.58,-10.92,-3.16,19.99,23.93,37.03,0,17.04,-0.54
rw_cut_5_p1_4f_opt_disp_struct_11.xyz,Nucleus 28H :,-1.029464,-1.538095,0.837311,26.55,19.7,26.3,33.64,-0.72,25.07,56.73,20.55,1.18,-23.16,19.7,26.3,33.64,0,13.94,-0.05
rw_cut_5_p1_4f_opt_disp_struct_11.xyz,Nucleus 29H :,-1.343296,-1.969362,-0.393388,26.68,35.92,19.93,24.19,30.17,43.81,57.13,-37.0,-5.66,-8.41,19.93,24.19,35.92,0,15.99,-0.47
rw_cut_5_p1_4f_opt_disp_struct_11.xyz,Nucleus 30H :,-1.732136,-2.025927,1.939893,28.17,35.09,25.92,23.51,-25.87,38.42,11.48,49.5,-3.37,14.36,23.51,25.92,35.09,0,11.58,-0.58
rw_cut_5_p1_4f_opt_disp_struct_11.xyz,Nucleus 31H :,-2.713321,-2.922319,1.75692,27.16,34.66,26.19,20.62,52.25,27.83,36.33,-24.55,-9.23,-1.16,20.62,26.19,34.66,0,14.04,-0.21
rw_cut_5_p1_4f_opt_disp_struct_11.xyz,Nucleus 0C :,-1.425723,-1.593336,3.220609,171.39,186.83,160.78,166.56,259.25,236.38,238.4,-80.07,-73.4,-66.39,160.78,166.56,186.83,0,26.05,-0.56
rw_cut_5_p1_4f_opt_disp_struct_11.xyz,Nucleus 3C :,-2.111676,-2.073224,4.268667,61.09,147.41,53.46,-17.6,240.26,274.06,263.74,-92.89,-220.53,-281.36,-17.6,53.46,147.41,0,165.01,-0.14
rw_cut_5_p1_4f_opt_disp_struct_11.xyz,Nucleus 4C :,-0.411257,-0.663313,3.430541,53.45,-30.2,127.26,63.29,274.74,258.66,255.81,-293.38,-130.11,-205.37,-30.2,63.29,127.26,0,157.46,0.19
rw_cut_5_p1_4f_opt_disp_struct_11.xyz,Nucleus 7C :,-0.111698,-0.240557,4.665821,56.51,138.44,3.25,27.85,275.22,260.99,265.78,-122.61,-271.89,-237.95,3.25,27.85,138.44,0,135.19,-0.64
rw_cut_5_p1_4f_opt_disp_struct_11.xyz,Nucleus 8C :,2.479643,1.59103,0.669473,63.0,158.91,27.03,3.06,236.08,271.09,261.66,-77.61,-236.07,-266.16,3.06,27.03,158.91,0,155.85,-0.69
rw_cut_5_p1_4f_opt_disp_struct_11.xyz,Nucleus 9C :,0.048429,0.305341,-1.803042,29.66,83.27,20.46,-14.75,237.38,269.44,271.78,-154.27,-248.86,-286.5,-14.75,20.46,83.27,0,98.02,-0.28
rw_cut_5_p1_4f_opt_disp_struct_11.xyz,Nucleus 11C :,4.576093,-8.148399,3.750545,37.63,94.54,20.85,-2.5,239.56,264.14,274.05,-145.22,-243.81,-275.84,-2.5,20.85,94.54,0,97.04,-0.52
rw_cut_5_p1_4f_opt_disp_struct_11.xyz,Nucleus 13C :,4.553269,-7.739855,4.765851,36.67,94.47,16.12,-0.58,237.2,263.5,274.07,-142.73,-251.69,-270.34,-0.58,16.12,94.47,0,95.05,-0.65
rw_cut_5_p1_4f_opt_disp_struct_11.xyz,Nucleus 15C :,3.726105,-8.824244,3.598729,38.63,89.67,22.64,3.57,233.16,273.08,262.81,-143.67,-250.11,-259.38,3.57,22.64,89.67,0,86.1,-0.56
rw_cut_5_p1_4f_opt_disp_struct_11.xyz,Nucleus 19C :,4.599508,-7.071208,2.764346,155.13,130.41,146.41,188.58,189.5,208.94,272.4,-43.28,-75.78,-86.38,130.41,146.41,188.58,0,58.17,-0.45
rw_cut_5_p1_4f_opt_disp_struct_11.xyz,Nucleus 24C :,5.227418,-7.174917,1.983697,21.34,115.39,-15.47,-35.9,239.56,271.57,263.28,-124.3,-280.59,-305.5,-35.9,-15.47,115.39,0,151.29,-0.73
rw_cut_5_p1_4f_opt_disp_struct_11.xyz,Nucleus 5N :,3.701731,-6.077571,2.686268,122.32,50.0,184.54,132.43,293.67,338.29,330.46,-109.42,-203.27,-282.77,50.0,132.43,184.54,0,134.54,0.23
rw_cut_5_p1_4f_opt_disp_struct_11.xyz,Nucleus 22N :,3.836325,-5.15681,1.731494,166.96,98.9,221.01,180.96,278.06,348.97,330.28,-236.67,-95.95,-123.82,98.9,180.96,221.01,0,122.11,0.34
rw_cut_5_p1_4f_opt_disp_struct_11.xyz,Nucleus 25N :,3.170735,-4.401007,1.617104,175.47,116.09,176.2,234.12,321.54,346.75,335.38,-211.5,-164.48,-101.29,116.09,176.2,234.12,0,118.03,0.02
rw_cut_5_p1_4f_opt_disp_struct_11.xyz,Nucleus 27N :,2.678264,-5.974008,3.534266,174.57,114.58,213.49,195.64,301.44,340.24,324.47,-211.21,-104.28,-126.96,114.58,195.64,213.49,0,98.91,0.64
rw_cut_5_p1_4f_opt_disp_struct_11.xyz,Nucleus 10F :,2.466831,-6.706225,4.190915,326.68,443.14,256.46,280.43,480.53,458.15,463.63,-20.23,-210.15,-191.89,256.46,280.43,443.14,0,186.68,-0.74
rw_cut_5_p1_4f_opt_disp_struct_11.xyz,Nucleus 12F :,2.087406,-5.152748,3.518171,347.94,449.36,290.6,303.85,480.55,471.43,457.6,-22.13,-189.43,-154.22,290.6,303.85,449.36,0,158.76,-0.83
rw_cut_5_p1_4f_opt_disp_struct_11.xyz,Nucleus 14F :,5.495525,-8.724345,3.646344,344.7,453.48,294.69,285.93,460.18,475.89,478.98,-24.19,-166.15,-190.61,285.93,294.69,453.48,0,167.55,-0.9
rw_cut_5_p1_4f_opt_disp_struct_11.xyz,Nucleus 16F :,4.683494,-5.103675,1.191277,344.22,446.77,295.85,290.03,457.98,482.5,478.66,-35.07,-165.94,-185.49,290.03,295.85,446.77,0,156.74,-0.93
rw_cut_5_p1_4f_opt_disp_struct_12.xyz,Nucleus 1H :,0.979309,-0.025991,-1.331735,29.1,35.36,23.44,28.49,40.9,25.72,30.78,-6.59,-0.62,-2.91,23.44,28.49,35.36,0,11.92,-0.15
rw_cut_5_p1_4f_opt_disp_struct_12.xyz,Nucleus 2H :,1.792354,0.5849,-1.729245,28.95,24.01,28.04,34.8,46.65,27.94,26.04,-12.21,-3.55,1.96,24.01,28.04,34.8,0,10.79,-0.25
rw_cut_5_p1_4f_opt_disp_struct_12.xyz,Nucleus 6H :,1.143633,-1.060252,-1.651975,23.68,15.34,25.24,30.45,51.18,10.49,29.95,-21.18,-4.52,5.12,15.34,25.24,30.45,0,15.11,0.31
rw_cut_5_p1_4f_opt_disp_struct_12.xyz,Nucleus 17H :,0.907439,0.093305,0.148985,24.15,20.52,25.44,26.5,45.04,26.82,31.71,-19.53,-6.15,-5.42,20.52,25.44,26.5,0,5.98,0.65
rw_cut_5_p1_4f_opt_disp_struct_12.xyz,Nucleus 18H :,1.695519,0.901917,0.94573,28.66,35.01,27.14,23.82,42.29,27.36,31.82,-0.54,-8.5,-6.46,23.82,27.14,35.01,0,11.19,-0.41
rw_cut_5_p1_4f_opt_disp_struct_12.xyz,Nucleus 20H :,1.318109,0.729764,2.250337,28.54,34.37,24.36,26.89,-12.07,17.45,39.29,38.72,8.16,-5.95,24.36,26.89,34.37,0,10.01,-0.49
rw_cut_5_p1_4f_opt_disp_struct_12.xyz,Nucleus 21H :,1.693294,1.225437,3.04248,28.54,35.13,26.37,24.11,-11.11,17.3,40.56,38.34,7.4,-6.88,24.11,26.37,35.13,0,11.02,-0.59
rw_cut_5_p1_4f_opt_disp_struct_12.xyz,Nucleus 23H :,0.289853,-0.178539,2.323195,26.9,18.65,33.92,28.14,2.3,50.76,28.07,-17.13,16.97,-0.27,18.65,28.14,33.92,0,15.27,0.24
rw_cut_5_p1_4f_opt_disp_struct_12.xyz,Nucleus 26H :,0.005401,-0.596414,1.020587,26.92,36.77,23.95,20.05,76.47,27.91,47.03,-56.36,-10.83,-3.45,20.05,23.95,36.77,0,16.72,-0.53
rw_cut_5_p1_4f_opt_disp_struct_12.xyz,Nucleus 28H :,-1.029464,-1.538095,0.837311,26.53,19.72,26.25,33.63,-0.76,25.09,57.17,20.6,1.11,-23.61,19.72,26.25,33.63,0,13.91,-0.06
rw_cut_5_p1_4f_opt_disp_struct_12.xyz,Nucleus 29H :,-1.343296,-1.969362,-0.393388,26.64,35.73,19.98,24.2,58.9,43.66,30.5,-38.73,-6.06,-8.37,19.98,24.2,35.73,0,15.75,-0.46
rw_cut_5_p1_4f_opt_disp_struct_12.xyz,Nucleus 30H :,-1.732136,-2.025927,1.939893,28.17,35.06,25.92,23.52,-27.19,38.38,11.19,50.82,-3.36,14.65,23.52,25.92,35.06,0,11.54,-0.58
rw_cut_5_p1_4f_opt_disp_struct_12.xyz,Nucleus 31H :,-2.713321,-2.922319,1.75692,27.13,34.66,26.08,20.64,52.54,27.63,36.49,-24.85,-9.36,-1.07,20.64,26.08,34.66,0,14.02,-0.22
rw_cut_5_p1_4f_opt_disp_struct_12.xyz,Nucleus 0C :,-1.425723,-1.593336,3.220609,171.38,186.84,160.79,166.51,259.15,236.41,238.29,-79.9,-73.4,-66.4,160.79,166.51,186.84,0,26.05,-0.56
rw_cut_5_p1_4f_opt_disp_struct_12.xyz,Nucleus 3C :,-2.111676,-2.073224,4.268667,61.1,147.41,53.5,-17.61,240.25,273.78,263.75,-92.88,-220.22,-281.36,-17.61,53.5,147.41,0,165.02,-0.14
rw_cut_5_p1_4f_opt_disp_struct_12.xyz,Nucleus 4C :,-0.411257,-0.663313,3.430541,53.57,-30.04,127.22,63.54,274.6,258.45,256.13,-293.28,-130.19,-204.99,-30.04,63.54,127.22,0,157.26,0.19
rw_cut_5_p1_4f_opt_disp_struct_12.xyz,Nucleus 7C :,-0.111698,-0.240557,4.665821,56.48,138.4,3.17,27.88,274.99,261.01,265.8,-122.63,-271.72,-238.0,3.17,27.88,138.4,0,135.23,-0.63
rw_cut_5_p1_4f_opt_disp_struct_12.xyz,Nucleus 8C :,2.479643,1.59103,0.669473,62.97,158.88,26.97,3.06,236.16,261.74,270.58,-77.65,-236.01,-265.9,3.06,26.97,158.88,0,155.82,-0.69
rw_cut_5_p1_4f_opt_disp_struct_12.xyz,Nucleus 9C :,0.048429,0.305341,-1.803042,29.63,83.22,20.46,-14.79,237.34,269.21,271.45,-154.23,-248.67,-286.2,-14.79,20.46,83.22,0,98.01,-0.28
rw_cut_5_p1_4f_opt_disp_struct_12.xyz,Nucleus 11C :,4.741528,-8.33435,3.774072,37.6,94.49,20.82,-2.52,239.59,264.11,273.77,-145.27,-243.81,-275.61,-2.52,20.82,94.49,0,97.01,-0.52
rw_cut_5_p1_4f_opt_disp_struct_12.xyz,Nucleus 13C :,4.718703,-7.925807,4.789378,36.62,94.42,16.07,-0.64,237.17,263.55,273.86,-142.75,-251.73,-270.24,-0.64,16.07,94.42,0,95.06,-0.65
rw_cut_5_p1_4f_opt_disp_struct_12.xyz,Nucleus 15C :,3.89154,-9.010195,3.622256,38.6,89.62,22.63,3.55,233.16,272.91,262.86,-143.7,-249.99,-259.44,3.55,22.63,89.62,0,86.07,-0.56
rw_cut_5_p1_4f_opt_disp_struct_12.xyz,Nucleus 19C :,4.764942,-7.25716,2.787873,155.13,130.4,146.42,188.56,188.56,208.52,272.95,-42.34,-75.63,-86.7,130.4,146.42,188.56,0,58.16,-0.45
rw_cut_5_p1_4f_opt_disp_struct_12.xyz,Nucleus 24C :,5.392853,-7.360868,2.007224,21.32,115.41,-15.54,-35.92,239.82,272.0,263.09,-124.54,-280.53,-305.89,-35.92,-15.54,115.41,0,151.33,-0.73
rw_cut_5_p1_4f_opt_disp_struct_12.xyz,Nucleus 5N :,3.867166,-6.263522,2.709794,122.45,50.22,184.5,132.62,293.64,338.26,330.39,-109.38,-203.08,-282.5,50.22,132.62,184.5,0,134.28,0.23
rw_cut_5_p1_4f_opt_disp_struct_12.xyz,Nucleus 22N :,4.001759,-5.342761,1.75502,166.89,98.81,220.87,180.99,276.56,349.36,330.26,-237.16,-94.43,-123.92,98.81,180.99,220.87,0,122.06,0.35
rw_cut_5_p1_4f_opt_disp_struct_12.xyz,Nucleus 25N :,3.336169,-4.586958,1.64063,175.44,116.0,176.21,234.11,321.52,347.78,335.47,-211.67,-165.47,-101.31,116.0,176.21,234.11,0,118.11,0.02
rw_cut_5_p1_4f_opt_disp_struct_12.xyz,Nucleus 27N :,2.843698,-6.15996,3.557793,174.57,114.52,213.55,195.65,302.32,340.64,324.34,-211.17,-105.13,-127.28,114.52,195.65,213.55,0,99.03,0.64
rw_cut_5_p1_4f_opt_disp_struct_12.xyz,Nucleus 10F :,2.632266,-6.892177,4.214442,326.91,443.19,256.81,280.73,480.57,458.21,463.61,-20.18,-209.68,-191.79,256.81,280.73,443.19,0,186.38,-0.74
rw_cut_5_p1_4f_opt_disp_struct_12.xyz,Nucleus 12F :,2.25284,-5.338699,3.541698,348.14,449.44,290.85,304.14,480.48,471.36,457.69,-21.96,-189.14,-154.01,290.85,304.14,449.44,0,158.59,-0.83
rw_cut_5_p1_4f_opt_disp_struct_12.xyz,Nucleus 14F :,5.66096,-8.910297,3.669871,344.8,453.54,294.78,286.08,460.36,476.2,478.49,-23.91,-166.22,-190.52,286.08,294.78,453.54,0,167.46,-0.9
rw_cut_5_p1_4f_opt_disp_struct_12.xyz,Nucleus 16F :,4.848928,-5.289626,1.214804,344.44,446.84,296.14,290.35,458.19,481.95,478.83,-34.49,-165.81,-185.34,290.35,296.14,446.84,0,156.49,-0.93
rw_cut_5_p1_4f_opt_disp_struct_13.xyz,Nucleus 1H :,0.979309,-0.025991,-1.331735,29.11,35.36,23.45,28.51,40.88,25.74,30.72,-6.56,-0.61,-2.85,23.45,28.51,35.36,0,11.91,-0.15
rw_cut_5_p1_4f_opt_disp_struct_13.xyz,Nucleus 2H :,1.792354,0.5849,-1.729245,28.94,23.99,28.02,34.81,46.55,27.85,26.02,-12.12,-3.45,1.97,23.99,28.02,34.81,0,10.82,-0.26
rw_cut_5_p1_4f_opt_disp_struct_13.xyz,Nucleus 6H :,1.143633,-1.060252,-1.651975,23.69,15.34,25.26,30.47,51.06,10.49,30.0,-21.04,-4.55,5.11,15.34,25.26,30.47,0,15.13,0.31
rw_cut_5_p1_4f_opt_disp_struct_13.xyz,Nucleus 17H :,0.907439,0.093305,0.148985,24.17,20.53,25.45,26.52,45.0,26.82,31.66,-19.49,-6.15,-5.35,20.53,25.45,26.52,0,5.99,0.64
rw_cut_5_p1_4f_opt_disp_struct_13.xyz,Nucleus 18H :,1.695519,0.901917,0.94573,28.66,35.01,27.15,23.83,42.26,27.32,31.83,-0.51,-8.54,-6.38,23.83,27.15,35.01,0,11.18,-0.41
rw_cut_5_p1_4f_opt_disp_struct_13.xyz,Nucleus 20H :,1.318109,0.729764,2.250337,28.53,34.36,24.36,26.86,-12.89,17.39,39.34,39.58,8.21,-6.05,24.36,26.86,34.36,0,10.0,-0.5
rw_cut_5_p1_4f_opt_disp_struct_13.xyz,Nucleus 21H :,1.693294,1.225437,3.04248,28.53,35.12,26.36,24.11,-12.0,17.24,40.66,39.26,7.45,-7.01,24.11,26.36,35.12,0,11.01,-0.59
rw_cut_5_p1_4f_opt_disp_struct_13.xyz,Nucleus 23H :,0.289853,-0.178539,2.323195,26.88,18.65,33.9,28.1,1.05,50.95,27.93,-17.34,18.21,-0.14,18.65,28.1,33.9,0,15.25,0.24
rw_cut_5_p1_4f_opt_disp_struct_13.xyz,Nucleus 26H :,0.005401,-0.596414,1.020587,26.87,36.54,23.96,20.1,78.26,28.27,46.66,-58.1,-10.77,-3.72,20.1,23.96,36.54,0,16.44,-0.53
rw_cut_5_p1_4f_opt_disp_struct_13.xyz,Nucleus 28H :,-1.029464,-1.538095,0.837311,26.52,33.62,26.19,19.74,57.6,25.1,-0.82,-24.05,1.04,20.68,19.74,26.19,33.62,0,13.88,-0.07
rw_cut_5_p1_4f_opt_disp_struct_13.xyz,Nucleus 29H :,-1.343296,-1.969362,-0.393388,26.6,35.57,20.02,24.21,60.64,43.53,30.81,-40.43,-6.42,-8.34,20.02,24.21,35.57,0,15.55,-0.46
rw_cut_5_p1_4f_opt_disp_struct_13.xyz,Nucleus 30H :,-1.732136,-2.025927,1.939893,28.16,35.03,25.92,23.52,-28.5,38.35,10.9,52.14,-3.35,14.95,23.52,25.92,35.03,0,11.51,-0.58
rw_cut_5_p1_4f_opt_disp_struct_13.xyz,Nucleus 31H :,-2.713321,-2.922319,1.75692,27.1,34.66,25.98,20.65,52.82,27.45,36.62,-25.14,-9.48,-0.98,20.65,25.98,34.66,0,14.01,-0.24
rw_cut_5_p1_4f_opt_disp_struct_13.xyz,Nucleus 0C :,-1.425723,-1.593336,3.220609,171.38,186.86,160.8,166.47,259.05,236.44,238.19,-79.73,-73.41,-66.41,160.8,166.47,186.86,0,26.06,-0.57
rw_cut_5_p1_4f_opt_disp_struct_13.xyz,Nucleus 3C :,-2.111676,-2.073224,4.268667,61.11,147.41,53.54,-17.61,240.23,273.53,263.73,-92.87,-219.95,-281.35,-17.61,53.54,147.41,0,165.02,-0.14
rw_cut_5_p1_4f_opt_disp_struct_13.xyz,Nucleus 4C :,-0.411257,-0.663313,3.430541,53.68,-29.9,127.17,63.76,274.46,258.24,256.42,-293.2,-130.25,-204.64,-29.9,63.76,127.17,0,157.07,0.19
rw_cut_5_p1_4f_opt_disp_struct_13.xyz,Nucleus 7C :,-0.111698,-0.240557,4.665821,56.45,138.37,3.09,27.9,274.77,261.01,265.83,-122.65,-271.55,-238.03,3.09,27.9,138.37,0,135.28,-0.63
rw_cut_5_p1_4f_opt_disp_struct_13.xyz,Nucleus 8C :,2.479643,1.59103,0.669473,62.95,158.86,26.93,3.07,236.21,261.79,270.14,-77.69,-235.95,-265.65,3.07,26.93,158.86,0,155.79,-0.69
rw_cut_5_p1_4f_opt_disp_struct_13.xyz,Nucleus 9C :,0.048429,0.305341,-1.803042,29.6,83.18,20.44,-14.83,237.3,269.01,271.14,-154.21,-248.52,-285.93,-14.83,20.44,83.18,0,98.01,-0.28
rw_cut_5_p1_4f_opt_disp_struct_13.xyz,Nucleus 11C :,4.906962,-8.520302,3.797599,37.57,94.45,20.79,-2.54,239.6,264.07,273.51,-145.3,-243.8,-275.38,-2.54,20.79,94.45,0,96.99,-0.52
rw_cut_5_p1_4f_opt_disp_struct_13.xyz,Nucleus 13C :,4.884137,-8.111758,4.812905,36.57,94.38,16.03,-0.69,237.14,263.59,273.66,-142.76,-251.76,-270.15,-0.69,16.03,94.38,0,95.07,-0.65
rw_cut_5_p1_4f_opt_disp_struct_13.xyz,Nucleus 15C :,4.056974,-9.196147,3.645783,38.57,89.58,22.62,3.52,233.16,272.75,262.9,-143.71,-249.88,-259.49,3.52,22.62,89.58,0,86.06,-0.56
rw_cut_5_p1_4f_opt_disp_struct_13.xyz,Nucleus 19C :,4.930377,-7.443111,2.8114,155.11,130.38,146.42,188.54,187.64,208.1,273.51,-41.42,-75.45,-87.04,130.38,146.42,188.54,0,58.16,-0.45
rw_cut_5_p1_4f_opt_disp_struct_13.xyz,Nucleus 24C :,5.558287,-7.54682,2.03075,21.29,115.43,-15.6,-35.95,240.07,272.42,262.92,-124.78,-280.48,-306.27,-35.95,-15.6,115.43,0,151.38,-0.73
rw_cut_5_p1_4f_opt_disp_struct_13.xyz,Nucleus 5N :,4.0326,-6.449474,2.733321,122.55,50.4,184.47,132.79,293.6,338.24,330.33,-109.33,-202.93,-282.24,50.4,132.79,184.47,0,134.07,0.23
rw_cut_5_p1_4f_opt_disp_struct_13.xyz,Nucleus 22N :,4.167194,-5.528713,1.778547,166.83,98.74,220.75,181.01,275.1,349.77,330.24,-237.64,-92.95,-124.01,98.74,181.01,220.75,0,122.01,0.35
rw_cut_5_p1_4f_opt_disp_struct_13.xyz,Nucleus 25N :,3.501604,-4.77291,1.664157,175.41,115.9,176.23,234.1,321.51,348.81,335.56,-211.85,-166.45,-101.35,115.9,176.23,234.1,0,118.2,0.02
rw_cut_5_p1_4f_opt_disp_struct_13.xyz,Nucleus 27N :,3.009133,-6.345911,3.581319,174.57,114.46,213.6,195.66,303.12,341.03,324.22,-211.15,-105.91,-127.59,114.46,195.66,213.6,0,99.14,0.64
rw_cut_5_p1_4f_opt_disp_struct_13.xyz,Nucleus 10F :,2.7977,-7.078128,4.237969,327.11,443.23,257.12,280.98,480.58,458.25,463.61,-20.15,-209.27,-191.69,257.12,280.98,443.23,0,186.11,-0.74
rw_cut_5_p1_4f_opt_disp_struct_13.xyz,Nucleus 12F :,2.418275,-5.52465,3.565225,348.33,449.52,291.07,304.4,480.42,471.3,457.76,-21.81,-188.88,-153.81,291.07,304.4,449.52,0,158.45,-0.83
rw_cut_5_p1_4f_opt_disp_struct_13.xyz,Nucleus 14F :,5.826394,-9.096248,3.693398,344.89,453.59,294.86,286.22,460.49,476.42,478.14,-23.69,-166.24,-190.45,286.22,294.86,453.59,0,167.37,-0.9
rw_cut_5_p1_4f_opt_disp_struct_13.xyz,Nucleus 16F :,5.014363,-5.475578,1.23833,344.64,446.91,296.38,290.63,458.34,481.52,478.96,-34.04,-165.67,-185.2,290.63,296.38,446.91,0,156.28,-0.93
rw_cut_5_p1_4f_opt_disp_struct_14.xyz,Nucleus 1H :,0.979309,-0.025991,-1.331735,29.11,35.36,23.45,28.53,40.87,25.74,30.64,-6.54,-0.59,-2.78,23.45,28.53,35.36,0,11.91,-0.15
rw_cut_5_p1_4f_opt_disp_struct_14.xyz,Nucleus 2H :,1.792354,0.5849,-1.729245,28.93,23.97,28.01,34.82,46.44,27.77,26.0,-12.03,-3.36,1.99,23.97,28.01,34.82,0,10.85,-0.25
rw_cut_5_p1_4f_opt_disp_struct_14.xyz,Nucleus 6H :,1.143633,-1.060252,-1.651975,23.7,15.34,25.27,30.49,50.94,10.49,30.04,-20.9,-4.56,5.1,15.34,25.27,30.49,0,15.15,0.31
rw_cut_5_p1_4f_opt_disp_struct_14.xyz,Nucleus 17H :,0.907439,0.093305,0.148985,24.17,20.54,25.45,26.53,44.97,26.83,31.62,-19.45,-6.16,-5.29,20.54,25.45,26.53,0,5.99,0.64
rw_cut_5_p1_4f_opt_disp_struct_14.xyz,Nucleus 18H :,1.695519,0.901917,0.94573,28.67,35.0,27.17,23.84,42.23,27.28,31.84,-0.48,-8.57,-6.31,23.84,27.17,35.0,0,11.16,-0.4
rw_cut_5_p1_4f_opt_disp_struct_14.xyz,Nucleus 20H :,1.318109,0.729764,2.250337,28.52,34.36,24.37,26.84,-13.71,17.32,39.4,40.43,8.27,-6.14,24.37,26.84,34.36,0,9.99,-0.5
rw_cut_5_p1_4f_opt_disp_struct_14.xyz,Nucleus 21H :,1.693294,1.225437,3.04248,28.53,35.12,26.35,24.11,-12.9,17.19,40.76,40.18,7.49,-7.15,24.11,26.35,35.12,0,11.01,-0.59
rw_cut_5_p1_4f_opt_disp_struct_14.xyz,Nucleus 23H :,0.289853,-0.178539,2.323195,26.87,18.66,33.89,28.07,-0.19,51.15,27.79,19.45,-17.56,-0.02,18.66,28.07,33.89,0,15.23,0.24
rw_cut_5_p1_4f_opt_disp_struct_14.xyz,Nucleus 26H :,0.005401,-0.596414,1.020587,26.82,36.35,23.98,20.14,80.02,28.6,46.34,-59.82,-10.71,-3.96,20.14,23.98,36.35,0,16.21,-0.53
rw_cut_5_p1_4f_opt_disp_struct_14.xyz,Nucleus 28H :,-1.029464,-1.538095,0.837311,26.51,33.62,26.14,19.76,58.04,25.11,-0.9,-24.5,0.99,20.78,19.76,26.14,33.62,0,13.86,-0.08
rw_cut_5_p1_4f_opt_disp_struct_14.xyz,Nucleus 29H :,-1.343296,-1.969362,-0.393388,26.57,35.42,20.06,24.22,62.35,43.43,31.09,-42.1,-6.75,-8.32,20.06,24.22,35.42,0,15.36,-0.46
rw_cut_5_p1_4f_opt_disp_struct_14.xyz,Nucleus 30H :,-1.732136,-2.025927,1.939893,28.16,35.01,25.93,23.53,-29.8,38.31,10.6,53.44,-3.34,15.25,23.53,25.93,35.01,0,11.48,-0.58
rw_cut_5_p1_4f_opt_disp_struct_14.xyz,Nucleus 31H :,-2.713321,-2.922319,1.75692,27.08,34.67,25.89,20.67,53.1,27.27,36.75,-25.41,-9.59,-0.89,20.67,25.89,34.67,0,14.0,-0.25
rw_cut_5_p1_4f_opt_disp_struct_14.xyz,Nucleus 0C :,-1.425723,-1.593336,3.220609,171.37,186.87,160.82,166.43,258.96,236.47,238.1,-79.58,-73.42,-66.42,160.82,166.43,186.87,0,26.05,-0.57
rw_cut_5_p1_4f_opt_disp_struct_14.xyz,Nucleus 3C :,-2.111676,-2.073224,4.268667,61.12,147.4,53.58,-17.61,240.21,273.31,263.72,-92.85,-219.69,-281.33,-17.61,53.58,147.4,0,165.01,-0.14
rw_cut_5_p1_4f_opt_disp_struct_14.xyz,Nucleus 4C :,-0.411257,-0.663313,3.430541,53.77,-29.78,127.14,63.96,274.34,258.06,256.68,-293.13,-130.3,-204.33,-29.78,63.96,127.14,0,156.92,0.19
rw_cut_5_p1_4f_opt_disp_struct_14.xyz,Nucleus 7C :,-0.111698,-0.240557,4.665821,56.43,138.34,3.03,27.92,274.58,261.0,265.86,-122.69,-271.4,-238.06,3.03,27.92,138.34,0,135.31,-0.63
rw_cut_5_p1_4f_opt_disp_struct_14.xyz,Nucleus 8C :,2.479643,1.59103,0.669473,62.94,158.85,26.89,3.08,236.24,261.83,269.77,-77.7,-235.9,-265.43,3.08,26.89,158.85,0,155.77,-0.69
rw_cut_5_p1_4f_opt_disp_struct_14.xyz,Nucleus 9C :,0.048429,0.305341,-1.803042,29.57,83.14,20.43,-14.86,237.27,268.84,270.87,-154.19,-248.39,-285.69,-14.86,20.43,83.14,0,98.0,-0.28
rw_cut_5_p1_4f_opt_disp_struct_14.xyz,Nucleus 11C :,5.072397,-8.706253,3.821126,37.54,94.41,20.76,-2.55,239.61,264.04,273.28,-145.32,-243.8,-275.19,-2.55,20.76,94.41,0,96.96,-0.52
rw_cut_5_p1_4f_opt_disp_struct_14.xyz,Nucleus 13C :,5.049572,-8.29771,4.836432,36.54,94.35,16.0,-0.74,237.1,263.62,273.49,-142.76,-251.77,-270.07,-0.74,16.0,94.35,0,95.09,-0.65
rw_cut_5_p1_4f_opt_disp_struct_14.xyz,Nucleus 15C :,4.222409,-9.382098,3.66931,38.55,89.55,22.6,3.5,233.15,272.59,262.93,-143.73,-249.78,-259.52,3.5,22.6,89.55,0,86.05,-0.56
rw_cut_5_p1_4f_opt_disp_struct_14.xyz,Nucleus 19C :,5.095811,-7.629062,2.834927,155.11,130.37,146.43,188.52,186.73,207.69,274.07,-40.51,-75.25,-87.42,130.37,146.43,188.52,0,58.15,-0.45
rw_cut_5_p1_4f_opt_disp_struct_14.xyz,Nucleus 24C :,5.723722,-7.732771,2.054277,21.28,115.45,-15.66,-35.96,240.33,272.83,262.77,-125.02,-280.43,-306.64,-35.96,-15.66,115.45,0,151.41,-0.73
rw_cut_5_p1_4f_opt_disp_struct_14.xyz,Nucleus 5N :,4.198035,-6.635425,2.756848,122.65,50.57,184.44,132.93,293.54,338.23,330.25,-109.28,-202.83,-281.98,50.57,132.93,184.44,0,133.87,0.23
rw_cut_5_p1_4f_opt_disp_struct_14.xyz,Nucleus 22N :,4.332628,-5.714664,1.802074,166.79,98.68,220.65,181.03,273.64,350.18,330.21,-238.11,-91.48,-124.09,98.68,181.03,220.65,0,121.97,0.35
rw_cut_5_p1_4f_opt_disp_struct_14.xyz,Nucleus 25N :,3.667038,-4.958861,1.687684,175.38,115.82,176.24,234.09,321.49,349.84,335.67,-212.04,-167.41,-101.4,115.82,176.24,234.09,0,118.27,0.02
rw_cut_5_p1_4f_opt_disp_struct_14.xyz,Nucleus 27N :,3.174567,-6.531862,3.604846,174.58,114.42,213.65,195.67,303.88,341.42,324.12,-211.14,-106.64,-127.9,114.42,195.67,213.65,0,99.23,0.64
rw_cut_5_p1_4f_opt_disp_struct_14.xyz,Nucleus 10F :,2.963135,-7.264079,4.261495,327.28,443.27,257.38,281.19,480.57,458.27,463.6,-20.12,-208.89,-191.59,257.38,281.19,443.27,0,185.89,-0.74
rw_cut_5_p1_4f_opt_disp_struct_14.xyz,Nucleus 12F :,2.583709,-5.710602,3.588752,348.49,449.58,291.26,304.63,480.36,471.25,457.81,-21.68,-188.64,-153.63,291.26,304.63,449.58,0,158.32,-0.83
rw_cut_5_p1_4f_opt_disp_struct_14.xyz,Nucleus 14F :,5.991828,-9.2822,3.716925,344.97,453.64,294.95,286.33,460.56,476.57,477.89,-23.52,-166.22,-190.37,286.33,294.95,453.64,0,167.31,-0.9
rw_cut_5_p1_4f_opt_disp_struct_14.xyz,Nucleus 16F :,5.179797,-5.661529,1.261857,344.8,446.96,296.59,290.86,458.46,481.2,479.05,-33.7,-165.54,-185.05,290.86,296.59,446.96,0,156.1,-0.93
rw_cut_5_p1_4f_opt_disp_struct_15.xyz,Nucleus 1H :,0.979309,-0.025991,-1.331735,29.12,35.36,23.45,28.55,40.85,25.75,30.57,-6.53,-0.57,-2.71,23.45,28.55,35.36,0,11.91,-0.14
rw_cut_5_p1_4f_opt_disp_struct_15.xyz,Nucleus 2H :,1.792354,0.5849,-1.729245,28.93,23.95,28.0,34.83,46.34,27.68,25.97,-11.95,-3.27,2.0,23.95,28.0,34.83,0,10.88,-0.26
rw_cut_5_p1_4f_opt_disp_struct_15.xyz,Nucleus 6H :,1.143633,-1.060252,-1.651975,23.71,15.34,25.29,30.5,50.83,10.49,30.07,-20.77,5.09,-4.58,15.34,25.29,30.5,0,15.16,0.31
rw_cut_5_p1_4f_opt_disp_struct_15.xyz,Nucleus 17H :,0.907439,0.093305,0.148985,24.18,20.54,25.46,26.55,44.94,26.83,31.57,-19.41,-6.16,-5.22,20.54,25.46,26.55,0,6.01,0.64
rw_cut_5_p1_4f_opt_disp_struct_15.xyz,Nucleus 18H :,1.695519,0.901917,0.94573,28.68,35.0,27.18,23.85,42.21,27.25,31.84,-0.44,-8.59,-6.24,23.85,27.18,35.0,0,11.15,-0.4
rw_cut_5_p1_4f_opt_disp_struct_15.xyz,Nucleus 20H :,1.318109,0.729764,2.250337,28.51,34.35,24.37,26.82,-14.53,17.25,39.47,41.29,8.32,-6.24,24.37,26.82,34.35,0,9.98,-0.51
rw_cut_5_p1_4f_opt_disp_struct_15.xyz,Nucleus 21H :,1.693294,1.225437,3.04248,28.52,35.11,26.34,24.12,-13.79,17.13,40.86,41.1,7.54,-7.28,24.12,26.34,35.11,0,10.99,-0.6
rw_cut_5_p1_4f_opt_disp_struct_15.xyz,Nucleus 23H :,0.289853,-0.178539,2.323195,26.87,18.67,33.88,28.05,-1.44,51.34,27.66,20.7,-17.77,0.11,18.67,28.05,33.88,0,15.21,0.23
rw_cut_5_p1_4f_opt_disp_struct_15.xyz,Nucleus 26H :,0.005401,-0.596414,1.020587,26.78,36.18,23.99,20.18,81.77,28.91,46.05,-61.53,-10.68,-4.17,20.18,23.99,36.18,0,16.0,-0.52
rw_cut_5_p1_4f_opt_disp_struct_15.xyz,Nucleus 28H :,-1.029464,-1.538095,0.837311,26.49,33.61,26.1,19.77,58.49,25.11,-0.99,-24.95,0.94,20.89,19.77,26.1,33.61,0,13.84,-0.08
rw_cut_5_p1_4f_opt_disp_struct_15.xyz,Nucleus 29H :,-1.343296,-1.969362,-0.393388,26.54,35.3,20.1,24.22,64.05,43.35,31.34,-43.76,-7.06,-8.3,20.1,24.22,35.3,0,15.2,-0.46
rw_cut_5_p1_4f_opt_disp_struct_15.xyz,Nucleus 30H :,-1.732136,-2.025927,1.939893,28.15,34.98,25.93,23.53,-31.11,38.28,10.31,54.75,-3.34,15.54,23.53,25.93,34.98,0,11.45,-0.58
rw_cut_5_p1_4f_opt_disp_struct_15.xyz,Nucleus 31H :,-2.713321,-2.922319,1.75692,27.06,34.67,25.81,20.69,53.37,27.11,36.86,-25.68,-9.69,-0.81,20.69,25.81,34.67,0,13.98,-0.27
rw_cut_5_p1_4f_opt_disp_struct_15.xyz,Nucleus 0C :,-1.425723,-1.593336,3.220609,171.37,186.88,160.83,166.39,258.87,236.51,238.01,-79.43,-73.42,-66.44,160.83,166.39,186.88,0,26.05,-0.57
rw_cut_5_p1_4f_opt_disp_struct_15.xyz,Nucleus 3C :,-2.111676,-2.073224,4.268667,61.14,147.4,53.62,-17.61,240.19,273.11,263.7,-92.83,-219.46,-281.31,-17.61,53.62,147.4,0,165.01,-0.14
rw_cut_5_p1_4f_opt_disp_struct_15.xyz,Nucleus 4C :,-0.411257,-0.663313,3.430541,53.85,-29.67,127.1,64.13,274.23,257.9,256.89,-293.07,-130.34,-204.04,-29.67,64.13,127.1,0,156.77,0.2
rw_cut_5_p1_4f_opt_disp_struct_15.xyz,Nucleus 7C :,-0.111698,-0.240557,4.665821,56.41,138.31,2.98,27.93,274.42,261.0,265.88,-122.73,-271.28,-238.07,2.98,27.93,138.31,0,135.33,-0.63
rw_cut_5_p1_4f_opt_disp_struct_15.xyz,Nucleus 8C :,2.479643,1.59103,0.669473,62.92,158.83,26.86,3.08,236.25,261.86,269.46,-77.71,-235.86,-265.23,3.08,26.86,158.83,0,155.75,-0.69
rw_cut_5_p1_4f_opt_disp_struct_15.xyz,Nucleus 9C :,0.048429,0.305341,-1.803042,29.54,83.1,20.42,-14.89,237.25,268.71,270.63,-154.19,-248.29,-285.47,-14.89,20.42,83.1,0,97.99,-0.28
rw_cut_5_p1_4f_opt_disp_struct_15.xyz,Nucleus 11C :,5.237831,-8.892205,3.844652,37.51,94.38,20.73,-2.57,239.6,264.01,273.08,-145.33,-243.8,-275.01,-2.57,20.73,94.38,0,96.95,-0.52
rw_cut_5_p1_4f_opt_disp_struct_15.xyz,Nucleus 13C :,5.215006,-8.483661,4.859958,36.5,94.32,15.97,-0.78,237.07,263.64,273.33,-142.76,-251.78,-270.0,-0.78,15.97,94.32,0,95.1,-0.65
rw_cut_5_p1_4f_opt_disp_struct_15.xyz,Nucleus 15C :,4.387843,-9.56805,3.692837,38.53,89.52,22.59,3.48,233.14,272.45,262.94,-143.73,-249.68,-259.54,3.48,22.59,89.52,0,86.04,-0.56
rw_cut_5_p1_4f_opt_disp_struct_15.xyz,Nucleus 19C :,5.261245,-7.815014,2.858454,155.1,130.36,146.44,188.5,185.83,207.28,274.63,-39.61,-75.02,-87.81,130.36,146.44,188.5,0,58.14,-0.45
rw_cut_5_p1_4f_opt_disp_struct_15.xyz,Nucleus 24C :,5.889156,-7.918723,2.077804,21.26,115.47,-15.71,-35.97,240.59,273.23,262.63,-125.27,-280.39,-307.0,-35.97,-15.71,115.47,0,151.44,-0.73
rw_cut_5_p1_4f_opt_disp_struct_15.xyz,Nucleus 5N :,4.363469,-6.821377,2.780375,122.72,50.71,184.41,133.05,293.48,338.22,330.18,-109.23,-202.75,-281.73,50.71,133.05,184.41,0,133.7,0.23
rw_cut_5_p1_4f_opt_disp_struct_15.xyz,Nucleus 22N :,4.498063,-5.900615,1.825601,166.74,98.63,220.55,181.05,272.2,350.6,330.18,-238.57,-90.03,-124.15,98.63,181.05,220.55,0,121.92,0.35
rw_cut_5_p1_4f_opt_disp_struct_15.xyz,Nucleus 25N :,3.832473,-5.144813,1.711211,175.36,115.74,176.25,234.08,350.86,321.47,335.79,-212.25,-168.35,-101.45,115.74,176.25,234.08,0,118.34,0.02
rw_cut_5_p1_4f_opt_disp_struct_15.xyz,Nucleus 27N :,3.340002,-6.717814,3.628373,174.58,114.38,213.69,195.67,304.59,341.8,324.03,-211.15,-107.33,-128.19,114.38,195.67,213.69,0,99.31,0.64
rw_cut_5_p1_4f_opt_disp_struct_15.xyz,Nucleus 10F :,3.128569,-7.450031,4.285022,327.42,443.29,257.61,281.37,480.55,458.29,463.59,-20.1,-208.56,-191.5,257.61,281.37,443.29,0,185.68,-0.74
rw_cut_5_p1_4f_opt_disp_struct_15.xyz,Nucleus 12F :,2.749143,-5.896553,3.612278,348.63,449.64,291.42,304.83,480.29,471.2,457.85,-21.57,-188.42,-153.48,291.42,304.83,449.64,0,158.22,-0.83
rw_cut_5_p1_4f_opt_disp_struct_15.xyz,Nucleus 14F :,6.157263,-9.468151,3.740451,345.04,453.67,295.03,286.43,460.61,476.67,477.72,-23.38,-166.19,-190.29,286.43,295.03,453.67,0,167.24,-0.9
rw_cut_5_p1_4f_opt_disp_struct_15.xyz,Nucleus 16F :,5.345232,-5.847481,1.285384,344.95,447.01,296.78,291.07,458.55,480.94,479.12,-33.44,-165.41,-184.9,291.07,296.78,447.01,0,155.94,-0.93
rw_cut_5_p1_4f_opt_disp_struct_16.xyz,Nucleus 1H :,0.979309,-0.025991,-1.331735,29.13,35.36,23.45,28.57,40.84,25.75,30.49,-6.51,-0.55,-2.64,23.45,28.57,35.36,0,11.91,-0.14
rw_cut_5_p1_4f_opt_disp_struct_16.xyz,Nucleus 2H :,1.792354,0.5849,-1.729245,28.92,23.94,27.99,34.83,46.24,27.6,25.95,-11.87,-3.18,2.02,23.94,27.99,34.83,0,10.89,-0.26
rw_cut_5_p1_4f_opt_disp_struct_16.xyz,Nucleus 6H :,1.143633,-1.060252,-1.651975,23.72,15.35,25.3,30.51,50.72,10.49,30.1,-20.65,5.09,-4.59,15.35,25.3,30.51,0,15.16,0.31
rw_cut_5_p1_4f_opt_disp_struct_16.xyz,Nucleus 17H :,0.907439,0.093305,0.148985,24.19,20.55,25.46,26.56,44.91,26.83,31.52,-19.37,-6.17,-5.15,20.55,25.46,26.56,0,6.01,0.63
rw_cut_5_p1_4f_opt_disp_struct_16.xyz,Nucleus 18H :,1.695519,0.901917,0.94573,28.68,34.99,27.19,23.86,42.18,27.22,31.84,-0.42,-8.61,-6.17,23.86,27.19,34.99,0,11.13,-0.4
rw_cut_5_p1_4f_opt_disp_struct_16.xyz,Nucleus 20H :,1.318109,0.729764,2.250337,28.51,34.35,24.38,26.81,-15.36,17.17,39.53,42.15,8.38,-6.34,24.38,26.81,34.35,0,9.97,-0.51
rw_cut_5_p1_4f_opt_disp_struct_16.xyz,Nucleus 21H :,1.693294,1.225437,3.04248,28.52,35.11,26.33,24.12,-14.68,17.07,40.97,42.02,7.59,-7.42,24.12,26.33,35.11,0,10.99,-0.6
rw_cut_5_p1_4f_opt_disp_struct_16.xyz,Nucleus 23H :,0.289853,-0.178539,2.323195,26.86,18.67,33.87,28.03,-2.68,51.53,27.52,21.94,-17.97,0.23,18.67,28.03,33.87,0,15.2,0.23
rw_cut_5_p1_4f_opt_disp_struct_16.xyz,Nucleus 26H :,0.005401,-0.596414,1.020587,26.74,36.02,24.0,20.21,83.49,29.2,45.79,-63.22,-10.65,-4.37,20.21,24.0,36.02,0,15.81,-0.52
rw_cut_5_p1_4f_opt_disp_struct_16.xyz,Nucleus 28H :,-1.029464,-1.538095,0.837311,26.49,33.61,26.06,19.79,58.93,25.11,-1.1,-25.39,0.9,21.02,19.79,26.06,33.61,0,13.82,-0.09
rw_cut_5_p1_4f_opt_disp_struct_16.xyz,Nucleus 29H :,-1.343296,-1.969362,-0.393388,26.52,35.19,20.13,24.23,65.72,43.28,31.59,-45.41,-8.3,-7.34,20.13,24.23,35.19,0,15.06,-0.46
rw_cut_5_p1_4f_opt_disp_struct_16.xyz,Nucleus 30H :,-1.732136,-2.025927,1.939893,28.14,34.96,25.93,23.53,-32.41,38.25,10.01,56.06,-3.33,15.84,23.53,25.93,34.96,0,11.43,-0.58
rw_cut_5_p1_4f_opt_disp_struct_16.xyz,Nucleus 31H :,-2.713321,-2.922319,1.75692,27.03,34.67,25.73,20.7,53.64,26.96,36.95,-25.94,-9.79,-0.73,20.7,25.73,34.67,0,13.97,-0.28
rw_cut_5_p1_4f_opt_disp_struct_16.xyz,Nucleus 0C :,-1.425723,-1.593336,3.220609,171.36,186.89,160.84,166.35,258.78,236.54,237.94,-79.29,-73.44,-66.45,160.84,166.35,186.89,0,26.05,-0.58
rw_cut_5_p1_4f_opt_disp_struct_16.xyz,Nucleus 3C :,-2.111676,-2.073224,4.268667,61.15,147.4,53.65,-17.61,240.16,272.93,263.68,-92.8,-219.24,-281.29,-17.61,53.65,147.4,0,165.01,-0.14
rw_cut_5_p1_4f_opt_disp_struct_16.xyz,Nucleus 4C :,-0.411257,-0.663313,3.430541,53.92,-29.58,127.07,64.28,274.12,257.75,257.07,-293.02,-130.38,-203.77,-29.58,64.28,127.07,0,156.65,0.2
rw_cut_5_p1_4f_opt_disp_struct_16.xyz,Nucleus 7C :,-0.111698,-0.240557,4.665821,56.39,138.28,2.93,27.95,274.27,261.0,265.89,-122.77,-271.17,-238.07,2.93,27.95,138.28,0,135.35,-0.63
rw_cut_5_p1_4f_opt_disp_struct_16.xyz,Nucleus 8C :,2.479643,1.59103,0.669473,62.91,158.82,26.83,3.09,236.25,261.89,269.2,-77.71,-235.84,-265.05,3.09,26.83,158.82,0,155.73,-0.7
rw_cut_5_p1_4f_opt_disp_struct_16.xyz,Nucleus 9C :,0.048429,0.305341,-1.803042,29.52,83.07,20.41,-14.91,237.22,268.61,270.41,-154.18,-248.21,-285.28,-14.91,20.41,83.07,0,97.98,-0.28
rw_cut_5_p1_4f_opt_disp_struct_16.xyz,Nucleus 11C :,5.403265,-9.078156,3.868179,37.49,94.35,20.71,-2.58,239.59,263.98,272.9,-145.34,-243.8,-274.86,-2.58,20.71,94.35,0,96.93,-0.52
rw_cut_5_p1_4f_opt_disp_struct_16.xyz,Nucleus 13C :,5.380441,-8.669613,4.883485,36.47,94.29,15.94,-0.81,237.03,263.67,273.19,-142.75,-251.78,-269.94,-0.81,15.94,94.29,0,95.1,-0.65
rw_cut_5_p1_4f_opt_disp_struct_16.xyz,Nucleus 15C :,4.553278,-9.754001,3.716363,38.51,89.49,22.58,3.46,233.12,272.32,262.95,-143.72,-249.58,-259.55,3.46,22.58,89.49,0,86.03,-0.56
rw_cut_5_p1_4f_opt_disp_struct_16.xyz,Nucleus 19C :,5.42668,-8.000965,2.88198,155.09,130.35,146.44,188.49,184.94,206.87,275.19,-38.71,-74.77,-88.24,130.35,146.44,188.49,0,58.14,-0.45
rw_cut_5_p1_4f_opt_disp_struct_16.xyz,Nucleus 24C :,6.054591,-8.104674,2.101331,21.25,115.49,-15.76,-35.98,240.86,273.63,262.5,-125.53,-280.35,-307.36,-35.98,-15.76,115.49,0,151.47,-0.73
rw_cut_5_p1_4f_opt_disp_struct_16.xyz,Nucleus 5N :,4.528904,-7.007328,2.803902,122.79,50.83,184.39,133.16,293.43,338.22,330.1,-109.2,-202.69,-281.49,50.83,133.16,184.39,0,133.56,0.23
rw_cut_5_p1_4f_opt_disp_struct_16.xyz,Nucleus 22N :,4.663497,-6.086567,1.849127,166.71,98.58,220.47,181.07,270.77,351.03,330.15,-239.02,-88.59,-124.22,98.58,181.07,220.47,0,121.89,0.35
rw_cut_5_p1_4f_opt_disp_struct_16.xyz,Nucleus 25N :,3.997907,-5.330764,1.734738,175.33,115.66,176.26,234.07,351.87,321.45,335.91,-212.46,-169.26,-101.51,115.66,176.26,234.07,0,118.41,0.02
rw_cut_5_p1_4f_opt_disp_struct_16.xyz,Nucleus 27N :,3.505436,-6.903765,3.6519,174.58,114.34,213.73,195.68,305.27,342.16,323.96,-211.16,-107.99,-128.48,114.34,195.68,213.73,0,99.39,0.64
rw_cut_5_p1_4f_opt_disp_struct_16.xyz,Nucleus 10F :,3.294003,-7.635982,4.308549,327.55,443.32,257.81,281.53,480.52,458.31,463.58,-20.08,-208.25,-191.41,257.81,281.53,443.32,0,185.51,-0.74
rw_cut_5_p1_4f_opt_disp_struct_16.xyz,Nucleus 12F :,2.914578,-6.082505,3.635805,348.75,449.68,291.56,305.0,480.23,471.15,457.89,-21.47,-188.22,-153.34,291.56,305.0,449.68,0,158.12,-0.83
rw_cut_5_p1_4f_opt_disp_struct_16.xyz,Nucleus 14F :,6.322697,-9.654103,3.763978,345.11,453.71,295.11,286.52,460.63,476.73,477.6,-23.28,-166.13,-190.22,286.52,295.11,453.71,0,167.19,-0.9
rw_cut_5_p1_4f_opt_disp_struct_16.xyz,Nucleus 16F :,5.510666,-6.033432,1.308911,345.07,447.05,296.93,291.24,458.62,480.73,479.16,-33.24,-165.29,-184.76,291.24,296.93,447.05,0,155.81,-0.93
rw_cut_5_p1_4f_opt_disp_struct_17.xyz,Nucleus 1H :,0.979309,-0.025991,-1.331735,29.13,35.36,23.46,28.58,40.83,25.75,30.41,-6.5,-0.53,-2.58,23.46,28.58,35.36,0,11.9,-0.14
rw_cut_5_p1_4f_opt_disp_struct_17.xyz,Nucleus 2H :,1.792354,0.5849,-1.729245,28.91,23.92,27.98,34.84,46.14,27.52,25.93,-11.8,-3.09,2.04,23.92,27.98,34.84,0,10.92,-0.26
rw_cut_5_p1_4f_opt_disp_struct_17.xyz,Nucleus 6H :,1.143633,-1.060252,-1.651975,23.73,15.35,25.32,30.52,50.62,10.49,30.13,-20.53,5.08,-4.6,15.35,25.32,30.52,0,15.17,0.31
rw_cut_5_p1_4f_opt_disp_struct_17.xyz,Nucleus 17H :,0.907439,0.093305,0.148985,24.19,20.55,25.46,26.57,44.88,26.83,31.47,-19.34,-6.17,-5.08,20.55,25.46,26.57,0,6.02,0.63
rw_cut_5_p1_4f_opt_disp_struct_17.xyz,Nucleus 18H :,1.695519,0.901917,0.94573,28.69,34.99,27.2,23.87,42.16,27.18,31.84,-0.39,-8.63,-6.1,23.87,27.2,34.99,0,11.12,-0.4
rw_cut_5_p1_4f_opt_disp_struct_17.xyz,Nucleus 20H :,1.318109,0.729764,2.250337,28.51,34.35,24.38,26.79,-16.19,17.1,39.6,43.0,8.45,-6.45,24.38,26.79,34.35,0,9.97,-0.52
rw_cut_5_p1_4f_opt_disp_struct_17.xyz,Nucleus 21H :,1.693294,1.225437,3.04248,28.51,35.1,26.32,24.12,-15.58,17.01,41.08,42.94,7.65,-7.56,24.12,26.32,35.1,0,10.98,-0.6
rw_cut_5_p1_4f_opt_disp_struct_17.xyz,Nucleus 23H :,0.289853,-0.178539,2.323195,26.85,18.68,33.86,28.0,-3.92,51.72,27.4,23.18,-18.18,0.34,18.68,28.0,33.86,0,15.18,0.23
rw_cut_5_p1_4f_opt_disp_struct_17.xyz,Nucleus 26H :,0.005401,-0.596414,1.020587,26.72,35.89,24.01,20.25,85.21,45.57,29.46,-64.91,-10.64,-4.54,20.25,24.01,35.89,0,15.64,-0.52
rw_cut_5_p1_4f_opt_disp_struct_17.xyz,Nucleus 28H :,-1.029464,-1.538095,0.837311,26.48,33.61,26.02,19.8,59.37,25.11,-1.22,-25.84,0.86,21.15,19.8,26.02,33.61,0,13.81,-0.1
rw_cut_5_p1_4f_opt_disp_struct_17.xyz,Nucleus 29H :,-1.343296,-1.969362,-0.393388,26.49,35.09,20.15,24.24,67.39,43.23,31.82,-47.04,-8.32,-7.59,20.15,24.24,35.09,0,14.94,-0.45
rw_cut_5_p1_4f_opt_disp_struct_17.xyz,Nucleus 30H :,-1.732136,-2.025927,1.939893,28.14,34.94,25.94,23.54,-33.71,38.23,9.72,57.36,-3.33,16.14,23.54,25.94,34.94,0,11.4,-0.58
rw_cut_5_p1_4f_opt_disp_struct_17.xyz,Nucleus 31H :,-2.713321,-2.922319,1.75692,27.02,34.68,25.67,20.71,53.91,26.82,37.04,-26.19,-9.88,-0.65,20.71,25.67,34.68,0,13.97,-0.29
rw_cut_5_p1_4f_opt_disp_struct_17.xyz,Nucleus 0C :,-1.425723,-1.593336,3.220609,171.36,186.9,160.85,166.33,258.7,236.58,237.87,-79.16,-73.45,-66.46,160.85,166.33,186.9,0,26.05,-0.58
rw_cut_5_p1_4f_opt_disp_struct_17.xyz,Nucleus 3C :,-2.111676,-2.073224,4.268667,61.15,147.39,53.68,-17.61,240.14,272.76,263.65,-92.78,-219.04,-281.26,-17.61,53.68,147.39,0,165.0,-0.14
rw_cut_5_p1_4f_opt_disp_struct_17.xyz,Nucleus 4C :,-0.411257,-0.663313,3.430541,53.99,-29.49,127.05,64.41,274.03,257.62,257.23,-292.98,-130.4,-203.53,-29.49,64.41,127.05,0,156.54,0.2
rw_cut_5_p1_4f_opt_disp_struct_17.xyz,Nucleus 7C :,-0.111698,-0.240557,4.665821,56.37,138.26,2.89,27.96,274.15,261.01,265.91,-122.81,-271.07,-238.07,2.89,27.96,138.26,0,135.37,-0.63
rw_cut_5_p1_4f_opt_disp_struct_17.xyz,Nucleus 8C :,2.479643,1.59103,0.669473,62.9,158.8,26.81,3.1,236.25,261.91,268.97,-77.71,-235.82,-264.88,3.1,26.81,158.8,0,155.7,-0.7
rw_cut_5_p1_4f_opt_disp_struct_17.xyz,Nucleus 9C :,0.048429,0.305341,-1.803042,29.5,83.04,20.4,-14.93,237.2,268.52,270.21,-154.18,-248.14,-285.1,-14.93,20.4,83.04,0,97.97,-0.28
rw_cut_5_p1_4f_opt_disp_struct_17.xyz,Nucleus 11C :,5.5687,-9.264107,3.891706,37.47,94.33,20.69,-2.6,239.58,263.95,272.73,-145.34,-243.8,-274.71,-2.6,20.69,94.33,0,96.93,-0.52
rw_cut_5_p1_4f_opt_disp_struct_17.xyz,Nucleus 13C :,5.545875,-8.855564,4.907012,36.45,94.26,15.92,-0.84,237.0,263.68,273.06,-142.74,-251.78,-269.88,-0.84,15.92,94.26,0,95.1,-0.65
rw_cut_5_p1_4f_opt_disp_struct_17.xyz,Nucleus 15C :,4.718712,-9.939953,3.73989,38.49,89.46,22.57,3.45,233.09,272.19,262.95,-143.71,-249.49,-259.55,3.45,22.57,89.46,0,86.01,-0.56
rw_cut_5_p1_4f_opt_disp_struct_17.xyz,Nucleus 19C :,5.592114,-8.186917,2.905507,155.09,130.34,146.45,188.48,184.04,206.46,275.76,-37.82,-74.49,-88.68,130.34,146.45,188.48,0,58.14,-0.45
rw_cut_5_p1_4f_opt_disp_struct_17.xyz,Nucleus 24C :,6.220025,-8.290626,2.124858,21.23,115.5,-15.81,-35.99,241.13,274.01,262.39,-125.78,-280.32,-307.72,-35.99,-15.81,115.5,0,151.49,-0.73
rw_cut_5_p1_4f_opt_disp_struct_17.xyz,Nucleus 5N :,4.694338,-7.19328,2.827428,122.85,50.93,184.36,133.25,293.39,338.22,330.02,-109.17,-202.64,-281.27,50.93,133.25,184.36,0,133.43,0.23
rw_cut_5_p1_4f_opt_disp_struct_17.xyz,Nucleus 22N :,4.828931,-6.272518,1.872654,166.68,98.54,220.4,181.09,269.35,351.46,330.11,-239.46,-87.15,-124.27,98.54,181.09,220.4,0,121.86,0.35
rw_cut_5_p1_4f_opt_disp_struct_17.xyz,Nucleus 25N :,4.163341,-5.516716,1.758264,175.31,115.59,176.28,234.06,352.86,321.43,336.04,-212.68,-170.15,-101.57,115.59,176.28,234.06,0,118.47,0.02
rw_cut_5_p1_4f_opt_disp_struct_17.xyz,Nucleus 27N :,3.67087,-7.089717,3.675427,174.59,114.31,213.77,195.69,305.92,342.52,323.89,-211.19,-108.63,-128.77,114.31,195.69,213.77,0,99.46,0.64
rw_cut_5_p1_4f_opt_disp_struct_17.xyz,Nucleus 10F :,3.459438,-7.821934,4.332076,327.67,443.34,257.99,281.68,480.49,458.31,463.58,-20.07,-207.98,-191.33,257.99,281.68,443.34,0,185.35,-0.74
rw_cut_5_p1_4f_opt_disp_struct_17.xyz,Nucleus 12F :,3.080012,-6.268456,3.659332,348.85,449.73,291.68,305.15,480.17,471.11,457.92,-21.38,-188.04,-153.21,291.68,305.15,449.73,0,158.05,-0.83
rw_cut_5_p1_4f_opt_disp_struct_17.xyz,Nucleus 14F :,6.488132,-9.840054,3.787505,345.17,453.74,295.18,286.59,460.63,476.76,477.52,-23.19,-166.07,-190.15,286.59,295.18,453.74,0,167.15,-0.9
rw_cut_5_p1_4f_opt_disp_struct_17.xyz,Nucleus 16F :,5.6761,-6.219384,1.332438,345.18,447.08,297.07,291.39,458.68,480.54,479.2,-33.07,-165.18,-184.63,291.39,297.07,447.08,0,155.69,-0.93
rw_cut_5_p1_4f_opt_disp_struct_18.xyz,Nucleus 1H :,0.979309,-0.025991,-1.331735,29.14,35.36,23.46,28.59,40.81,25.76,30.34,-6.48,-0.5,-2.51,23.46,28.59,35.36,0,11.9,-0.14
rw_cut_5_p1_4f_opt_disp_struct_18.xyz,Nucleus 2H :,1.792354,0.5849,-1.729245,28.91,23.91,27.98,34.84,46.05,27.44,25.9,-11.74,-3.0,2.06,23.91,27.98,34.84,0,10.93,-0.26
rw_cut_5_p1_4f_opt_disp_struct_18.xyz,Nucleus 6H :,1.143633,-1.060252,-1.651975,23.73,15.34,25.33,30.53,50.52,10.49,30.15,-20.41,5.07,-4.61,15.34,25.33,30.53,0,15.19,0.32
rw_cut_5_p1_4f_opt_disp_struct_18.xyz,Nucleus 17H :,0.907439,0.093305,0.148985,24.2,20.56,25.47,26.58,44.85,26.83,31.42,-19.3,-6.18,-5.02,20.56,25.47,26.58,0,6.02,0.63
rw_cut_5_p1_4f_opt_disp_struct_18.xyz,Nucleus 18H :,1.695519,0.901917,0.94573,28.69,34.99,27.21,23.88,42.14,27.15,31.83,-0.36,-8.64,-6.04,23.88,27.21,34.99,0,11.11,-0.4
rw_cut_5_p1_4f_opt_disp_struct_18.xyz,Nucleus 20H :,1.318109,0.729764,2.250337,28.5,34.34,24.38,26.78,-17.02,17.03,39.67,43.87,8.51,-6.55,24.38,26.78,34.34,0,9.96,-0.52
rw_cut_5_p1_4f_opt_disp_struct_18.xyz,Nucleus 21H :,1.693294,1.225437,3.04248,28.51,35.1,26.31,24.12,-16.47,16.95,41.19,43.86,7.7,-7.7,24.12,26.31,35.1,0,10.98,-0.6
rw_cut_5_p1_4f_opt_disp_struct_18.xyz,Nucleus 23H :,0.289853,-0.178539,2.323195,26.84,18.69,33.85,27.98,-5.16,51.91,27.27,24.42,-18.38,0.46,18.69,27.98,33.85,0,15.16,0.23
rw_cut_5_p1_4f_opt_disp_struct_18.xyz,Nucleus 26H :,0.005401,-0.596414,1.020587,26.69,35.77,24.02,20.28,86.91,45.37,29.72,-66.58,-10.64,-4.71,20.28,24.02,35.77,0,15.49,-0.52
rw_cut_5_p1_4f_opt_disp_struct_18.xyz,Nucleus 28H :,-1.029464,-1.538095,0.837311,26.47,33.6,25.99,19.81,59.82,25.11,-1.35,-26.29,21.29,0.83,19.81,25.99,33.6,0,13.79,-0.1
rw_cut_5_p1_4f_opt_disp_struct_18.xyz,Nucleus 29H :,-1.343296,-1.969362,-0.393388,26.47,35.0,20.18,24.24,69.05,43.19,32.03,-48.68,-8.38,-7.79,20.18,24.24,35.0,0,14.82,-0.45
rw_cut_5_p1_4f_opt_disp_struct_18.xyz,Nucleus 30H :,-1.732136,-2.025927,1.939893,28.13,34.92,25.94,23.54,-35.01,38.2,9.42,58.67,-3.32,16.44,23.54,25.94,34.92,0,11.38,-0.58
rw_cut_5_p1_4f_opt_disp_struct_18.xyz,Nucleus 31H :,-2.713321,-2.922319,1.75692,27.01,34.68,25.61,20.73,54.17,26.69,37.12,-26.44,-9.96,-0.57,20.73,25.61,34.68,0,13.95,-0.3
rw_cut_5_p1_4f_opt_disp_struct_18.xyz,Nucleus 0C :,-1.425723,-1.593336,3.220609,171.36,186.91,160.86,166.3,258.63,236.61,237.8,-79.04,-73.46,-66.47,160.86,166.3,186.91,0,26.05,-0.58
rw_cut_5_p1_4f_opt_disp_struct_18.xyz,Nucleus 3C :,-2.111676,-2.073224,4.268667,61.17,147.39,53.72,-17.6,240.12,272.6,263.63,-92.76,-218.85,-281.23,-17.6,53.72,147.39,0,164.99,-0.14
rw_cut_5_p1_4f_opt_disp_struct_18.xyz,Nucleus 4C :,-0.411257,-0.663313,3.430541,54.04,-29.42,127.02,64.53,273.95,257.49,257.37,-292.95,-130.43,-203.31,-29.42,64.53,127.02,0,156.44,0.2
rw_cut_5_p1_4f_opt_disp_struct_18.xyz,Nucleus 7C :,-0.111698,-0.240557,4.665821,56.36,138.24,2.86,27.97,274.03,261.02,265.91,-122.85,-270.98,-238.06,2.86,27.97,138.24,0,135.38,-0.63
rw_cut_5_p1_4f_opt_disp_struct_18.xyz,Nucleus 8C :,2.479643,1.59103,0.669473,62.9,158.79,26.79,3.11,236.24,261.93,268.75,-77.7,-235.8,-264.73,3.11,26.79,158.79,0,155.68,-0.7
rw_cut_5_p1_4f_opt_disp_struct_18.xyz,Nucleus 9C :,0.048429,0.305341,-1.803042,29.49,83.02,20.39,-14.95,237.18,268.45,270.02,-154.18,-248.07,-284.94,-14.95,20.39,83.02,0,97.97,-0.28
rw_cut_5_p1_4f_opt_disp_struct_18.xyz,Nucleus 11C :,5.734134,-9.450059,3.915233,37.46,94.31,20.67,-2.61,239.57,263.92,272.57,-145.34,-243.79,-274.57,-2.61,20.67,94.31,0,96.92,-0.52
rw_cut_5_p1_4f_opt_disp_struct_18.xyz,Nucleus 13C :,5.711309,-9.041516,4.930539,36.42,94.24,15.9,-0.87,236.97,263.7,272.92,-142.74,-251.77,-269.82,-0.87,15.9,94.24,0,95.11,-0.65
rw_cut_5_p1_4f_opt_disp_struct_18.xyz,Nucleus 15C :,4.884146,-10.125904,3.763417,38.48,89.44,22.56,3.43,233.06,272.06,262.94,-143.69,-249.39,-259.55,3.43,22.56,89.44,0,86.01,-0.56
rw_cut_5_p1_4f_opt_disp_struct_18.xyz,Nucleus 19C :,5.757549,-8.372868,2.929034,155.09,130.33,146.46,188.47,183.15,206.04,276.32,-36.93,-74.21,-89.13,130.33,146.46,188.47,0,58.14,-0.45
rw_cut_5_p1_4f_opt_disp_struct_18.xyz,Nucleus 24C :,6.385459,-8.476577,2.148384,21.22,115.52,-15.85,-36.0,241.4,274.4,262.28,-126.04,-280.29,-308.07,-36.0,-15.85,115.52,0,151.52,-0.73
rw_cut_5_p1_4f_opt_disp_struct_18.xyz,Nucleus 5N :,4.859772,-7.379231,2.850955,122.9,51.02,184.34,133.33,293.35,338.21,329.95,-109.15,-202.6,-281.07,51.02,133.33,184.34,0,133.32,0.23
rw_cut_5_p1_4f_opt_disp_struct_18.xyz,Nucleus 22N :,4.994366,-6.45847,1.896181,166.65,98.51,220.34,181.1,267.92,351.89,330.07,-239.89,-85.72,-124.32,98.51,181.1,220.34,0,121.83,0.36
rw_cut_5_p1_4f_opt_disp_struct_18.xyz,Nucleus 25N :,4.328776,-5.702667,1.781791,175.29,115.53,176.29,234.05,353.86,321.41,336.17,-212.91,-171.02,-101.64,115.53,176.29,234.05,0,118.52,0.03
rw_cut_5_p1_4f_opt_disp_struct_18.xyz,Nucleus 27N :,3.836305,-7.275668,3.698953,174.59,114.28,213.8,195.7,342.88,306.57,323.84,-211.22,-109.25,-129.04,114.28,195.7,213.8,0,99.52,0.64
rw_cut_5_p1_4f_opt_disp_struct_18.xyz,Nucleus 10F :,3.624872,-8.007885,4.355603,327.76,443.35,258.14,281.8,480.45,458.32,463.57,-20.06,-207.73,-191.26,258.14,281.8,443.35,0,185.21,-0.74
rw_cut_5_p1_4f_opt_disp_struct_18.xyz,Nucleus 12F :,3.245447,-6.454408,3.682859,348.94,449.76,291.79,305.28,480.1,471.07,457.94,-21.31,-187.88,-153.11,291.79,305.28,449.76,0,157.97,-0.83
rw_cut_5_p1_4f_opt_disp_struct_18.xyz,Nucleus 14F :,6.653566,-10.026006,3.811032,345.22,453.76,295.24,286.66,460.63,476.79,477.45,-23.12,-166.0,-190.08,286.66,295.24,453.76,0,167.1,-0.9
rw_cut_5_p1_4f_opt_disp_struct_18.xyz,Nucleus 16F :,5.841535,-6.405335,1.355964,345.28,447.12,297.2,291.53,458.73,480.38,479.23,-32.93,-165.08,-184.5,291.53,297.2,447.12,0,155.59,-0.93
rw_cut_5_p1_4f_opt_disp_struct_19.xyz,Nucleus 1H :,0.979309,-0.025991,-1.331735,29.14,35.36,23.46,28.61,40.8,25.75,30.26,-6.47,-0.47,-2.46,23.46,28.61,35.36,0,11.9,-0.13
rw_cut_5_p1_4f_opt_disp_struct_19.xyz,Nucleus 2H :,1.792354,0.5849,-1.729245,28.9,23.89,27.97,34.84,45.97,27.37,25.88,-11.67,-2.92,2.08,23.89,27.97,34.84,0,10.95,-0.25
rw_cut_5_p1_4f_opt_disp_struct_19.xyz,Nucleus 6H :,1.143633,-1.060252,-1.651975,23.74,15.34,25.34,30.54,50.42,10.48,30.17,-20.3,5.07,-4.61,15.34,25.34,30.54,0,15.2,0.32
rw_cut_5_p1_4f_opt_disp_struct_19.xyz,Nucleus 17H :,0.907439,0.093305,0.148985,24.21,20.56,25.47,26.59,44.83,26.83,31.38,-19.26,-6.18,-4.96,20.56,25.47,26.59,0,6.03,0.63
rw_cut_5_p1_4f_opt_disp_struct_19.xyz,Nucleus 18H :,1.695519,0.901917,0.94573,28.7,34.99,27.22,23.89,42.12,27.12,31.82,-0.34,-8.66,-5.98,23.89,27.22,34.99,0,11.1,-0.4
rw_cut_5_p1_4f_opt_disp_struct_19.xyz,Nucleus 20H :,1.318109,0.729764,2.250337,28.49,34.34,24.38,26.76,-17.85,16.95,39.75,44.73,8.58,-6.66,24.38,26.76,34.34,0,9.96,-0.52
rw_cut_5_p1_4f_opt_disp_struct_19.xyz,Nucleus 21H :,1.693294,1.225437,3.04248,28.5,35.09,26.3,24.12,-17.37,16.89,41.3,44.78,7.76,-7.84,24.12,26.3,35.09,0,10.97,-0.6
rw_cut_5_p1_4f_opt_disp_struct_19.xyz,Nucleus 23H :,0.289853,-0.178539,2.323195,26.83,18.69,33.84,27.96,-6.4,52.09,27.15,25.66,-18.58,0.57,18.69,27.96,33.84,0,15.15,0.22
rw_cut_5_p1_4f_opt_disp_struct_19.xyz,Nucleus 26H :,0.005401,-0.596414,1.020587,26.67,35.67,24.03,20.3,88.6,45.19,29.96,-68.25,-10.64,-4.85,20.3,24.03,35.67,0,15.37,-0.52
rw_cut_5_p1_4f_opt_disp_struct_19.xyz,Nucleus 28H :,-1.029464,-1.538095,0.837311,26.46,33.6,25.95,19.82,60.27,25.1,-1.49,-26.74,21.44,0.8,19.82,25.95,33.6,0,13.78,-0.11
rw_cut_5_p1_4f_opt_disp_struct_19.xyz,Nucleus 29H :,-1.343296,-1.969362,-0.393388,26.46,34.92,20.2,24.25,70.69,43.16,32.24,-50.3,-8.49,-7.92,20.2,24.25,34.92,0,14.72,-0.45
rw_cut_5_p1_4f_opt_disp_struct_19.xyz,Nucleus 30H :,-1.732136,-2.025927,1.939893,28.13,34.9,25.94,23.54,-36.31,38.18,9.12,59.97,-3.32,16.74,23.54,25.94,34.9,0,11.36,-0.58
rw_cut_5_p1_4f_opt_disp_struct_19.xyz,Nucleus 31H :,-2.713321,-2.922319,1.75692,26.99,34.69,25.55,20.74,54.44,26.57,37.2,-26.69,-10.04,-0.5,20.74,25.55,34.69,0,13.95,-0.31
rw_cut_5_p1_4f_opt_disp_struct_19.xyz,Nucleus 0C :,-1.425723,-1.593336,3.220609,171.35,186.92,160.87,166.27,258.55,236.65,237.74,-78.92,-73.46,-66.48,160.87,166.27,186.92,0,26.05,-0.59
rw_cut_5_p1_4f_opt_disp_struct_19.xyz,Nucleus 3C :,-2.111676,-2.073224,4.268667,61.18,147.38,53.75,-17.6,240.09,272.44,263.61,-92.74,-218.66,-281.21,-17.6,53.75,147.38,0,164.98,-0.14
rw_cut_5_p1_4f_opt_disp_struct_19.xyz,Nucleus 4C :,-0.411257,-0.663313,3.430541,54.09,-29.35,126.99,64.64,273.87,257.37,257.5,-292.92,-130.44,-203.1,-29.35,64.64,126.99,0,156.34,0.2
rw_cut_5_p1_4f_opt_disp_struct_19.xyz,Nucleus 7C :,-0.111698,-0.240557,4.665821,56.34,138.22,2.83,27.98,273.92,261.02,265.92,-122.89,-270.89,-238.06,2.83,27.98,138.22,0,135.39,-0.63
rw_cut_5_p1_4f_opt_disp_struct_19.xyz,Nucleus 8C :,2.479643,1.59103,0.669473,62.89,158.78,26.78,3.12,236.23,261.93,268.55,-77.69,-235.76,-264.58,3.12,26.78,158.78,0,155.66,-0.7
rw_cut_5_p1_4f_opt_disp_struct_19.xyz,Nucleus 9C :,0.048429,0.305341,-1.803042,29.48,83.0,20.39,-14.96,237.16,268.38,269.85,-154.18,-248.01,-284.78,-14.96,20.39,83.0,0,97.96,-0.28
rw_cut_5_p1_4f_opt_disp_struct_19.xyz,Nucleus 11C :,5.899569,-9.63601,3.93876,37.44,94.28,20.66,-2.62,239.57,263.9,272.43,-145.35,-243.79,-274.43,-2.62,20.66,94.28,0,96.9,-0.52
rw_cut_5_p1_4f_opt_disp_struct_19.xyz,Nucleus 13C :,5.876744,-9.227467,4.954066,36.4,94.22,15.88,-0.89,236.95,263.71,272.8,-142.74,-251.75,-269.76,-0.89,15.88,94.22,0,95.11,-0.65
rw_cut_5_p1_4f_opt_disp_struct_19.xyz,Nucleus 15C :,5.049581,-10.311855,3.786944,38.47,89.42,22.55,3.43,233.03,271.94,262.93,-143.68,-249.29,-259.54,3.43,22.55,89.42,0,85.99,-0.56
rw_cut_5_p1_4f_opt_disp_struct_19.xyz,Nucleus 19C :,5.922983,-8.55882,2.952561,155.08,130.32,146.46,188.45,182.26,205.63,276.89,-36.04,-73.9,-89.6,130.32,146.46,188.45,0,58.13,-0.44
rw_cut_5_p1_4f_opt_disp_struct_19.xyz,Nucleus 24C :,6.550894,-8.662529,2.171911,21.21,115.53,-15.89,-36.0,241.66,274.77,262.18,-126.31,-280.26,-308.41,-36.0,-15.89,115.53,0,151.53,-0.73
rw_cut_5_p1_4f_opt_disp_struct_19.xyz,Nucleus 5N :,5.025207,-7.565183,2.874482,122.94,51.1,184.32,133.4,293.31,338.21,329.87,-109.13,-202.57,-280.88,51.1,133.4,184.32,0,133.22,0.24
rw_cut_5_p1_4f_opt_disp_struct_19.xyz,Nucleus 22N :,5.1598,-6.644421,1.919708,166.62,98.48,220.28,181.11,266.5,352.33,330.02,-240.32,-84.29,-124.37,98.48,181.11,220.28,0,121.8,0.36
rw_cut_5_p1_4f_opt_disp_struct_19.xyz,Nucleus 25N :,4.49421,-5.888619,1.805318,175.27,115.47,176.3,234.04,354.84,321.39,336.31,-213.15,-171.88,-101.7,115.47,176.3,234.04,0,118.57,0.03
rw_cut_5_p1_4f_opt_disp_struct_19.xyz,Nucleus 27N :,4.001739,-7.46162,3.72248,174.59,114.26,213.82,195.7,343.22,307.2,323.79,-211.25,-109.86,-129.31,114.26,195.7,213.82,0,99.56,0.64
rw_cut_5_p1_4f_opt_disp_struct_19.xyz,Nucleus 10F :,3.790307,-8.193837,4.379129,327.85,443.36,258.27,281.91,480.41,458.32,463.56,-20.05,-207.49,-191.2,258.27,281.91,443.36,0,185.09,-0.74
rw_cut_5_p1_4f_opt_disp_struct_19.xyz,Nucleus 12F :,3.410881,-6.640359,3.706386,349.02,449.79,291.88,305.4,480.04,471.04,457.96,-21.24,-187.72,-153.01,291.88,305.4,449.79,0,157.91,-0.83
rw_cut_5_p1_4f_opt_disp_struct_19.xyz,Nucleus 14F :,6.819,-10.211957,3.834559,345.27,453.79,295.3,286.72,460.62,476.8,477.41,-23.06,-165.94,-190.02,286.72,295.3,453.79,0,167.07,-0.9
rw_cut_5_p1_4f_opt_disp_struct_19.xyz,Nucleus 16F :,6.006969,-6.591287,1.379491,345.36,447.14,297.3,291.64,458.78,480.23,479.26,-32.81,-164.99,-184.38,291.64,297.3,447.14,0,155.5,-0.93
rw_cut_5_p1_4f_opt_disp_struct_2.xyz,Nucleus 1H :,0.979309,-0.025991,-1.331735,28.97,35.51,23.29,28.12,41.15,25.25,31.5,-0.53,-6.6,-3.86,23.29,28.12,35.51,0,12.22,-0.21
rw_cut_5_p1_4f_opt_disp_struct_2.xyz,Nucleus 2H :,1.792354,0.5849,-1.729245,29.0,24.06,28.39,34.55,47.89,28.53,26.49,1.96,-4.37,-13.51,24.06,28.39,34.55,0,10.49,-0.17
rw_cut_5_p1_4f_opt_disp_struct_2.xyz,Nucleus 6H :,1.143633,-1.060252,-1.651975,23.38,15.09,24.9,30.15,52.49,10.1,28.88,-22.86,-3.94,5.49,15.09,24.9,30.15,0,15.06,0.3
rw_cut_5_p1_4f_opt_disp_struct_2.xyz,Nucleus 17H :,0.907439,0.093305,0.148985,23.93,20.2,25.37,26.21,45.14,26.17,32.31,-19.69,-5.69,-6.46,20.2,25.37,26.21,0,6.01,0.72
rw_cut_5_p1_4f_opt_disp_struct_2.xyz,Nucleus 18H :,1.695519,0.901917,0.94573,28.59,35.2,26.96,23.6,42.87,27.85,31.61,-0.85,-8.15,-7.57,23.6,26.96,35.2,0,11.6,-0.42
rw_cut_5_p1_4f_opt_disp_struct_2.xyz,Nucleus 20H :,1.318109,0.729764,2.250337,28.69,34.52,24.29,27.25,-3.71,18.2,39.01,29.89,7.76,-5.09,24.29,27.25,34.52,0,10.23,-0.42
rw_cut_5_p1_4f_opt_disp_struct_2.xyz,Nucleus 21H :,1.693294,1.225437,3.04248,28.66,35.3,26.6,24.08,-2.01,17.92,39.86,28.79,7.04,-5.62,24.08,26.6,35.3,0,11.22,-0.55
rw_cut_5_p1_4f_opt_disp_struct_2.xyz,Nucleus 23H :,0.289853,-0.178539,2.323195,27.2,18.52,34.35,28.73,48.82,15.15,29.92,-14.69,4.3,-1.89,18.52,28.73,34.35,0,15.83,0.29
rw_cut_5_p1_4f_opt_disp_struct_2.xyz,Nucleus 26H :,0.005401,-0.596414,1.020587,28.23,42.75,18.65,23.29,20.79,57.65,52.63,-36.3,2.5,-12.57,18.65,23.29,42.75,0,24.1,-0.61
rw_cut_5_p1_4f_opt_disp_struct_2.xyz,Nucleus 28H :,-1.029464,-1.538095,0.837311,26.83,19.47,27.11,33.92,-0.08,24.66,53.0,19.66,2.43,-19.16,19.47,27.11,33.92,0,14.45,0.06
rw_cut_5_p1_4f_opt_disp_struct_2.xyz,Nucleus 29H :,-1.343296,-1.969362,-0.393388,27.54,40.05,19.09,23.49,23.83,38.16,48.49,-19.13,0.89,-9.63,19.09,23.49,40.05,0,20.96,-0.58
rw_cut_5_p1_4f_opt_disp_struct_2.xyz,Nucleus 30H :,-1.732136,-2.025927,1.939893,28.32,35.56,25.91,23.5,-13.61,39.02,14.17,37.22,-3.49,11.66,23.5,25.91,35.56,0,12.06,-0.6
rw_cut_5_p1_4f_opt_disp_struct_2.xyz,Nucleus 31H :,-2.713321,-2.922319,1.75692,27.74,20.32,34.69,28.22,49.76,30.69,34.21,-22.03,-7.33,-2.06,20.32,28.22,34.69,0,14.37,0.1
rw_cut_5_p1_4f_opt_disp_struct_2.xyz,Nucleus 0C :,-1.425723,-1.593336,3.220609,171.65,160.69,167.35,186.91,260.83,236.26,239.82,-82.53,-72.9,-66.53,160.69,167.35,186.91,0,26.22,-0.49
rw_cut_5_p1_4f_opt_disp_struct_2.xyz,Nucleus 3C :,-2.111676,-2.073224,4.268667,61.01,147.3,52.92,-17.19,239.91,276.28,263.98,-92.7,-223.27,-281.17,-17.19,52.92,147.3,0,164.49,-0.15
rw_cut_5_p1_4f_opt_disp_struct_2.xyz,Nucleus 4C :,-0.411257,-0.663313,3.430541,50.59,-34.02,127.85,57.95,276.73,257.91,255.46,-297.03,-129.08,-212.21,-34.02,57.95,127.85,0,161.87,0.14
rw_cut_5_p1_4f_opt_disp_struct_2.xyz,Nucleus 7C :,-0.111698,-0.240557,4.665821,57.05,139.09,4.83,27.23,276.73,261.53,265.88,-122.74,-271.85,-238.41,4.83,27.23,139.09,0,134.26,-0.67
rw_cut_5_p1_4f_opt_disp_struct_2.xyz,Nucleus 8C :,2.479643,1.59103,0.669473,64.28,159.54,29.39,3.92,235.19,273.56,257.99,-76.29,-230.24,-267.36,3.92,29.39,159.54,0,155.62,-0.67
rw_cut_5_p1_4f_opt_disp_struct_2.xyz,Nucleus 9C :,0.048429,0.305341,-1.803042,30.0,84.34,20.02,-14.37,240.56,270.63,275.7,-156.78,-250.11,-290.01,-14.37,20.02,84.34,0,98.71,-0.3
rw_cut_5_p1_4f_opt_disp_struct_2.xyz,Nucleus 11C :,3.087184,-6.474836,3.538804,37.83,95.39,21.18,-3.07,238.89,264.28,276.08,-144.22,-243.39,-278.14,-3.07,21.18,95.39,0,98.46,-0.51
rw_cut_5_p1_4f_opt_disp_struct_2.xyz,Nucleus 13C :,3.064359,-6.066292,4.55411,38.1,95.38,17.35,1.58,237.79,274.57,263.04,-143.34,-249.46,-268.3,1.58,17.35,95.38,0,93.8,-0.66
rw_cut_5_p1_4f_opt_disp_struct_2.xyz,Nucleus 15C :,2.237196,-7.150681,3.386988,38.89,90.48,22.26,3.94,234.3,274.23,262.79,-144.81,-251.09,-258.74,3.94,22.26,90.48,0,86.54,-0.58
rw_cut_5_p1_4f_opt_disp_struct_2.xyz,Nucleus 19C :,3.110598,-5.397645,2.552605,155.31,130.75,146.31,188.87,198.58,213.02,267.18,-52.39,-85.34,-75.11,130.75,146.31,188.87,0,58.12,-0.46
rw_cut_5_p1_4f_opt_disp_struct_2.xyz,Nucleus 24C :,3.738509,-5.501354,1.771956,21.77,115.38,-15.46,-34.61,235.95,267.61,265.35,-120.7,-282.85,-300.06,-34.61,-15.46,115.38,0,149.99,-0.74
rw_cut_5_p1_4f_opt_disp_struct_2.xyz,Nucleus 5N :,2.212822,-4.404008,2.474527,118.62,43.89,184.86,127.11,292.73,339.03,330.69,-108.68,-290.27,-207.64,43.89,127.11,184.86,0,140.97,0.18
rw_cut_5_p1_4f_opt_disp_struct_2.xyz,Nucleus 22N :,2.347415,-3.483247,1.519752,168.77,101.73,224.38,180.19,293.1,346.35,330.29,-230.56,-111.19,-121.69,101.73,180.19,224.38,0,122.65,0.28
rw_cut_5_p1_4f_opt_disp_struct_2.xyz,Nucleus 25N :,1.681825,-2.727444,1.405363,175.09,116.78,176.23,232.25,318.51,338.8,332.85,-209.73,-152.57,-102.61,116.78,176.23,232.25,0,115.47,0.03
rw_cut_5_p1_4f_opt_disp_struct_2.xyz,Nucleus 27N :,1.189354,-4.300445,3.322525,173.96,115.63,210.38,195.88,292.61,334.81,326.51,-211.98,-124.46,-95.61,115.63,195.88,210.38,0,94.75,0.69
rw_cut_5_p1_4f_opt_disp_struct_2.xyz,Nucleus 10F :,0.977922,-5.032662,3.979174,321.09,441.45,247.25,274.57,478.99,455.87,463.91,-21.84,-219.22,-194.43,247.25,274.57,441.45,0,194.2,-0.72
rw_cut_5_p1_4f_opt_disp_struct_2.xyz,Nucleus 12F :,0.598496,-3.479184,3.30643,342.19,446.72,284.96,294.88,455.37,472.81,480.99,-26.75,-194.22,-161.65,284.96,294.88,446.72,0,161.76,-0.88
rw_cut_5_p1_4f_opt_disp_struct_2.xyz,Nucleus 14F :,4.006615,-7.050782,3.434603,343.14,451.64,293.91,283.86,457.07,472.36,485.37,-29.59,-164.18,-191.63,283.86,293.91,451.64,0,167.78,-0.88
rw_cut_5_p1_4f_opt_disp_struct_2.xyz,Nucleus 16F :,3.194584,-3.430112,0.979536,338.59,444.64,281.57,289.55,454.71,491.58,475.17,-45.75,-172.01,-187.94,281.57,289.55,444.64,0,163.07,-0.9
rw_cut_5_p1_4f_opt_disp_struct_3.xyz,Nucleus 1H :,0.979309,-0.025991,-1.331735,28.98,35.46,23.32,28.17,41.14,25.36,31.44,-6.66,-0.59,-3.74,23.32,28.17,35.46,0,12.14,-0.2
rw_cut_5_p1_4f_opt_disp_struct_3.xyz,Nucleus 2H :,1.792354,0.5849,-1.729245,28.99,24.08,28.32,34.58,47.73,28.55,26.43,1.91,-4.34,-13.31,24.08,28.32,34.58,0,10.5,-0.19
rw_cut_5_p1_4f_opt_disp_struct_3.xyz,Nucleus 6H :,1.143633,-1.060252,-1.651975,23.43,15.15,24.96,30.19,52.35,10.15,29.02,-22.7,-4.0,5.48,15.15,24.96,30.19,0,15.04,0.31
rw_cut_5_p1_4f_opt_disp_struct_3.xyz,Nucleus 17H :,0.907439,0.093305,0.148985,23.96,20.26,25.38,26.25,45.18,26.3,32.22,-19.76,-5.73,-6.32,20.26,25.38,26.25,0,5.99,0.71
rw_cut_5_p1_4f_opt_disp_struct_3.xyz,Nucleus 18H :,1.695519,0.901917,0.94573,28.59,35.16,26.98,23.63,42.8,27.85,31.57,-0.88,-8.16,-7.41,23.63,26.98,35.16,0,11.53,-0.42
rw_cut_5_p1_4f_opt_disp_struct_3.xyz,Nucleus 20H :,1.318109,0.729764,2.250337,28.66,34.49,24.29,27.2,-4.58,18.11,39.0,30.81,7.8,-5.16,24.29,27.2,34.49,0,10.2,-0.43
rw_cut_5_p1_4f_opt_disp_struct_3.xyz,Nucleus 21H :,1.693294,1.225437,3.04248,28.64,35.27,26.57,24.08,-2.96,17.84,39.9,29.8,7.07,-5.73,24.08,26.57,35.27,0,11.19,-0.55
rw_cut_5_p1_4f_opt_disp_struct_3.xyz,Nucleus 23H :,0.289853,-0.178539,2.323195,27.15,18.55,34.27,28.63,48.98,13.82,29.69,-14.94,5.58,-1.68,18.55,28.63,34.27,0,15.72,0.28
rw_cut_5_p1_4f_opt_disp_struct_3.xyz,Nucleus 26H :,0.005401,-0.596414,1.020587,28.07,41.59,23.56,19.06,22.31,58.46,53.04,-38.49,1.25,-12.35,19.06,23.56,41.59,0,22.53,-0.6
rw_cut_5_p1_4f_opt_disp_struct_3.xyz,Nucleus 28H :,-1.029464,-1.538095,0.837311,26.79,19.5,26.99,33.88,-0.23,24.73,53.38,19.85,2.22,-19.57,19.5,26.99,33.88,0,14.38,0.04
rw_cut_5_p1_4f_opt_disp_struct_3.xyz,Nucleus 29H :,-1.343296,-1.969362,-0.393388,27.44,39.19,19.33,23.79,25.31,40.5,47.39,-21.15,-0.38,-9.36,19.33,23.79,39.19,0,19.86,-0.55
rw_cut_5_p1_4f_opt_disp_struct_3.xyz,Nucleus 30H :,-1.732136,-2.025927,1.939893,28.29,35.48,25.9,23.49,-15.03,38.92,13.85,38.63,-3.47,11.97,23.49,25.9,35.48,0,11.99,-0.6
rw_cut_5_p1_4f_opt_disp_struct_3.xyz,Nucleus 31H :,-2.713321,-2.922319,1.75692,27.64,20.38,34.7,27.85,49.98,30.25,34.56,-22.23,-7.66,-1.97,20.38,27.85,34.7,0,14.32,0.04
rw_cut_5_p1_4f_opt_disp_struct_3.xyz,Nucleus 0C :,-1.425723,-1.593336,3.220609,171.59,160.7,167.22,186.85,260.55,236.25,239.67,-82.17,-72.99,-66.55,160.7,167.22,186.85,0,26.15,-0.5
rw_cut_5_p1_4f_opt_disp_struct_3.xyz,Nucleus 3C :,-2.111676,-2.073224,4.268667,61.07,147.36,53.09,-17.25,239.84,276.08,263.95,-92.53,-222.89,-281.26,-17.25,53.09,147.36,0,164.61,-0.15
rw_cut_5_p1_4f_opt_disp_struct_3.xyz,Nucleus 4C :,-0.411257,-0.663313,3.430541,51.18,-33.21,127.74,59.01,276.42,258.54,254.84,-296.18,-129.2,-210.89,-33.21,59.01,127.74,0,160.95,0.15
rw_cut_5_p1_4f_opt_disp_struct_3.xyz,Nucleus 7C :,-0.111698,-0.240557,4.665821,57.0,138.99,4.62,27.38,276.76,261.14,265.77,-122.37,-272.1,-238.2,4.62,27.38,138.99,0,134.37,-0.66
rw_cut_5_p1_4f_opt_disp_struct_3.xyz,Nucleus 8C :,2.479643,1.59103,0.669473,64.01,159.42,28.89,3.71,235.53,274.16,258.96,-76.8,-231.94,-267.89,3.71,28.89,159.42,0,155.71,-0.68
rw_cut_5_p1_4f_opt_disp_struct_3.xyz,Nucleus 9C :,0.048429,0.305341,-1.803042,30.05,84.15,20.28,-14.28,239.44,270.95,275.37,-155.93,-250.1,-289.58,-14.28,20.28,84.15,0,98.43,-0.3
rw_cut_5_p1_4f_opt_disp_struct_3.xyz,Nucleus 11C :,3.252618,-6.660787,3.562331,37.93,95.23,21.28,-2.71,238.99,264.34,276.13,-144.33,-243.47,-277.86,-2.71,21.28,95.23,0,97.94,-0.51
rw_cut_5_p1_4f_opt_disp_struct_3.xyz,Nucleus 13C :,3.229793,-6.252244,4.577637,37.8,95.17,17.11,1.11,237.58,274.8,262.72,-143.02,-249.65,-269.03,1.11,17.11,95.17,0,94.06,-0.66
rw_cut_5_p1_4f_opt_disp_struct_3.xyz,Nucleus 15C :,2.40263,-7.336632,3.410515,38.94,90.32,22.5,3.99,234.15,274.41,262.53,-144.6,-250.99,-258.7,3.99,22.5,90.32,0,86.33,-0.57
rw_cut_5_p1_4f_opt_disp_struct_3.xyz,Nucleus 19C :,3.276032,-5.583596,2.576132,155.27,130.67,146.32,188.83,197.52,212.56,267.79,-51.33,-85.33,-75.38,130.67,146.32,188.83,0,58.16,-0.46
rw_cut_5_p1_4f_opt_disp_struct_3.xyz,Nucleus 24C :,3.903943,-5.687305,1.795483,21.69,115.27,-15.24,-34.97,236.34,267.66,265.43,-121.19,-282.21,-300.95,-34.97,-15.24,115.27,0,150.24,-0.74
rw_cut_5_p1_4f_opt_disp_struct_3.xyz,Nucleus 5N :,2.378256,-4.589959,2.498053,119.45,45.24,184.82,128.28,292.64,338.95,330.69,-108.69,-288.48,-206.76,45.24,128.28,184.82,0,139.58,0.19
rw_cut_5_p1_4f_opt_disp_struct_3.xyz,Nucleus 22N :,2.51285,-3.669198,1.543279,168.31,100.97,223.6,180.36,291.27,346.49,330.29,-231.64,-109.38,-122.09,100.97,180.36,223.6,0,122.63,0.29
rw_cut_5_p1_4f_opt_disp_struct_3.xyz,Nucleus 25N :,1.84726,-2.913395,1.428889,175.49,116.86,176.34,233.28,319.68,339.2,333.67,-209.89,-154.36,-101.82,116.86,176.34,233.28,0,116.42,0.02
rw_cut_5_p1_4f_opt_disp_struct_3.xyz,Nucleus 27N :,1.354789,-4.486396,3.346052,174.35,115.53,211.68,195.84,293.79,335.75,326.14,-211.69,-96.69,-124.25,115.53,195.84,211.68,0,96.15,0.67
rw_cut_5_p1_4f_opt_disp_struct_3.xyz,Nucleus 10F :,1.143356,-5.218613,4.002701,322.32,441.87,249.26,275.84,479.23,456.27,463.83,-21.42,-217.4,-193.54,249.26,275.84,441.87,0,192.61,-0.72
rw_cut_5_p1_4f_opt_disp_struct_3.xyz,Nucleus 12F :,0.76393,-3.665136,3.329957,343.48,447.27,286.21,296.95,455.81,472.51,481.05,-25.87,-193.28,-159.79,286.21,296.95,447.27,0,161.06,-0.87
rw_cut_5_p1_4f_opt_disp_struct_3.xyz,Nucleus 14F :,4.17205,-7.236734,3.45813,343.41,452.02,294.06,284.15,457.22,472.54,485.01,-28.64,-164.44,-191.45,284.15,294.06,452.02,0,167.87,-0.88
rw_cut_5_p1_4f_opt_disp_struct_3.xyz,Nucleus 16F :,3.360019,-3.616063,1.003063,339.85,445.11,283.62,290.82,454.9,490.82,475.52,-44.34,-170.11,-187.24,283.62,290.82,445.11,0,161.49,-0.91
rw_cut_5_p1_4f_opt_disp_struct_4.xyz,Nucleus 1H :,0.979309,-0.025991,-1.331735,29.0,35.43,23.34,28.23,41.13,25.46,31.36,-6.71,-0.64,-3.6,23.34,28.23,35.43,0,12.09,-0.19
rw_cut_5_p1_4f_opt_disp_struct_4.xyz,Nucleus 2H :,1.792354,0.5849,-1.729245,28.99,24.09,28.26,34.62,47.59,28.55,26.38,1.89,-4.29,-13.14,24.09,28.26,34.62,0,10.53,-0.21
rw_cut_5_p1_4f_opt_disp_struct_4.xyz,Nucleus 6H :,1.143633,-1.060252,-1.651975,23.47,15.18,25.0,30.24,52.21,10.2,29.16,-22.52,-4.07,5.44,15.18,25.0,30.24,0,15.06,0.3
rw_cut_5_p1_4f_opt_disp_struct_4.xyz,Nucleus 17H :,0.907439,0.093305,0.148985,24.0,20.31,25.39,26.29,45.22,26.43,32.12,-19.8,-5.77,-6.2,20.31,25.39,26.29,0,5.98,0.7
rw_cut_5_p1_4f_opt_disp_struct_4.xyz,Nucleus 18H :,1.695519,0.901917,0.94573,28.59,35.12,27.0,23.66,42.74,27.82,31.56,-0.89,-8.19,-7.26,23.66,27.0,35.12,0,11.46,-0.42
rw_cut_5_p1_4f_opt_disp_struct_4.xyz,Nucleus 20H :,1.318109,0.729764,2.250337,28.64,34.47,24.3,27.15,-5.42,18.02,39.01,31.71,7.84,-5.24,24.3,27.15,34.47,0,10.17,-0.44
rw_cut_5_p1_4f_opt_disp_struct_4.xyz,Nucleus 21H :,1.693294,1.225437,3.04248,28.62,35.24,26.54,24.09,-3.88,17.77,39.95,30.78,7.11,-5.85,24.09,26.54,35.24,0,11.15,-0.56
rw_cut_5_p1_4f_opt_disp_struct_4.xyz,Nucleus 23H :,0.289853,-0.178539,2.323195,27.11,18.57,34.2,28.55,49.16,12.51,29.47,-15.2,6.85,-1.49,18.57,28.55,34.2,0,15.63,0.28
rw_cut_5_p1_4f_opt_disp_struct_4.xyz,Nucleus 26H :,0.005401,-0.596414,1.020587,27.88,40.63,23.7,19.3,23.42,60.38,52.33,-40.69,-12.12,0.3,19.3,23.7,40.63,0,21.33,-0.59
rw_cut_5_p1_4f_opt_disp_struct_4.xyz,Nucleus 28H :,-1.029464,-1.538095,0.837311,26.75,19.53,26.87,33.84,-0.38,24.79,53.79,20.02,2.04,-20.03,19.53,26.87,33.84,0,14.31,0.03
rw_cut_5_p1_4f_opt_disp_struct_4.xyz,Nucleus 29H :,-1.343296,-1.969362,-0.393388,27.3,38.49,19.46,23.94,26.38,42.78,46.56,-23.26,-1.42,-9.14,19.46,23.94,38.49,0,19.03,-0.53
rw_cut_5_p1_4f_opt_disp_struct_4.xyz,Nucleus 30H :,-1.732136,-2.025927,1.939893,28.27,35.42,25.9,23.49,-16.42,38.83,13.54,40.02,-3.45,12.28,23.49,25.9,35.42,0,11.93,-0.6
rw_cut_5_p1_4f_opt_disp_struct_4.xyz,Nucleus 31H :,-2.713321,-2.922319,1.75692,27.55,20.42,34.69,27.53,50.25,29.85,34.88,-22.48,-7.97,-1.89,20.42,27.53,34.69,0,14.27,-0.0
rw_cut_5_p1_4f_opt_disp_struct_4.xyz,Nucleus 0C :,-1.425723,-1.593336,3.220609,171.53,160.7,167.09,186.8,260.29,236.29,239.5,-81.82,-73.1,-66.57,160.7,167.09,186.8,0,26.1,-0.51
rw_cut_5_p1_4f_opt_disp_struct_4.xyz,Nucleus 3C :,-2.111676,-2.073224,4.268667,61.07,147.36,53.19,-17.33,239.96,275.97,263.88,-92.63,-222.63,-281.31,-17.33,53.19,147.36,0,164.69,-0.14
rw_cut_5_p1_4f_opt_disp_struct_4.xyz,Nucleus 4C :,-0.411257,-0.663313,3.430541,51.68,-32.53,127.67,59.91,276.1,259.05,254.47,-295.46,-129.34,-209.78,-32.53,59.91,127.67,0,160.2,0.15
rw_cut_5_p1_4f_opt_disp_struct_4.xyz,Nucleus 7C :,-0.111698,-0.240557,4.665821,56.93,138.89,4.39,27.5,276.73,260.92,265.76,-122.24,-272.3,-238.08,4.39,27.5,138.89,0,134.5,-0.66
rw_cut_5_p1_4f_opt_disp_struct_4.xyz,Nucleus 8C :,2.479643,1.59103,0.669473,63.72,159.25,28.4,3.5,235.7,274.55,259.79,-77.17,-233.5,-268.21,3.5,28.4,159.25,0,155.75,-0.68
rw_cut_5_p1_4f_opt_disp_struct_4.xyz,Nucleus 9C :,0.048429,0.305341,-1.803042,30.03,83.96,20.41,-14.29,238.7,271.05,274.96,-155.36,-250.09,-289.18,-14.29,20.41,83.96,0,98.25,-0.29
rw_cut_5_p1_4f_opt_disp_struct_4.xyz,Nucleus 11C :,3.418052,-6.846739,3.585858,37.95,95.12,21.26,-2.52,239.07,264.39,276.05,-144.45,-243.58,-277.62,-2.52,21.26,95.12,0,97.64,-0.51
rw_cut_5_p1_4f_opt_disp_struct_4.xyz,Nucleus 13C :,3.395228,-6.438195,4.601164,37.55,95.05,16.89,0.71,237.47,262.61,275.05,-142.67,-250.09,-269.72,0.71,16.89,95.05,0,94.34,-0.66
rw_cut_5_p1_4f_opt_disp_struct_4.xyz,Nucleus 15C :,2.568065,-7.522584,3.434042,38.93,90.21,22.62,3.96,233.88,274.5,262.42,-144.3,-250.97,-258.74,3.96,22.62,90.21,0,86.25,-0.57
rw_cut_5_p1_4f_opt_disp_struct_4.xyz,Nucleus 19C :,3.441467,-5.769548,2.599659,155.25,130.62,146.34,188.79,196.48,212.08,268.39,-50.29,-85.32,-75.6,130.62,146.34,188.79,0,58.17,-0.46
rw_cut_5_p1_4f_opt_disp_struct_4.xyz,Nucleus 24C :,4.069378,-5.873257,1.819009,21.62,115.22,-15.14,-35.22,236.81,268.04,265.2,-121.7,-281.75,-301.74,-35.22,-15.14,115.22,0,150.44,-0.73
rw_cut_5_p1_4f_opt_disp_struct_4.xyz,Nucleus 5N :,2.543691,-4.775911,2.52158,120.16,46.41,184.8,129.27,292.67,338.87,330.71,-108.75,-286.98,-206.02,46.41,129.27,184.8,0,138.39,0.2
rw_cut_5_p1_4f_opt_disp_struct_4.xyz,Nucleus 22N :,2.678284,-3.855149,1.566806,167.97,100.42,222.99,180.5,289.49,346.7,330.3,-232.54,-107.59,-122.46,100.42,180.5,222.99,0,122.57,0.31
rw_cut_5_p1_4f_opt_disp_struct_4.xyz,Nucleus 25N :,2.012694,-3.099347,1.452416,175.66,116.85,176.34,233.79,320.53,339.99,334.38,-210.15,-156.22,-101.54,116.85,176.34,233.79,0,116.94,0.02
rw_cut_5_p1_4f_opt_disp_struct_4.xyz,Nucleus 27N :,1.520223,-4.672348,3.369578,174.52,115.39,212.4,195.78,294.95,336.64,325.84,-211.56,-97.83,-124.48,115.39,195.78,212.4,0,97.01,0.66
rw_cut_5_p1_4f_opt_disp_struct_4.xyz,Nucleus 10F :,1.30879,-5.404565,4.026228,323.26,442.18,250.93,276.67,479.48,456.66,463.78,-21.1,-215.92,-193.11,250.93,276.67,442.18,0,191.25,-0.73
rw_cut_5_p1_4f_opt_disp_struct_4.xyz,Nucleus 12F :,0.929365,-3.851087,3.353484,344.51,447.85,287.06,298.63,481.07,472.23,456.19,-24.96,-192.68,-158.31,287.06,298.63,447.85,0,160.79,-0.86
rw_cut_5_p1_4f_opt_disp_struct_4.xyz,Nucleus 14F :,4.337484,-7.422685,3.481657,343.65,452.45,294.16,284.35,457.44,472.79,484.48,-27.67,-164.69,-191.39,284.35,294.16,452.45,0,168.1,-0.88
rw_cut_5_p1_4f_opt_disp_struct_4.xyz,Nucleus 16F :,3.525453,-3.802015,1.026589,340.83,445.51,285.17,291.8,455.16,489.84,475.97,-42.89,-168.75,-186.87,285.17,291.8,445.51,0,160.34,-0.92
rw_cut_5_p1_4f_opt_disp_struct_5.xyz,Nucleus 1H :,0.979309,-0.025991,-1.331735,29.01,35.41,23.36,28.27,41.12,25.54,31.26,-6.74,-0.67,-3.47,23.36,28.27,35.41,0,12.05,-0.18
rw_cut_5_p1_4f_opt_disp_struct_5.xyz,Nucleus 2H :,1.792354,0.5849,-1.729245,28.99,24.1,28.22,34.65,47.45,28.52,26.32,1.89,-4.23,-12.98,24.1,28.22,34.65,0,10.55,-0.22
rw_cut_5_p1_4f_opt_disp_struct_5.xyz,Nucleus 6H :,1.143633,-1.060252,-1.651975,23.51,15.22,25.04,30.27,52.07,10.26,29.3,-22.35,-4.14,5.4,15.22,25.04,30.27,0,15.05,0.3
rw_cut_5_p1_4f_opt_disp_struct_5.xyz,Nucleus 17H :,0.907439,0.093305,0.148985,24.03,20.36,25.4,26.32,45.23,26.54,32.03,-19.82,-5.77,-6.13,20.36,25.4,26.32,0,5.96,0.69
rw_cut_5_p1_4f_opt_disp_struct_5.xyz,Nucleus 18H :,1.695519,0.901917,0.94573,28.6,35.1,27.02,23.69,42.68,27.77,31.57,-0.87,-8.22,-7.12,23.69,27.02,35.1,0,11.41,-0.42
rw_cut_5_p1_4f_opt_disp_struct_5.xyz,Nucleus 20H :,1.318109,0.729764,2.250337,28.62,34.44,24.31,27.11,-6.25,17.94,39.03,32.59,7.88,-5.32,24.31,27.11,34.44,0,10.13,-0.45
rw_cut_5_p1_4f_opt_disp_struct_5.xyz,Nucleus 21H :,1.693294,1.225437,3.04248,28.61,35.22,26.51,24.09,-4.79,17.7,40.01,31.74,7.15,-5.98,24.09,26.51,35.22,0,11.13,-0.57
rw_cut_5_p1_4f_opt_disp_struct_5.xyz,Nucleus 23H :,0.289853,-0.178539,2.323195,27.06,18.58,34.14,28.47,49.36,11.23,29.27,-15.46,8.11,-1.31,18.58,28.47,34.14,0,15.56,0.27
rw_cut_5_p1_4f_opt_disp_struct_5.xyz,Nucleus 26H :,0.005401,-0.596414,1.020587,27.68,39.82,23.77,19.46,24.26,62.53,51.43,-42.84,-11.89,-0.43,19.46,23.77,39.82,0,20.36,-0.58
rw_cut_5_p1_4f_opt_disp_struct_5.xyz,Nucleus 28H :,-1.029464,-1.538095,0.837311,26.71,19.56,26.77,33.79,-0.52,24.85,54.22,20.19,1.87,-20.5,19.56,26.77,33.79,0,14.23,0.01
rw_cut_5_p1_4f_opt_disp_struct_5.xyz,Nucleus 29H :,-1.343296,-1.969362,-0.393388,27.17,37.91,19.56,24.03,27.19,44.87,46.07,-25.4,-2.27,-8.96,19.56,24.03,37.91,0,18.35,-0.51
rw_cut_5_p1_4f_opt_disp_struct_5.xyz,Nucleus 30H :,-1.732136,-2.025927,1.939893,28.25,35.35,25.9,23.49,-17.8,38.75,13.24,41.4,-3.43,12.59,23.49,25.9,35.35,0,11.86,-0.59
rw_cut_5_p1_4f_opt_disp_struct_5.xyz,Nucleus 31H :,-2.713321,-2.922319,1.75692,27.47,20.46,34.68,27.26,50.54,29.49,35.16,-22.77,-8.23,-1.79,20.46,27.26,34.68,0,14.22,-0.04
rw_cut_5_p1_4f_opt_disp_struct_5.xyz,Nucleus 0C :,-1.425723,-1.593336,3.220609,171.49,160.71,166.99,186.78,260.06,236.33,239.34,-81.5,-73.2,-66.56,160.71,166.99,186.78,0,26.07,-0.52
rw_cut_5_p1_4f_opt_disp_struct_5.xyz,Nucleus 3C :,-2.111676,-2.073224,4.268667,61.07,147.39,53.24,-17.41,240.08,275.82,263.78,-92.74,-222.41,-281.33,-17.41,53.24,147.39,0,164.8,-0.14
rw_cut_5_p1_4f_opt_disp_struct_5.xyz,Nucleus 4C :,-0.411257,-0.663313,3.430541,52.08,-32.0,127.59,60.65,275.81,259.36,254.33,-294.9,-129.49,-208.86,-32.0,60.65,127.59,0,159.59,0.16
rw_cut_5_p1_4f_opt_disp_struct_5.xyz,Nucleus 7C :,-0.111698,-0.240557,4.665821,56.85,138.8,4.16,27.59,276.61,260.82,265.79,-122.26,-272.42,-237.98,4.16,27.59,138.8,0,134.64,-0.65
rw_cut_5_p1_4f_opt_disp_struct_5.xyz,Nucleus 8C :,2.479643,1.59103,0.669473,63.5,159.17,28.0,3.33,235.73,274.58,260.4,-77.31,-234.67,-268.23,3.33,28.0,159.17,0,155.84,-0.68
rw_cut_5_p1_4f_opt_disp_struct_5.xyz,Nucleus 9C :,0.048429,0.305341,-1.803042,29.98,83.81,20.47,-14.35,238.25,270.98,274.49,-155.0,-250.02,-288.78,-14.35,20.47,83.81,0,98.16,-0.29
rw_cut_5_p1_4f_opt_disp_struct_5.xyz,Nucleus 11C :,3.583487,-7.03269,3.609385,37.92,95.0,21.2,-2.44,239.14,264.4,275.84,-144.57,-243.68,-277.37,-2.44,21.2,95.0,0,97.44,-0.51
rw_cut_5_p1_4f_opt_disp_struct_5.xyz,Nucleus 13C :,3.560662,-6.624147,4.62469,37.33,94.92,16.7,0.37,237.33,262.75,275.16,-142.49,-250.56,-270.21,0.37,16.7,94.92,0,94.55,-0.65
rw_cut_5_p1_4f_opt_disp_struct_5.xyz,Nucleus 15C :,2.733499,-7.708535,3.457569,38.89,90.1,22.67,3.89,233.64,274.43,262.4,-144.07,-250.92,-258.82,3.89,22.67,90.1,0,86.21,-0.56
rw_cut_5_p1_4f_opt_disp_struct_5.xyz,Nucleus 19C :,3.606901,-5.955499,2.623186,155.23,130.57,146.35,188.76,195.45,211.61,268.99,-49.26,-85.35,-75.77,130.57,146.35,188.76,0,58.19,-0.46
rw_cut_5_p1_4f_opt_disp_struct_5.xyz,Nucleus 24C :,4.234812,-6.059208,1.842536,21.56,115.23,-15.12,-35.42,237.3,268.57,264.87,-122.2,-281.4,-302.45,-35.42,-15.12,115.23,0,150.65,-0.73
rw_cut_5_p1_4f_opt_disp_struct_5.xyz,Nucleus 5N :,2.709125,-4.961862,2.545107,120.69,47.28,184.77,130.02,292.81,338.79,330.7,-108.91,-285.86,-205.47,47.28,130.02,184.77,0,137.49,0.2
rw_cut_5_p1_4f_opt_disp_struct_5.xyz,Nucleus 22N :,2.843718,-4.041101,1.590333,167.71,100.02,222.51,180.61,287.76,346.95,330.32,-233.29,-105.82,-122.78,100.02,180.61,222.51,0,122.49,0.32
rw_cut_5_p1_4f_opt_disp_struct_5.xyz,Nucleus 25N :,2.178128,-3.285298,1.475943,175.69,116.76,176.29,234.01,321.07,340.99,334.85,-210.45,-157.92,-101.48,116.76,176.29,234.01,0,117.25,0.02
rw_cut_5_p1_4f_opt_disp_struct_5.xyz,Nucleus 27N :,1.685657,-4.858299,3.393105,174.58,115.23,212.78,195.72,295.96,337.43,325.59,-211.53,-98.83,-124.89,115.23,195.72,212.78,0,97.55,0.65
rw_cut_5_p1_4f_opt_disp_struct_5.xyz,Nucleus 10F :,1.474225,-5.590516,4.049754,324.05,442.44,252.26,277.45,479.72,457.02,463.75,-20.86,-214.7,-192.77,252.26,277.45,442.44,0,190.18,-0.74
rw_cut_5_p1_4f_opt_disp_struct_5.xyz,Nucleus 12F :,1.094799,-4.037039,3.377011,345.34,448.23,287.84,299.95,481.04,472.01,456.51,-24.27,-192.06,-157.2,287.84,299.95,448.23,0,160.39,-0.85
rw_cut_5_p1_4f_opt_disp_struct_5.xyz,Nucleus 14F :,4.502919,-7.608637,3.505183,343.83,452.71,294.19,284.59,457.77,473.14,483.79,-26.95,-164.99,-191.26,284.59,294.19,452.71,0,168.12,-0.89
rw_cut_5_p1_4f_opt_disp_struct_5.xyz,Nucleus 16F :,3.690887,-3.987966,1.050116,341.62,445.83,292.69,286.33,455.54,488.72,476.44,-41.5,-167.83,-186.52,286.33,292.69,445.83,0,159.5,-0.92
rw_cut_5_p1_4f_opt_disp_struct_6.xyz,Nucleus 1H :,0.979309,-0.025991,-1.331735,29.03,35.39,23.38,28.31,41.1,25.59,31.16,-6.75,-0.67,-3.34,23.38,28.31,35.39,0,12.01,-0.18
rw_cut_5_p1_4f_opt_disp_struct_6.xyz,Nucleus 2H :,1.792354,0.5849,-1.729245,28.99,24.1,28.18,34.68,47.31,28.47,26.26,-12.83,-4.15,1.89,24.1,28.18,34.68,0,10.58,-0.23
rw_cut_5_p1_4f_opt_disp_struct_6.xyz,Nucleus 6H :,1.143633,-1.060252,-1.651975,23.55,15.25,25.08,30.31,51.93,10.32,29.43,-22.17,-4.22,5.35,15.25,25.08,30.31,0,15.06,0.3
rw_cut_5_p1_4f_opt_disp_struct_6.xyz,Nucleus 17H :,0.907439,0.093305,0.148985,24.05,20.39,25.41,26.36,45.23,26.62,31.96,-19.81,-6.1,-5.74,20.39,25.41,26.36,0,5.97,0.68
rw_cut_5_p1_4f_opt_disp_struct_6.xyz,Nucleus 18H :,1.695519,0.901917,0.94573,28.61,35.08,27.04,23.71,42.61,27.71,31.59,-0.83,-8.25,-7.0,23.71,27.04,35.08,0,11.37,-0.41
rw_cut_5_p1_4f_opt_disp_struct_6.xyz,Nucleus 20H :,1.318109,0.729764,2.250337,28.61,34.43,24.32,27.07,-7.09,17.86,39.05,33.48,7.92,-5.41,24.32,27.07,34.43,0,10.11,-0.46
rw_cut_5_p1_4f_opt_disp_struct_6.xyz,Nucleus 21H :,1.693294,1.225437,3.04248,28.59,35.2,26.48,24.09,-5.69,17.63,40.07,32.69,7.18,-6.1,24.09,26.48,35.2,0,11.11,-0.57
rw_cut_5_p1_4f_opt_disp_struct_6.xyz,Nucleus 23H :,0.289853,-0.178539,2.323195,27.03,18.59,34.09,28.41,49.55,9.94,29.07,-15.71,9.38,-1.15,18.59,28.41,34.09,0,15.5,0.27
rw_cut_5_p1_4f_opt_disp_struct_6.xyz,Nucleus 26H :,0.005401,-0.596414,1.020587,27.52,39.15,23.81,19.59,24.95,64.7,50.56,-44.96,-11.68,-1.03,19.59,23.81,39.15,0,19.56,-0.57
rw_cut_5_p1_4f_opt_disp_struct_6.xyz,Nucleus 28H :,-1.029464,-1.538095,0.837311,26.67,19.59,26.67,33.75,-0.62,24.91,54.64,20.32,1.73,-20.96,19.59,26.67,33.75,0,14.16,0.0
rw_cut_5_p1_4f_opt_disp_struct_6.xyz,Nucleus 29H :,-1.343296,-1.969362,-0.393388,27.05,37.43,19.63,24.08,27.86,45.19,47.42,-27.52,-3.01,-8.8,19.63,24.08,37.43,0,17.8,-0.5
rw_cut_5_p1_4f_opt_disp_struct_6.xyz,Nucleus 30H :,-1.732136,-2.025927,1.939893,28.23,35.3,25.9,23.49,-19.17,38.68,12.94,42.77,-3.42,12.89,23.49,25.9,35.3,0,11.81,-0.59
rw_cut_5_p1_4f_opt_disp_struct_6.xyz,Nucleus 31H :,-2.713321,-2.922319,1.75692,27.39,34.67,27.02,20.49,50.83,29.15,35.4,-23.05,-8.45,-1.69,20.49,27.02,34.67,0,14.18,-0.08
rw_cut_5_p1_4f_opt_disp_struct_6.xyz,Nucleus 0C :,-1.425723,-1.593336,3.220609,171.46,160.72,166.9,186.77,259.87,236.36,239.17,-81.2,-73.28,-66.52,160.72,166.9,186.77,0,26.05,-0.53
rw_cut_5_p1_4f_opt_disp_struct_6.xyz,Nucleus 3C :,-2.111676,-2.073224,4.268667,61.07,147.4,53.28,-17.48,240.16,275.62,263.71,-92.82,-222.15,-281.33,-17.48,53.28,147.4,0,164.88,-0.14
rw_cut_5_p1_4f_opt_disp_struct_6.xyz,Nucleus 4C :,-0.411257,-0.663313,3.430541,52.42,-31.56,127.53,61.28,275.56,259.46,254.38,-294.46,-129.62,-208.07,-31.56,61.28,127.53,0,159.09,0.17
rw_cut_5_p1_4f_opt_disp_struct_6.xyz,Nucleus 7C :,-0.111698,-0.240557,4.665821,56.78,138.73,3.95,27.65,276.43,260.79,265.81,-122.35,-272.46,-237.9,3.95,27.65,138.73,0,134.78,-0.65
rw_cut_5_p1_4f_opt_disp_struct_6.xyz,Nucleus 8C :,2.479643,1.59103,0.669473,63.34,159.1,27.7,3.22,235.71,274.26,260.8,-77.36,-235.42,-267.98,3.22,27.7,159.1,0,155.88,-0.69
rw_cut_5_p1_4f_opt_disp_struct_6.xyz,Nucleus 9C :,0.048429,0.305341,-1.803042,29.92,83.69,20.49,-14.43,237.97,270.81,274.0,-154.77,-249.89,-288.37,-14.43,20.49,83.69,0,98.12,-0.29
rw_cut_5_p1_4f_opt_disp_struct_6.xyz,Nucleus 11C :,3.748921,-7.218641,3.632911,37.87,94.9,21.12,-2.41,239.2,264.37,275.58,-144.69,-243.75,-277.12,-2.41,21.12,94.9,0,97.31,-0.52
rw_cut_5_p1_4f_opt_disp_struct_6.xyz,Nucleus 13C :,3.726096,-6.810098,4.648217,37.15,94.82,16.54,0.1,237.23,262.96,275.14,-142.44,-250.94,-270.49,0.1,16.54,94.82,0,94.72,-0.65
rw_cut_5_p1_4f_opt_disp_struct_6.xyz,Nucleus 15C :,2.898933,-7.894487,3.481095,38.84,90.0,22.69,3.82,233.45,274.23,262.43,-143.88,-250.82,-258.91,3.82,22.69,90.0,0,86.18,-0.56
rw_cut_5_p1_4f_opt_disp_struct_6.xyz,Nucleus 19C :,3.772336,-6.141451,2.646712,155.2,130.53,146.36,188.72,194.43,211.14,269.57,-48.23,-85.41,-75.89,130.53,146.36,188.72,0,58.19,-0.46
rw_cut_5_p1_4f_opt_disp_struct_6.xyz,Nucleus 24C :,4.400246,-6.24516,1.866063,21.51,115.25,-15.15,-35.56,237.8,269.12,264.54,-122.67,-281.15,-303.09,-35.56,-15.15,115.25,0,150.81,-0.73
rw_cut_5_p1_4f_opt_disp_struct_6.xyz,Nucleus 5N :,2.874559,-5.147814,2.568634,121.12,47.98,184.73,130.64,293.02,338.69,330.68,-109.09,-284.97,-204.98,47.98,130.64,184.73,0,136.75,0.21
rw_cut_5_p1_4f_opt_disp_struct_6.xyz,Nucleus 22N :,3.009153,-4.227052,1.61386,167.51,99.71,222.13,180.7,286.06,347.24,330.32,-233.96,-104.08,-123.04,99.71,180.7,222.13,0,122.42,0.32
rw_cut_5_p1_4f_opt_disp_struct_6.xyz,Nucleus 25N :,2.343563,-3.47125,1.49947,175.66,116.65,176.24,234.1,321.37,342.0,335.09,-210.71,-159.33,-101.43,116.65,176.24,234.1,0,117.45,0.01
rw_cut_5_p1_4f_opt_disp_struct_6.xyz,Nucleus 27N :,1.851092,-5.044251,3.416632,174.58,115.08,213.0,195.67,296.8,338.05,325.37,-211.51,-99.68,-125.28,115.08,195.67,213.0,0,97.92,0.65
rw_cut_5_p1_4f_opt_disp_struct_6.xyz,Nucleus 10F :,1.639659,-5.776468,4.073281,324.7,442.64,253.34,278.12,479.93,457.32,463.73,-20.68,-213.66,-192.53,253.34,278.12,442.64,0,189.3,-0.74
rw_cut_5_p1_4f_opt_disp_struct_6.xyz,Nucleus 12F :,1.260234,-4.22299,3.400537,346.01,448.54,288.49,301.01,480.97,471.84,456.78,-23.7,-191.5,-156.34,288.49,301.01,448.54,0,160.05,-0.84
rw_cut_5_p1_4f_opt_disp_struct_6.xyz,Nucleus 14F :,4.668353,-7.794588,3.52871,344.0,452.92,294.24,284.83,458.19,473.55,483.0,-26.34,-165.27,-191.14,284.83,294.24,452.92,0,168.09,-0.89
rw_cut_5_p1_4f_opt_disp_struct_6.xyz,Nucleus 16F :,3.856322,-4.173918,1.073643,342.27,446.08,293.45,287.27,456.0,487.52,476.9,-40.17,-167.2,-186.27,287.27,293.45,446.08,0,158.81,-0.92
rw_cut_5_p1_4f_opt_disp_struct_7.xyz,Nucleus 1H :,0.979309,-0.025991,-1.331735,29.04,35.38,23.39,28.35,41.07,25.62,31.08,-6.73,-0.67,-3.24,23.39,28.35,35.38,0,11.99,-0.17
rw_cut_5_p1_4f_opt_disp_struct_7.xyz,Nucleus 2H :,1.792354,0.5849,-1.729245,28.98,24.09,28.14,34.71,47.19,28.4,26.22,-12.7,-4.06,1.9,24.09,28.14,34.71,0,10.62,-0.24
rw_cut_5_p1_4f_opt_disp_struct_7.xyz,Nucleus 6H :,1.143633,-1.060252,-1.651975,23.58,15.28,25.11,30.34,51.79,10.37,29.54,-21.98,-4.29,5.29,15.28,25.11,30.34,0,15.06,0.3
rw_cut_5_p1_4f_opt_disp_struct_7.xyz,Nucleus 17H :,0.907439,0.093305,0.148985,24.08,20.43,25.41,26.39,45.21,26.69,31.9,-19.78,-6.09,-5.7,20.43,25.41,26.39,0,5.96,0.67
rw_cut_5_p1_4f_opt_disp_struct_7.xyz,Nucleus 18H :,1.695519,0.901917,0.94573,28.62,35.06,27.06,23.73,42.55,27.64,31.62,-0.79,-8.29,-6.89,23.73,27.06,35.06,0,11.33,-0.41
rw_cut_5_p1_4f_opt_disp_struct_7.xyz,Nucleus 20H :,1.318109,0.729764,2.250337,28.59,34.41,24.33,27.03,-7.92,17.79,39.08,34.36,7.96,-5.5,24.33,27.03,34.41,0,10.08,-0.46
rw_cut_5_p1_4f_opt_disp_struct_7.xyz,Nucleus 21H :,1.693294,1.225437,3.04248,28.58,35.18,26.46,24.1,-6.6,17.58,40.14,33.64,7.21,-6.23,24.1,26.46,35.18,0,11.08,-0.57
rw_cut_5_p1_4f_opt_disp_struct_7.xyz,Nucleus 23H :,0.289853,-0.178539,2.323195,27.0,18.6,34.05,28.35,49.76,8.65,28.89,-15.96,10.65,-0.99,18.6,28.35,34.05,0,15.45,0.26
rw_cut_5_p1_4f_opt_disp_struct_7.xyz,Nucleus 26H :,0.005401,-0.596414,1.020587,27.37,38.58,23.84,19.69,25.56,66.82,49.78,-47.01,-11.48,-1.56,19.69,23.84,38.58,0,18.89,-0.56
rw_cut_5_p1_4f_opt_disp_struct_7.xyz,Nucleus 28H :,-1.029464,-1.538095,0.837311,26.64,19.61,26.59,33.72,-0.68,24.95,55.06,20.41,1.59,-21.41,19.61,26.59,33.72,0,14.11,-0.01
rw_cut_5_p1_4f_opt_disp_struct_7.xyz,Nucleus 29H :,-1.343296,-1.969362,-0.393388,26.94,37.02,19.7,24.11,28.43,44.82,49.49,-29.57,-3.66,-8.69,19.7,24.11,37.02,0,17.32,-0.49
rw_cut_5_p1_4f_opt_disp_struct_7.xyz,Nucleus 30H :,-1.732136,-2.025927,1.939893,28.22,35.25,25.91,23.5,-20.53,38.62,12.64,44.14,-3.41,13.18,23.5,25.91,35.25,0,11.75,-0.59
rw_cut_5_p1_4f_opt_disp_struct_7.xyz,Nucleus 31H :,-2.713321,-2.922319,1.75692,27.33,34.66,26.81,20.52,51.11,28.83,35.61,-23.34,-8.64,-1.58,20.52,26.81,34.66,0,14.14,-0.11
rw_cut_5_p1_4f_opt_disp_struct_7.xyz,Nucleus 0C :,-1.425723,-1.593336,3.220609,171.44,160.73,166.82,186.78,259.71,236.37,239.0,-80.94,-73.34,-66.48,160.73,166.82,186.78,0,26.05,-0.53
rw_cut_5_p1_4f_opt_disp_struct_7.xyz,Nucleus 3C :,-2.111676,-2.073224,4.268667,61.06,147.41,53.31,-17.53,240.21,275.35,263.68,-92.86,-221.86,-281.33,-17.53,53.31,147.41,0,164.94,-0.14
rw_cut_5_p1_4f_opt_disp_struct_7.xyz,Nucleus 4C :,-0.411257,-0.663313,3.430541,52.7,-31.19,127.47,61.81,275.36,259.44,254.55,-294.12,-129.74,-207.38,-31.19,61.81,127.47,0,158.66,0.17
rw_cut_5_p1_4f_opt_disp_struct_7.xyz,Nucleus 7C :,-0.111698,-0.240557,4.665821,56.71,138.66,3.76,27.71,276.23,260.79,265.83,-122.44,-272.44,-237.84,3.76,27.71,138.66,0,134.9,-0.64
rw_cut_5_p1_4f_opt_disp_struct_7.xyz,Nucleus 8C :,2.479643,1.59103,0.669473,63.22,159.04,27.48,3.14,235.7,273.74,261.07,-77.38,-235.86,-267.61,3.14,27.48,159.04,0,155.9,-0.69
rw_cut_5_p1_4f_opt_disp_struct_7.xyz,Nucleus 9C :,0.048429,0.305341,-1.803042,29.85,83.58,20.48,-14.51,237.77,270.57,273.5,-154.61,-249.72,-287.97,-14.51,20.48,83.58,0,98.09,-0.29
rw_cut_5_p1_4f_opt_disp_struct_7.xyz,Nucleus 11C :,3.914356,-7.404593,3.656438,37.81,94.8,21.04,-2.42,239.27,264.33,275.29,-144.81,-243.79,-276.87,-2.42,21.04,94.8,0,97.22,-0.52
rw_cut_5_p1_4f_opt_disp_struct_7.xyz,Nucleus 13C :,3.891531,-6.99605,4.671744,37.01,94.73,16.41,-0.11,237.18,263.13,275.01,-142.47,-251.22,-270.6,-0.11,16.41,94.73,0,94.84,-0.65
rw_cut_5_p1_4f_opt_disp_struct_7.xyz,Nucleus 15C :,3.064368,-8.080438,3.504622,38.78,89.92,22.68,3.75,233.33,273.99,262.49,-143.77,-250.69,-259.0,3.75,22.68,89.92,0,86.17,-0.56
rw_cut_5_p1_4f_opt_disp_struct_7.xyz,Nucleus 19C :,3.93777,-6.327402,2.670239,155.19,130.5,146.37,188.69,193.42,210.69,270.15,-47.21,-75.96,-85.52,130.5,146.37,188.69,0,58.19,-0.45
rw_cut_5_p1_4f_opt_disp_struct_7.xyz,Nucleus 24C :,4.565681,-6.431111,1.88959,21.47,115.28,-15.2,-35.67,238.25,269.67,264.23,-123.09,-280.97,-303.67,-35.67,-15.2,115.28,0,150.95,-0.73
rw_cut_5_p1_4f_opt_disp_struct_7.xyz,Nucleus 5N :,3.039994,-5.333765,2.59216,121.46,48.56,184.69,131.14,293.25,338.59,330.65,-109.25,-204.55,-284.29,48.56,131.14,184.69,0,136.13,0.21
rw_cut_5_p1_4f_opt_disp_struct_7.xyz,Nucleus 22N :,3.174587,-4.413004,1.637386,167.36,99.47,221.82,180.78,284.39,347.54,330.32,-234.56,-102.37,-123.25,99.47,180.78,221.82,0,122.35,0.33
rw_cut_5_p1_4f_opt_disp_struct_7.xyz,Nucleus 25N :,2.508997,-3.657201,1.522997,175.62,116.53,176.21,234.13,321.51,342.95,335.19,-210.91,-160.49,-101.38,116.53,176.21,234.13,0,117.6,0.02
rw_cut_5_p1_4f_opt_disp_struct_7.xyz,Nucleus 27N :,2.016526,-5.230202,3.440159,174.58,114.95,213.15,195.65,297.66,338.57,325.16,-211.47,-100.54,-125.64,114.95,195.65,213.15,0,98.2,0.64
rw_cut_5_p1_4f_opt_disp_struct_7.xyz,Nucleus 10F :,1.805094,-5.962419,4.096808,325.24,442.79,254.23,278.71,480.11,457.58,463.7,-20.55,-212.77,-192.35,254.23,278.71,442.79,0,188.56,-0.74
rw_cut_5_p1_4f_opt_disp_struct_7.xyz,Nucleus 12F :,1.425668,-4.408942,3.424064,346.56,448.78,289.05,301.85,480.87,471.71,457.01,-23.24,-190.99,-155.68,289.05,301.85,448.78,0,159.73,-0.84
rw_cut_5_p1_4f_opt_disp_struct_7.xyz,Nucleus 14F :,4.833787,-7.98054,3.552237,344.16,453.08,294.32,285.07,458.67,474.01,482.13,-25.81,-165.51,-191.01,285.07,294.32,453.08,0,168.01,-0.89
rw_cut_5_p1_4f_opt_disp_struct_7.xyz,Nucleus 16F :,4.021756,-4.359869,1.09717,342.8,446.28,294.09,288.03,456.49,486.31,477.34,-38.91,-166.77,-186.07,288.03,294.09,446.28,0,158.25,-0.92
rw_cut_5_p1_4f_opt_disp_struct_8.xyz,Nucleus 1H :,0.979309,-0.025991,-1.331735,29.06,35.37,23.41,28.39,41.03,25.65,31.01,-6.71,-0.66,-3.16,23.41,28.39,35.37,0,11.96,-0.17
rw_cut_5_p1_4f_opt_disp_struct_8.xyz,Nucleus 2H :,1.792354,0.5849,-1.729245,28.98,24.08,28.12,34.73,47.07,28.32,26.17,-12.59,-3.96,1.91,24.08,28.12,34.73,0,10.65,-0.24
rw_cut_5_p1_4f_opt_disp_struct_8.xyz,Nucleus 6H :,1.143633,-1.060252,-1.651975,23.6,15.3,25.14,30.37,51.66,10.42,29.65,-21.81,-4.35,5.24,15.3,25.14,30.37,0,15.07,0.31
rw_cut_5_p1_4f_opt_disp_struct_8.xyz,Nucleus 17H :,0.907439,0.093305,0.148985,24.09,20.45,25.42,26.41,45.18,26.74,31.86,-19.74,-6.1,-5.65,20.45,25.42,26.41,0,5.96,0.67
rw_cut_5_p1_4f_opt_disp_struct_8.xyz,Nucleus 18H :,1.695519,0.901917,0.94573,28.63,35.05,27.08,23.75,42.48,27.58,31.66,-0.73,-8.33,-6.79,23.75,27.08,35.05,0,11.3,-0.41
rw_cut_5_p1_4f_opt_disp_struct_8.xyz,Nucleus 20H :,1.318109,0.729764,2.250337,28.57,34.4,24.33,26.99,-8.76,17.72,39.11,35.24,7.99,-5.58,24.33,26.99,34.4,0,10.07,-0.47
rw_cut_5_p1_4f_opt_disp_struct_8.xyz,Nucleus 21H :,1.693294,1.225437,3.04248,28.57,35.17,26.44,24.1,-7.51,17.52,40.22,34.59,7.25,-6.36,24.1,26.44,35.17,0,11.07,-0.58
rw_cut_5_p1_4f_opt_disp_struct_8.xyz,Nucleus 23H :,0.289853,-0.178539,2.323195,26.97,18.61,34.01,28.3,49.96,7.36,28.71,-16.2,11.93,-0.83,18.61,28.3,34.01,0,15.4,0.26
rw_cut_5_p1_4f_opt_disp_struct_8.xyz,Nucleus 26H :,0.005401,-0.596414,1.020587,27.25,38.1,23.87,19.78,26.12,68.87,49.08,-48.99,-11.31,-2.03,19.78,23.87,38.1,0,18.32,-0.55
rw_cut_5_p1_4f_opt_disp_struct_8.xyz,Nucleus 28H :,-1.029464,-1.538095,0.837311,26.61,19.64,26.51,33.69,-0.7,24.99,55.47,20.46,1.47,-21.85,19.64,26.51,33.69,0,14.05,-0.02
rw_cut_5_p1_4f_opt_disp_struct_8.xyz,Nucleus 29H :,-1.343296,-1.969362,-0.393388,26.86,36.68,19.77,24.14,28.94,44.5,51.51,-31.53,-4.24,-8.59,19.77,24.14,36.68,0,16.91,-0.48
rw_cut_5_p1_4f_opt_disp_struct_8.xyz,Nucleus 30H :,-1.732136,-2.025927,1.939893,28.2,35.2,25.91,23.5,-21.88,38.57,12.35,45.49,-3.39,13.48,23.5,25.91,35.2,0,11.7,-0.59
rw_cut_5_p1_4f_opt_disp_struct_8.xyz,Nucleus 31H :,-2.713321,-2.922319,1.75692,27.28,34.66,26.62,20.55,51.39,28.55,35.81,-23.64,-8.81,-1.47,20.55,26.62,34.66,0,14.11,-0.14
rw_cut_5_p1_4f_opt_disp_struct_8.xyz,Nucleus 0C :,-1.425723,-1.593336,3.220609,171.42,186.79,160.74,166.74,259.57,236.37,238.83,-80.69,-73.37,-66.44,160.74,166.74,186.79,0,26.05,-0.54
rw_cut_5_p1_4f_opt_disp_struct_8.xyz,Nucleus 3C :,-2.111676,-2.073224,4.268667,61.07,147.42,53.35,-17.56,240.24,275.04,263.68,-92.89,-221.53,-281.34,-17.56,53.35,147.42,0,164.98,-0.14
rw_cut_5_p1_4f_opt_disp_struct_8.xyz,Nucleus 4C :,-0.411257,-0.663313,3.430541,52.93,-30.88,127.41,62.27,275.19,259.3,254.81,-293.86,-129.85,-206.79,-30.88,62.27,127.41,0,158.29,0.18
rw_cut_5_p1_4f_opt_disp_struct_8.xyz,Nucleus 7C :,-0.111698,-0.240557,4.665821,56.65,138.59,3.6,27.75,275.99,260.84,265.82,-122.51,-272.36,-237.83,3.6,27.75,138.59,0,134.99,-0.64
rw_cut_5_p1_4f_opt_disp_struct_8.xyz,Nucleus 8C :,2.479643,1.59103,0.669473,63.14,159.0,27.31,3.1,235.77,273.09,261.28,-77.43,-236.08,-267.22,3.1,27.31,159.0,0,155.9,-0.69
rw_cut_5_p1_4f_opt_disp_struct_8.xyz,Nucleus 9C :,0.048429,0.305341,-1.803042,29.79,83.48,20.48,-14.58,237.62,270.31,273.03,-154.48,-249.53,-287.58,-14.58,20.48,83.48,0,98.06,-0.28
rw_cut_5_p1_4f_opt_disp_struct_8.xyz,Nucleus 11C :,4.07979,-7.590544,3.679965,37.75,94.72,20.98,-2.44,239.35,264.28,275.01,-144.93,-243.82,-276.63,-2.44,20.98,94.72,0,97.16,-0.52
rw_cut_5_p1_4f_opt_disp_struct_8.xyz,Nucleus 13C :,4.056965,-7.182001,4.695271,36.9,94.65,16.31,-0.27,237.18,263.27,274.81,-142.54,-251.41,-270.62,-0.27,16.31,94.65,0,94.92,-0.65
rw_cut_5_p1_4f_opt_disp_struct_8.xyz,Nucleus 15C :,3.229802,-8.266389,3.528149,38.73,89.84,22.67,3.69,233.24,273.74,262.57,-143.69,-250.55,-259.1,3.69,22.67,89.84,0,86.15,-0.56
rw_cut_5_p1_4f_opt_disp_struct_8.xyz,Nucleus 19C :,4.103204,-6.513354,2.693766,155.17,130.48,146.38,188.65,192.42,210.24,270.72,-46.21,-75.99,-85.67,130.48,146.38,188.65,0,58.17,-0.45
rw_cut_5_p1_4f_opt_disp_struct_8.xyz,Nucleus 24C :,4.731115,-6.617063,1.913117,21.43,115.31,-15.26,-35.75,238.64,270.18,263.95,-123.46,-280.84,-304.19,-35.75,-15.26,115.31,0,151.06,-0.73
rw_cut_5_p1_4f_opt_disp_struct_8.xyz,Nucleus 5N :,3.205428,-5.519717,2.615687,121.75,49.03,184.65,131.56,293.45,338.49,330.6,-109.37,-204.16,-283.78,49.03,131.56,184.65,0,135.62,0.22
rw_cut_5_p1_4f_opt_disp_struct_8.xyz,Nucleus 22N :,3.340022,-4.598955,1.660913,167.23,99.28,221.56,180.84,282.75,347.87,330.31,-235.11,-100.7,-123.43,99.28,180.84,221.56,0,122.28,0.33
rw_cut_5_p1_4f_opt_disp_struct_8.xyz,Nucleus 25N :,2.674432,-3.843153,1.546523,175.58,116.42,176.19,234.13,321.56,343.86,335.24,-211.07,-161.51,-101.33,116.42,176.19,234.13,0,117.71,0.02
rw_cut_5_p1_4f_opt_disp_struct_8.xyz,Nucleus 27N :,2.181961,-5.416154,3.463685,174.58,114.83,213.26,195.64,298.57,339.01,324.97,-211.4,-101.45,-125.97,114.83,195.64,213.26,0,98.43,0.64
rw_cut_5_p1_4f_opt_disp_struct_8.xyz,Nucleus 10F :,1.970528,-6.148371,4.120335,325.7,442.92,254.96,279.23,480.26,457.79,463.68,-20.44,-211.98,-192.2,254.96,279.23,442.92,0,187.96,-0.74
rw_cut_5_p1_4f_opt_disp_struct_8.xyz,Nucleus 12F :,1.591102,-4.594893,3.447591,347.01,448.97,289.53,302.53,480.78,471.62,457.2,-22.87,-190.53,-155.17,289.53,302.53,448.97,0,159.44,-0.84
rw_cut_5_p1_4f_opt_disp_struct_8.xyz,Nucleus 14F :,4.999222,-8.166491,3.575764,344.32,453.22,294.42,285.31,459.16,474.51,481.23,-25.34,-165.72,-190.89,285.31,294.42,453.22,0,167.91,-0.89
rw_cut_5_p1_4f_opt_disp_struct_8.xyz,Nucleus 16F :,4.187191,-4.545821,1.120697,343.25,446.44,294.64,288.67,456.96,485.14,477.75,-37.73,-166.46,-185.91,288.67,294.64,446.44,0,157.77,-0.92
rw_cut_5_p1_4f_opt_disp_struct_9.xyz,Nucleus 1H :,0.979309,-0.025991,-1.331735,29.07,35.37,23.42,28.42,41.0,25.67,30.95,-6.68,-0.65,-3.09,23.42,28.42,35.37,0,11.95,-0.16
rw_cut_5_p1_4f_opt_disp_struct_9.xyz,Nucleus 2H :,1.792354,0.5849,-1.729245,28.97,24.06,28.09,34.75,46.97,28.23,26.13,-12.49,-3.86,1.92,24.06,28.09,34.75,0,10.69,-0.25
rw_cut_5_p1_4f_opt_disp_struct_9.xyz,Nucleus 6H :,1.143633,-1.060252,-1.651975,23.62,15.31,25.17,30.39,51.54,10.45,29.74,-21.64,-4.41,5.2,15.31,25.17,30.39,0,15.08,0.31
rw_cut_5_p1_4f_opt_disp_struct_9.xyz,Nucleus 17H :,0.907439,0.093305,0.148985,24.11,20.47,25.43,26.44,45.15,26.77,31.82,-19.69,-6.11,-5.6,20.47,25.43,26.44,0,5.97,0.66
rw_cut_5_p1_4f_opt_disp_struct_9.xyz,Nucleus 18H :,1.695519,0.901917,0.94573,28.63,35.04,27.09,23.77,42.43,27.51,31.71,-0.68,-8.37,-6.7,23.77,27.09,35.04,0,11.27,-0.41
rw_cut_5_p1_4f_opt_disp_struct_9.xyz,Nucleus 20H :,1.318109,0.729764,2.250337,28.56,34.39,24.34,26.96,-9.59,17.65,39.15,36.12,8.03,-5.67,24.34,26.96,34.39,0,10.05,-0.48
rw_cut_5_p1_4f_opt_disp_struct_9.xyz,Nucleus 21H :,1.693294,1.225437,3.04248,28.56,35.16,26.42,24.1,-8.42,17.46,40.3,35.54,7.29,-6.49,24.1,26.42,35.16,0,11.06,-0.58
rw_cut_5_p1_4f_opt_disp_struct_9.xyz,Nucleus 23H :,0.289853,-0.178539,2.323195,26.95,18.62,33.99,28.25,6.08,50.16,28.54,-16.44,13.2,-0.68,18.62,28.25,33.99,0,15.37,0.25
rw_cut_5_p1_4f_opt_disp_struct_9.xyz,Nucleus 26H :,0.005401,-0.596414,1.020587,27.15,37.69,23.89,19.86,70.85,26.63,48.47,-50.9,-11.16,-2.45,19.86,23.89,37.69,0,17.83,-0.55
rw_cut_5_p1_4f_opt_disp_struct_9.xyz,Nucleus 28H :,-1.029464,-1.538095,0.837311,26.59,19.66,26.43,33.67,-0.71,25.02,55.89,20.48,1.36,-22.29,19.66,26.43,33.67,0,14.01,-0.03
rw_cut_5_p1_4f_opt_disp_struct_9.xyz,Nucleus 29H :,-1.343296,-1.969362,-0.393388,26.79,36.38,19.83,24.16,29.39,44.22,53.44,-33.41,-4.76,-8.52,19.83,24.16,36.38,0,16.55,-0.48
rw_cut_5_p1_4f_opt_disp_struct_9.xyz,Nucleus 30H :,-1.732136,-2.025927,1.939893,28.19,35.16,25.91,23.51,-23.22,38.51,12.06,46.84,-3.39,13.77,23.51,25.91,35.16,0,11.65,-0.59
rw_cut_5_p1_4f_opt_disp_struct_9.xyz,Nucleus 31H :,-2.713321,-2.922319,1.75692,27.23,34.65,26.46,20.57,51.68,28.29,35.99,-23.94,-8.96,-1.37,20.57,26.46,34.65,0,14.08,-0.16
rw_cut_5_p1_4f_opt_disp_struct_9.xyz,Nucleus 0C :,-1.425723,-1.593336,3.220609,171.41,186.8,160.75,166.67,259.45,236.37,238.67,-80.47,-73.39,-66.41,160.75,166.67,186.8,0,26.05,-0.55
rw_cut_5_p1_4f_opt_disp_struct_9.xyz,Nucleus 3C :,-2.111676,-2.073224,4.268667,61.07,147.42,53.38,-17.59,240.25,274.7,263.7,-92.9,-221.19,-281.35,-17.59,53.38,147.42,0,165.01,-0.14
rw_cut_5_p1_4f_opt_disp_struct_9.xyz,Nucleus 4C :,-0.411257,-0.663313,3.430541,53.13,-30.62,127.36,62.66,275.03,259.12,255.12,-293.66,-129.94,-206.26,-30.62,62.66,127.36,0,157.98,0.18
rw_cut_5_p1_4f_opt_disp_struct_9.xyz,Nucleus 7C :,-0.111698,-0.240557,4.665821,56.6,138.54,3.46,27.79,275.75,260.88,265.8,-122.56,-272.24,-237.84,3.46,27.79,138.54,0,135.08,-0.64
rw_cut_5_p1_4f_opt_disp_struct_9.xyz,Nucleus 8C :,2.479643,1.59103,0.669473,63.08,158.96,27.19,3.08,235.86,272.42,261.44,-77.49,-236.16,-266.84,3.08,27.19,158.96,0,155.88,-0.69
rw_cut_5_p1_4f_opt_disp_struct_9.xyz,Nucleus 9C :,0.048429,0.305341,-1.803042,29.74,83.4,20.47,-14.64,237.51,270.02,272.59,-154.39,-249.31,-287.2,-14.64,20.47,83.4,0,98.04,-0.28
rw_cut_5_p1_4f_opt_disp_struct_9.xyz,Nucleus 11C :,4.245224,-7.776496,3.703492,37.7,94.65,20.92,-2.46,239.43,264.23,274.69,-145.05,-243.82,-276.37,-2.46,20.92,94.65,0,97.11,-0.52
rw_cut_5_p1_4f_opt_disp_struct_9.xyz,Nucleus 13C :,4.2224,-7.367952,4.718798,36.8,94.58,16.23,-0.4,237.19,263.37,274.57,-142.61,-251.55,-270.56,-0.4,16.23,94.58,0,94.98,-0.65
rw_cut_5_p1_4f_opt_disp_struct_9.xyz,Nucleus 15C :,3.395237,-8.452341,3.551676,38.7,89.78,22.66,3.65,233.19,273.5,262.65,-143.66,-250.4,-259.2,3.65,22.66,89.78,0,86.13,-0.56
rw_cut_5_p1_4f_opt_disp_struct_9.xyz,Nucleus 19C :,4.268639,-6.699305,2.717293,155.16,130.45,146.39,188.63,191.43,209.8,271.28,-45.21,-75.96,-85.87,130.45,146.39,188.63,0,58.18,-0.45
rw_cut_5_p1_4f_opt_disp_struct_9.xyz,Nucleus 24C :,4.89655,-6.803014,1.936643,21.4,115.34,-15.33,-35.81,238.99,270.67,263.7,-123.78,-280.73,-304.66,-35.81,-15.33,115.34,0,151.15,-0.73
rw_cut_5_p1_4f_opt_disp_struct_9.xyz,Nucleus 5N :,3.370863,-5.705668,2.639214,121.98,49.41,184.61,131.91,293.59,338.41,330.56,-109.44,-203.81,-283.38,49.41,131.91,184.61,0,135.2,0.22
rw_cut_5_p1_4f_opt_disp_struct_9.xyz,Nucleus 22N :,3.505456,-4.784907,1.68444,167.12,99.13,221.35,180.88,281.15,348.21,330.3,-235.65,-99.07,-123.58,99.13,180.88,221.35,0,122.22,0.34
rw_cut_5_p1_4f_opt_disp_struct_9.xyz,Nucleus 25N :,2.839866,-4.029104,1.57005,175.54,116.3,176.19,234.13,321.57,344.79,335.28,-211.21,-162.51,-101.3,116.3,176.19,234.13,0,117.83,0.02
rw_cut_5_p1_4f_opt_disp_struct_9.xyz,Nucleus 27N :,2.347395,-5.602105,3.487212,174.58,114.74,213.35,195.64,299.54,339.43,324.79,-211.33,-102.41,-126.31,114.74,195.64,213.35,0,98.61,0.64
rw_cut_5_p1_4f_opt_disp_struct_9.xyz,Nucleus 10F :,2.135963,-6.334322,4.143862,326.09,443.01,255.56,279.69,480.38,457.95,463.65,-20.36,-211.29,-192.08,255.56,279.69,443.01,0,187.45,-0.74
rw_cut_5_p1_4f_opt_disp_struct_9.xyz,Nucleus 12F :,1.756537,-4.780845,3.471118,347.38,449.13,289.94,303.06,480.69,471.55,457.37,-22.58,-190.11,-154.78,289.94,303.06,449.13,0,159.19,-0.84
rw_cut_5_p1_4f_opt_disp_struct_9.xyz,Nucleus 14F :,5.164656,-8.352443,3.599291,344.46,453.32,294.51,285.54,459.58,475.01,480.38,-24.91,-165.9,-190.78,285.54,294.51,453.32,0,167.78,-0.89
rw_cut_5_p1_4f_opt_disp_struct_9.xyz,Nucleus 16F :,4.352625,-4.731772,1.144223,343.63,446.57,295.11,289.21,457.38,484.1,478.11,-36.7,-166.25,-185.76,289.21,295.11,446.57,0,157.36,-0.93
rw_cut_5_p1_ch3_opt.xyz,Nucleus 1H :,1.014023,0.00841,-1.320169,28.84,35.4,23.06,28.06,40.42,26.42,32.06,-1.54,-6.6,-4.25,23.06,28.06,35.4,0,12.34,-0.19
rw_cut_5_p1_ch3_opt.xyz,Nucleus 2H :,1.825936,0.614139,-1.728393,29.22,34.99,24.26,28.41,49.62,29.83,26.37,1.93,-5.14,-14.96,24.26,28.41,34.99,0,10.73,-0.23
rw_cut_5_p1_ch3_opt.xyz,Nucleus 6H :,1.178602,-1.028335,-1.637929,23.47,15.59,24.26,30.55,52.46,28.63,14.51,-22.42,-4.54,1.76,15.59,24.26,30.55,0,14.96,0.16
rw_cut_5_p1_ch3_opt.xyz,Nucleus 10H :,0.944671,0.132099,0.158764,23.43,28.84,18.74,22.7,53.18,42.39,34.45,-6.03,-22.7,-31.0,18.74,22.7,28.84,0,10.1,-0.22
rw_cut_5_p1_ch3_opt.xyz,Nucleus 14H :,1.729457,0.951462,0.946233,23.74,27.37,23.78,20.07,12.16,31.33,46.22,-22.95,8.44,-3.99,20.07,23.78,27.37,0,7.3,0.02
rw_cut_5_p1_ch3_opt.xyz,Nucleus 16H :,1.355472,0.780761,2.251539,23.58,19.02,27.02,24.71,12.28,30.64,49.78,-25.48,-3.7,7.25,19.02,24.71,27.02,0,8.0,0.42
rw_cut_5_p1_ch3_opt.xyz,Nucleus 17H :,1.738617,1.287655,3.031704,23.77,19.97,24.98,26.36,44.87,27.57,33.48,-19.71,-7.17,-7.73,19.97,24.98,26.36,0,6.39,0.57
rw_cut_5_p1_ch3_opt.xyz,Nucleus 18H :,0.33399,-0.135347,2.338316,28.8,35.93,26.58,23.88,44.96,27.01,33.53,-0.23,-10.26,-8.62,23.88,26.58,35.93,0,12.05,-0.55
rw_cut_5_p1_ch3_opt.xyz,Nucleus 19H :,0.052322,-0.559436,1.040217,28.95,23.59,28.87,34.4,44.77,21.15,26.88,-11.52,2.35,3.22,23.59,28.87,34.4,0,10.81,-0.02
rw_cut_5_p1_ch3_opt.xyz,Nucleus 20H :,-0.97321,-1.511113,0.852551,28.34,35.11,26.12,23.78,40.68,13.06,25.98,11.75,-6.7,0.23,23.78,26.12,35.11,0,11.33,-0.59
rw_cut_5_p1_ch3_opt.xyz,Nucleus 21H :,-1.225032,-1.856712,-0.145811,28.93,34.28,24.47,28.03,43.43,11.95,21.53,-9.22,13.36,5.72,24.47,28.03,34.28,0,9.81,-0.28
rw_cut_5_p1_ch3_opt.xyz,Nucleus 23H :,-1.680584,-2.010442,1.959168,28.88,34.78,24.41,27.44,0.36,18.46,39.24,25.73,7.77,-4.93,24.41,27.44,34.78,0,10.37,-0.42
rw_cut_5_p1_ch3_opt.xyz,Nucleus 24H :,-2.770822,-3.025008,1.773721,28.87,35.49,26.92,24.2,1.99,18.01,40.28,24.74,7.21,-5.61,24.2,26.92,35.49,0,11.29,-0.52
rw_cut_5_p1_ch3_opt.xyz,Nucleus 26H :,-1.364477,-1.557955,3.244286,27.65,18.44,35.1,29.4,48.54,19.6,31.44,-13.55,0.26,-3.34,18.44,29.4,35.1,0,16.66,0.32
rw_cut_5_p1_ch3_opt.xyz,Nucleus 29H :,-1.936759,-1.920787,4.094506,27.17,48.38,14.03,19.1,12.41,60.68,42.47,8.23,-29.69,-12.58,14.03,19.1,48.38,0,34.35,-0.7
rw_cut_5_p1_ch3_opt.xyz,Nucleus 31H :,-0.354531,-0.614026,3.458123,27.35,20.19,27.91,33.96,2.06,25.03,53.32,-19.81,3.2,18.26,20.19,27.91,33.96,0,13.77,0.12
rw_cut_5_p1_ch3_opt.xyz,Nucleus 32H :,-0.127967,-0.257962,4.458005,26.04,46.91,17.32,13.88,52.28,15.85,27.68,2.36,-13.71,-6.35,13.88,17.32,46.91,0,33.03,-0.79
rw_cut_5_p1_ch3_opt.xyz,Nucleus 33H :,2.507273,1.646626,0.665813,28.52,35.94,26.06,23.56,-8.59,39.36,15.53,32.28,-3.46,10.45,23.56,26.06,35.94,0,12.38,-0.6
rw_cut_5_p1_ch3_opt.xyz,Nucleus 34H :,0.082672,0.339744,-1.793273,28.17,20.27,34.26,29.99,48.65,33.98,33.32,-20.74,-7.08,-3.61,20.27,29.99,34.26,0,13.99,0.39
rw_cut_5_p1_ch3_opt.xyz,Nucleus 0C :,-2.823152,-3.373133,0.74039,173.37,160.67,170.97,188.47,237.22,241.68,262.14,-82.57,-71.44,-66.91,160.67,170.97,188.47,0,27.8,-0.26
rw_cut_5_p1_ch3_opt.xyz,Nucleus 3C :,-3.746257,-2.599548,2.033614,61.98,148.78,47.88,-10.73,282.82,245.6,263.95,-97.37,-233.77,-275.29,-10.73,47.88,148.78,0,159.51,-0.27
rw_cut_5_p1_ch3_opt.xyz,Nucleus 4C :,-2.621697,-3.897154,2.419652,48.72,-39.55,128.75,56.96,278.64,257.12,258.47,-302.96,-129.76,-215.36,-39.55,56.96,128.75,0,168.3,0.15
rw_cut_5_p1_ch3_opt.xyz,Nucleus 7C :,2.596857,-5.920712,3.461411,42.89,144.61,-33.14,17.21,274.08,269.1,267.87,-124.64,-306.98,-250.75,-33.14,17.21,144.61,0,177.75,-0.43
rw_cut_5_p1_ch3_opt.xyz,Nucleus 8C :,2.576996,-5.514709,4.477933,50.47,170.03,0.42,-19.03,225.33,268.04,250.67,-55.71,-258.66,-278.26,-19.03,0.42,170.03,0,189.06,-0.79
rw_cut_5_p1_ch3_opt.xyz,Nucleus 9C :,1.744541,-6.594539,3.31153,52.9,160.85,41.25,-43.4,254.77,276.98,270.42,-94.46,-234.26,-314.76,-43.4,41.25,160.85,0,204.25,-0.17
rw_cut_5_p1_ch3_opt.xyz,Nucleus 11C :,2.620399,-4.841644,2.477271,39.58,175.3,-62.89,6.32,241.72,263.15,278.51,-67.79,-328.23,-268.62,-62.89,6.32,175.3,0,238.19,-0.42
rw_cut_5_p1_ch3_opt.xyz,Nucleus 12C :,3.248502,-4.943586,1.697049,161.08,188.65,139.59,155.01,259.41,217.93,228.83,-64.46,-75.73,-82.75,139.59,155.01,188.65,0,49.06,-0.37
rw_cut_5_p1_ch3_opt.xyz,Nucleus 13C :,1.721875,-3.848609,2.40013,55.25,167.94,45.85,-48.04,230.31,275.82,257.05,-65.52,-229.48,-302.43,-48.04,45.85,167.94,0,215.98,-0.13
rw_cut_5_p1_ch3_opt.xyz,Nucleus 15C :,1.856694,-2.925936,1.447235,60.54,172.64,39.08,-30.1,241.95,273.01,266.86,-71.58,-233.84,-294.79,-30.1,39.08,172.64,0,202.74,-0.32
rw_cut_5_p1_ch3_opt.xyz,Nucleus 22C :,1.162317,-2.195493,1.312877,155.55,131.39,146.43,188.83,202.74,213.93,265.41,-56.32,-84.86,-74.25,131.39,146.43,188.83,0,57.44,-0.48
rw_cut_5_p1_ch3_opt.xyz,Nucleus 27C :,0.69744,-3.747498,3.247255,22.72,118.65,-20.96,-29.53,235.97,269.1,264.85,-117.37,-289.24,-295.17,-29.53,-20.96,118.65,0,148.18,-0.88
rw_cut_5_p1_ch3_opt.xyz,Nucleus 5N :,0.489996,-4.493413,3.889164,111.11,44.58,171.29,117.46,300.5,337.2,332.44,-129.76,-216.89,-290.16,44.58,117.46,171.29,0,126.71,0.15
rw_cut_5_p1_ch3_opt.xyz,Nucleus 25N :,0.076332,-2.939029,3.224158,174.58,112.47,232.38,178.9,298.74,347.12,331.35,-220.0,-111.34,-122.13,112.47,178.9,232.38,0,119.91,0.11
rw_cut_5_p1_ch3_opt.xyz,Nucleus 28N :,3.514133,-6.499654,3.354148,164.86,110.25,172.53,211.81,317.03,332.21,340.08,-215.41,-152.45,-126.87,110.25,172.53,211.81,0,101.56,0.23
rw_cut_5_p1_ch3_opt.xyz,Nucleus 30N :,2.708062,-2.859156,0.915852,162.19,108.46,187.38,190.74,291.62,327.0,336.49,-100.89,-144.61,-223.04,108.46,187.38,190.74,0,82.28,0.92
rw_cut_5_p1_ch3_opt_disp_struct_0.xyz,Nucleus 1H :,1.014023,0.00841,-1.320169,28.85,35.34,23.1,28.12,40.38,26.33,32.4,-1.48,-6.51,-4.55,23.1,28.12,35.34,0,12.24,-0.18
rw_cut_5_p1_ch3_opt_disp_struct_0.xyz,Nucleus 2H :,1.825936,0.614139,-1.728393,29.22,35.01,24.29,28.36,49.61,29.91,26.53,1.81,-5.33,-14.87,24.29,28.36,35.01,0,10.72,-0.24
rw_cut_5_p1_ch3_opt_disp_struct_0.xyz,Nucleus 6H :,1.178602,-1.028335,-1.637929,23.53,15.66,24.38,30.55,52.63,28.7,14.68,-22.59,-4.5,1.67,15.66,24.38,30.55,0,14.89,0.17
rw_cut_5_p1_ch3_opt_disp_struct_0.xyz,Nucleus 10H :,0.944671,0.132099,0.158764,23.45,28.9,18.84,22.6,53.3,42.23,34.77,-6.39,-22.51,-31.07,18.84,22.6,28.9,0,10.06,-0.25
rw_cut_5_p1_ch3_opt_disp_struct_0.xyz,Nucleus 14H :,1.729457,0.951462,0.946233,23.77,27.48,23.73,20.09,13.03,31.39,46.25,-23.0,7.56,-3.93,20.09,23.73,27.48,0,7.39,-0.02
rw_cut_5_p1_ch3_opt_disp_struct_0.xyz,Nucleus 16H :,1.355472,0.780761,2.251539,23.61,19.1,27.08,24.66,12.72,30.59,49.87,-25.62,-3.6,6.89,19.1,24.66,27.08,0,7.98,0.39
rw_cut_5_p1_ch3_opt_disp_struct_0.xyz,Nucleus 17H :,1.738617,1.287655,3.031704,23.82,20.04,25.01,26.41,44.97,27.58,33.83,-19.8,-7.22,-7.91,20.04,25.01,26.41,0,6.37,0.56
rw_cut_5_p1_ch3_opt_disp_struct_0.xyz,Nucleus 18H :,0.33399,-0.135347,2.338316,28.8,35.89,26.59,23.93,44.82,27.14,33.41,-0.32,-9.98,-8.66,23.93,26.59,35.89,0,11.96,-0.55
rw_cut_5_p1_ch3_opt_disp_struct_0.xyz,Nucleus 19H :,0.052322,-0.559436,1.040217,28.96,23.65,28.91,34.32,44.8,21.19,27.08,-11.59,2.33,3.07,23.65,28.91,34.32,0,10.67,-0.01
rw_cut_5_p1_ch3_opt_disp_struct_0.xyz,Nucleus 20H :,-0.97321,-1.511113,0.852551,28.34,35.05,26.18,23.8,40.59,13.27,26.08,11.56,-6.7,0.23,23.8,26.18,35.05,0,11.25,-0.58
rw_cut_5_p1_ch3_opt_disp_struct_0.xyz,Nucleus 21H :,-1.225032,-1.856712,-0.145811,28.92,34.28,24.48,28.0,43.59,12.38,21.64,-9.39,12.85,5.69,24.48,28.0,34.28,0,9.8,-0.28
rw_cut_5_p1_ch3_opt_disp_struct_0.xyz,Nucleus 23H :,-1.680584,-2.010442,1.959168,28.83,34.72,24.38,27.38,-0.87,18.39,39.18,26.99,7.76,-4.97,24.38,27.38,34.72,0,10.34,-0.42
rw_cut_5_p1_ch3_opt_disp_struct_0.xyz,Nucleus 24H :,-2.770822,-3.025008,1.773721,28.82,35.43,26.87,24.17,0.75,17.97,40.26,26.03,7.16,-5.7,24.17,26.87,35.43,0,11.26,-0.52
rw_cut_5_p1_ch3_opt_disp_struct_0.xyz,Nucleus 26H :,-1.364477,-1.557955,3.244286,27.53,18.5,34.9,29.2,48.63,18.38,31.03,-13.87,1.37,-2.94,18.5,29.2,34.9,0,16.4,0.31
rw_cut_5_p1_ch3_opt_disp_struct_0.xyz,Nucleus 29H :,-1.936759,-1.920787,4.094506,27.91,46.39,16.19,21.16,15.77,58.72,47.71,-32.35,6.22,-12.34,16.19,21.16,46.39,0,30.2,-0.67
rw_cut_5_p1_ch3_opt_disp_struct_0.xyz,Nucleus 31H :,-0.354531,-0.614026,3.458123,27.32,20.04,27.8,34.12,0.58,25.08,53.37,19.59,2.87,-19.53,20.04,27.8,34.12,0,14.08,0.1
rw_cut_5_p1_ch3_opt_disp_struct_0.xyz,Nucleus 32H :,-0.127967,-0.257962,4.458005,26.82,44.48,16.08,19.9,49.94,19.5,31.78,-15.59,1.27,-6.45,16.08,19.9,44.48,0,28.4,-0.73
rw_cut_5_p1_ch3_opt_disp_struct_0.xyz,Nucleus 33H :,2.507273,1.646626,0.665813,28.47,35.84,26.02,23.56,-10.14,39.21,15.17,33.82,-3.4,10.77,23.56,26.02,35.84,0,12.28,-0.6
rw_cut_5_p1_ch3_opt_disp_struct_0.xyz,Nucleus 34H :,0.082672,0.339744,-1.793273,28.09,20.33,34.49,29.46,48.87,32.64,34.45,-21.27,-7.22,-3.18,20.33,29.46,34.49,0,14.16,0.29
rw_cut_5_p1_ch3_opt_disp_struct_0.xyz,Nucleus 0C :,-2.823152,-3.373133,0.74039,173.33,160.75,170.81,188.44,237.08,241.29,261.97,-82.46,-71.32,-66.56,160.75,170.81,188.44,0,27.69,-0.27
rw_cut_5_p1_ch3_opt_disp_struct_0.xyz,Nucleus 3C :,-3.746257,-2.599548,2.033614,62.6,148.94,49.26,-10.39,282.52,243.97,263.84,-95.72,-232.28,-274.52,-10.39,49.26,148.94,0,159.33,-0.25
rw_cut_5_p1_ch3_opt_disp_struct_0.xyz,Nucleus 4C :,-2.621697,-3.897154,2.419652,49.81,-37.98,128.68,58.73,279.16,258.49,256.71,-301.4,-129.7,-213.85,-37.98,58.73,128.68,0,166.66,0.16
rw_cut_5_p1_ch3_opt_disp_struct_0.xyz,Nucleus 7C :,2.763967,-6.105101,3.485391,43.36,144.47,-32.76,18.36,273.89,267.34,268.37,-123.78,-306.5,-249.25,-32.76,18.36,144.47,0,177.23,-0.42
rw_cut_5_p1_ch3_opt_disp_struct_0.xyz,Nucleus 8C :,2.744106,-5.699098,4.501913,50.68,169.54,1.12,-18.61,225.0,269.19,251.77,-55.85,-259.91,-278.15,-18.61,1.12,169.54,0,188.15,-0.79
rw_cut_5_p1_ch3_opt_disp_struct_0.xyz,Nucleus 9C :,1.911651,-6.778928,3.33551,54.16,160.78,43.9,-42.19,253.28,277.25,270.8,-93.17,-231.91,-313.78,-42.19,43.9,160.78,0,202.97,-0.15
rw_cut_5_p1_ch3_opt_disp_struct_0.xyz,Nucleus 11C :,2.787508,-5.026033,2.50125,41.0,175.17,-61.98,9.81,239.93,263.1,278.22,-66.07,-327.06,-265.11,-61.98,9.81,175.17,0,237.15,-0.39
rw_cut_5_p1_ch3_opt_disp_struct_0.xyz,Nucleus 12C :,3.415612,-5.127975,1.721029,161.15,188.71,139.34,155.4,259.43,217.45,229.22,-64.71,-74.69,-83.25,139.34,155.4,188.71,0,49.37,-0.35
rw_cut_5_p1_ch3_opt_disp_struct_0.xyz,Nucleus 13C :,1.888985,-4.032998,2.42411,55.59,167.27,47.75,-48.25,230.07,276.03,257.2,-66.06,-227.84,-302.65,-48.25,47.75,167.27,0,215.52,-0.11
rw_cut_5_p1_ch3_opt_disp_struct_0.xyz,Nucleus 15C :,2.023804,-3.110325,1.471215,62.11,172.47,42.75,-28.89,240.78,272.83,267.2,-71.29,-229.95,-293.25,-28.89,42.75,172.47,0,201.36,-0.29
rw_cut_5_p1_ch3_opt_disp_struct_0.xyz,Nucleus 22C :,1.329427,-2.379882,1.336857,155.53,131.21,146.51,188.87,201.52,213.49,266.09,-55.05,-84.99,-74.46,131.21,146.51,188.87,0,57.66,-0.47
rw_cut_5_p1_ch3_opt_disp_struct_0.xyz,Nucleus 27C :,0.86455,-3.931887,3.271235,22.24,117.01,-19.41,-30.88,236.93,268.21,265.29,-119.95,-287.44,-296.31,-30.88,-19.41,117.01,0,147.89,-0.84
rw_cut_5_p1_ch3_opt_disp_struct_0.xyz,Nucleus 5N :,0.657105,-4.677802,3.913143,112.6,46.87,171.11,119.83,300.46,337.08,332.51,-130.07,-214.65,-287.52,46.87,119.83,171.11,0,124.24,0.17
rw_cut_5_p1_ch3_opt_disp_struct_0.xyz,Nucleus 25N :,0.243442,-3.123418,3.248137,173.09,109.42,230.61,179.24,297.09,346.91,331.13,-223.15,-111.45,-121.27,109.42,179.24,230.61,0,121.19,0.15
rw_cut_5_p1_ch3_opt_disp_struct_0.xyz,Nucleus 28N :,3.681243,-6.684043,3.378128,169.7,112.66,175.07,221.38,317.18,332.0,339.0,-212.91,-150.32,-115.84,112.66,175.07,221.38,0,108.72,0.15
rw_cut_5_p1_ch3_opt_disp_struct_0.xyz,Nucleus 30N :,2.875172,-3.043545,0.939832,167.61,112.12,197.53,193.19,288.96,326.6,336.13,-95.12,-136.07,-217.66,112.12,193.19,197.53,0,85.41,0.9
rw_cut_5_p1_ch3_opt_disp_struct_1.xyz,Nucleus 1H :,1.014023,0.00841,-1.320169,28.87,35.28,23.14,28.19,40.36,26.32,32.58,-1.47,-6.48,-4.7,23.14,28.19,35.28,0,12.14,-0.17
rw_cut_5_p1_ch3_opt_disp_struct_1.xyz,Nucleus 2H :,1.825936,0.614139,-1.728393,29.21,35.03,24.33,28.28,49.52,29.92,26.61,1.69,-5.37,-14.72,24.33,28.28,35.03,0,10.7,-0.26
rw_cut_5_p1_ch3_opt_disp_struct_1.xyz,Nucleus 6H :,1.178602,-1.028335,-1.637929,23.59,15.73,24.47,30.56,52.68,28.81,14.78,-22.64,-4.51,1.63,15.73,24.47,30.56,0,14.83,0.18
rw_cut_5_p1_ch3_opt_disp_struct_1.xyz,Nucleus 10H :,0.944671,0.132099,0.158764,23.46,29.0,18.92,22.47,53.37,42.13,34.9,-6.56,-22.32,-31.13,18.92,22.47,29.0,0,10.08,-0.29
rw_cut_5_p1_ch3_opt_disp_struct_1.xyz,Nucleus 14H :,1.729457,0.951462,0.946233,23.78,27.62,23.6,20.11,13.63,31.68,46.29,-23.09,6.89,-4.09,20.11,23.6,27.62,0,7.51,-0.07
rw_cut_5_p1_ch3_opt_disp_struct_1.xyz,Nucleus 16H :,1.355472,0.780761,2.251539,23.65,19.18,27.17,24.6,13.01,30.72,49.96,-25.74,-3.67,6.66,19.18,24.6,27.17,0,7.99,0.36
rw_cut_5_p1_ch3_opt_disp_struct_1.xyz,Nucleus 17H :,1.738617,1.287655,3.031704,23.87,20.12,25.03,26.46,45.05,27.61,33.99,-19.89,-7.14,-8.02,20.12,25.03,26.46,0,6.34,0.55
rw_cut_5_p1_ch3_opt_disp_struct_1.xyz,Nucleus 18H :,0.33399,-0.135347,2.338316,28.81,35.84,26.6,23.98,44.7,27.24,33.3,-0.4,-9.81,-8.62,23.98,26.6,35.84,0,11.86,-0.56
rw_cut_5_p1_ch3_opt_disp_struct_1.xyz,Nucleus 19H :,0.052322,-0.559436,1.040217,28.97,23.71,28.96,34.25,44.86,21.16,27.29,-11.67,2.25,3.01,23.71,28.96,34.25,0,10.54,-0.0
rw_cut_5_p1_ch3_opt_disp_struct_1.xyz,Nucleus 20H :,-0.97321,-1.511113,0.852551,28.34,34.98,26.23,23.82,40.49,13.46,26.28,11.37,-6.69,0.11,23.82,26.23,34.98,0,11.16,-0.57
rw_cut_5_p1_ch3_opt_disp_struct_1.xyz,Nucleus 21H :,-1.225032,-1.856712,-0.145811,28.92,34.29,24.5,27.97,43.6,12.71,21.97,-9.41,12.45,5.43,24.5,27.97,34.29,0,9.79,-0.29
rw_cut_5_p1_ch3_opt_disp_struct_1.xyz,Nucleus 23H :,-1.680584,-2.010442,1.959168,28.78,34.67,24.36,27.32,-1.97,18.29,39.13,28.14,7.79,-5.01,24.36,27.32,34.67,0,10.31,-0.42
rw_cut_5_p1_ch3_opt_disp_struct_1.xyz,Nucleus 24H :,-2.770822,-3.025008,1.773721,28.78,35.38,26.81,24.16,-0.4,17.92,40.25,27.23,7.15,-5.8,24.16,26.81,35.38,0,11.22,-0.53
rw_cut_5_p1_ch3_opt_disp_struct_1.xyz,Nucleus 26H :,-1.364477,-1.557955,3.244286,27.43,18.54,34.73,29.03,48.76,17.03,30.67,-14.18,2.59,-2.57,18.54,29.03,34.73,0,16.19,0.3
rw_cut_5_p1_ch3_opt_disp_struct_1.xyz,Nucleus 29H :,-1.936759,-1.920787,4.094506,28.15,44.67,17.47,22.31,18.38,57.17,51.54,-34.89,4.34,-12.09,17.47,22.31,44.67,0,27.2,-0.64
rw_cut_5_p1_ch3_opt_disp_struct_1.xyz,Nucleus 31H :,-0.354531,-0.614026,3.458123,27.25,19.93,27.65,34.16,-0.16,25.08,53.51,20.23,2.64,-19.55,19.93,27.65,34.16,0,14.23,0.08
rw_cut_5_p1_ch3_opt_disp_struct_1.xyz,Nucleus 32H :,-0.127967,-0.257962,4.458005,27.14,42.55,17.41,21.45,48.34,22.05,35.1,-17.59,0.26,-6.75,17.41,21.45,42.55,0,25.14,-0.68
rw_cut_5_p1_ch3_opt_disp_struct_1.xyz,Nucleus 33H :,2.507273,1.646626,0.665813,28.43,35.74,25.99,23.55,-11.66,39.08,14.81,35.34,-3.37,11.1,23.55,25.99,35.74,0,12.19,-0.6
rw_cut_5_p1_ch3_opt_disp_struct_1.xyz,Nucleus 34H :,0.082672,0.339744,-1.793273,27.98,20.39,34.61,28.95,49.1,31.92,34.82,-21.57,-7.46,-2.86,20.39,28.95,34.61,0,14.22,0.2
rw_cut_5_p1_ch3_opt_disp_struct_1.xyz,Nucleus 0C :,-2.823152,-3.373133,0.74039,173.26,160.79,170.64,188.36,237.01,241.04,261.71,-82.28,-71.28,-66.41,160.79,170.64,188.36,0,27.57,-0.29
rw_cut_5_p1_ch3_opt_disp_struct_1.xyz,Nucleus 3C :,-3.746257,-2.599548,2.033614,62.92,149.02,50.06,-10.33,282.11,242.88,263.84,-94.55,-231.18,-274.34,-10.33,50.06,149.02,0,159.35,-0.24
rw_cut_5_p1_ch3_opt_disp_struct_1.xyz,Nucleus 4C :,-2.621697,-3.897154,2.419652,50.74,-36.63,128.58,60.27,259.03,255.79,279.36,-300.0,-129.65,-212.31,-36.63,60.27,128.58,0,165.21,0.17
rw_cut_5_p1_ch3_opt_disp_struct_1.xyz,Nucleus 7C :,2.931076,-6.28949,3.509371,43.6,144.31,-32.7,19.2,273.84,266.42,267.98,-122.97,-306.37,-248.09,-32.7,19.2,144.31,0,177.01,-0.41
rw_cut_5_p1_ch3_opt_disp_struct_1.xyz,Nucleus 8C :,2.911215,-5.883487,4.525892,50.51,169.21,1.2,-18.87,225.11,270.38,252.87,-56.31,-261.62,-278.88,-18.87,1.2,169.21,0,188.08,-0.79
rw_cut_5_p1_ch3_opt_disp_struct_1.xyz,Nucleus 9C :,2.078761,-6.963317,3.35949,54.95,160.56,45.84,-41.56,251.61,277.71,271.32,-91.98,-230.22,-313.61,-41.56,45.84,160.56,0,202.12,-0.14
rw_cut_5_p1_ch3_opt_disp_struct_1.xyz,Nucleus 11C :,2.954618,-5.210422,2.52523,41.97,174.97,-61.47,12.4,238.24,262.91,278.28,-64.38,-326.58,-262.58,-61.47,12.4,174.97,0,236.44,-0.38
rw_cut_5_p1_ch3_opt_disp_struct_1.xyz,Nucleus 12C :,3.582722,-5.312364,1.745008,161.17,188.72,139.1,155.7,259.37,217.03,229.75,-65.0,-73.96,-83.67,139.1,155.7,188.72,0,49.62,-0.33
rw_cut_5_p1_ch3_opt_disp_struct_1.xyz,Nucleus 13C :,2.056095,-4.217387,2.44809,55.45,166.74,48.69,-49.08,230.07,276.59,257.52,-66.78,-227.46,-303.6,-49.08,48.69,166.74,0,215.82,-0.09
rw_cut_5_p1_ch3_opt_disp_struct_1.xyz,Nucleus 15C :,2.190913,-3.294714,1.495194,63.22,172.22,45.49,-28.05,240.11,272.99,267.39,-71.14,-227.28,-292.41,-28.05,45.49,172.22,0,200.27,-0.27
rw_cut_5_p1_ch3_opt_disp_struct_1.xyz,Nucleus 22C :,1.496537,-2.564271,1.360837,155.51,131.08,146.57,188.87,200.37,213.02,266.75,-53.86,-85.06,-74.7,131.08,146.57,188.87,0,57.79,-0.46
rw_cut_5_p1_ch3_opt_disp_struct_1.xyz,Nucleus 27C :,1.031659,-4.116276,3.295215,21.97,116.11,-18.37,-31.82,237.27,267.65,265.72,-121.19,-286.02,-297.52,-31.82,-18.37,116.11,0,147.93,-0.82
rw_cut_5_p1_ch3_opt_disp_struct_1.xyz,Nucleus 5N :,0.824215,-4.862191,3.937123,113.8,48.79,170.91,121.71,300.45,336.93,332.6,-130.35,-212.98,-285.23,48.79,121.71,170.91,0,122.12,0.19
rw_cut_5_p1_ch3_opt_disp_struct_1.xyz,Nucleus 25N :,0.410551,-3.307807,3.272117,171.93,107.24,229.02,179.54,295.29,346.83,330.99,-225.5,-110.96,-120.84,107.24,179.54,229.02,0,121.78,0.19
rw_cut_5_p1_ch3_opt_disp_struct_1.xyz,Nucleus 28N :,3.848353,-6.868432,3.402108,172.26,113.7,176.22,226.85,318.37,332.78,338.26,-212.07,-150.9,-109.65,113.7,176.22,226.85,0,113.15,0.1
rw_cut_5_p1_ch3_opt_disp_struct_1.xyz,Nucleus 30N :,3.042282,-3.227934,0.963812,170.61,113.68,203.58,194.58,288.49,336.07,326.25,-92.89,-131.12,-214.97,113.68,194.58,203.58,0,89.9,0.8
rw_cut_5_p1_ch3_opt_disp_struct_10.xyz,Nucleus 1H :,1.014023,0.00841,-1.320169,29.0,35.07,23.33,28.59,40.25,26.83,31.96,-6.65,-1.65,-3.75,23.33,28.59,35.07,0,11.74,-0.1
rw_cut_5_p1_ch3_opt_disp_struct_10.xyz,Nucleus 2H :,1.825936,0.614139,-1.728393,29.18,35.32,24.44,27.77,48.16,29.72,26.24,1.58,-4.93,-13.22,24.44,27.77,35.32,0,10.88,-0.39
rw_cut_5_p1_ch3_opt_disp_struct_10.xyz,Nucleus 6H :,1.178602,-1.028335,-1.637929,23.9,16.07,24.83,30.8,51.74,29.97,15.43,-21.36,-5.15,1.08,16.07,24.83,30.8,0,14.73,0.19
rw_cut_5_p1_ch3_opt_disp_struct_10.xyz,Nucleus 10H :,0.944671,0.132099,0.158764,23.66,29.69,19.07,22.21,52.12,41.11,34.46,-5.45,-21.42,-29.86,19.07,22.21,29.69,0,10.62,-0.41
rw_cut_5_p1_ch3_opt_disp_struct_10.xyz,Nucleus 14H :,1.729457,0.951462,0.946233,23.87,28.43,19.95,23.24,10.98,33.69,46.65,-23.42,9.0,-5.28,19.95,23.24,28.43,0,8.48,-0.22
rw_cut_5_p1_ch3_opt_disp_struct_10.xyz,Nucleus 16H :,1.355472,0.780761,2.251539,23.91,19.37,27.8,24.56,12.79,32.34,49.46,-25.01,-4.58,6.73,19.37,24.56,27.8,0,8.43,0.23
rw_cut_5_p1_ch3_opt_disp_struct_10.xyz,Nucleus 17H :,1.738617,1.287655,3.031704,24.13,20.49,25.11,26.78,45.15,28.45,33.51,-19.99,-7.75,-6.99,20.49,25.11,26.78,0,6.29,0.47
rw_cut_5_p1_ch3_opt_disp_struct_10.xyz,Nucleus 18H :,0.33399,-0.135347,2.338316,28.86,35.63,26.74,24.21,44.33,27.01,33.07,-0.3,-10.01,-7.53,24.21,26.74,35.63,0,11.42,-0.56
rw_cut_5_p1_ch3_opt_disp_struct_10.xyz,Nucleus 19H :,0.052322,-0.559436,1.040217,29.11,23.84,29.3,34.18,44.58,20.84,27.71,-11.07,3.17,2.09,23.84,29.3,34.18,0,10.34,0.06
rw_cut_5_p1_ch3_opt_disp_struct_10.xyz,Nucleus 20H :,-0.97321,-1.511113,0.852551,28.44,34.68,24.06,26.57,40.03,14.2,27.19,10.63,-6.33,-0.42,24.06,26.57,34.68,0,10.62,-0.53
rw_cut_5_p1_ch3_opt_disp_struct_10.xyz,Nucleus 21H :,-1.225032,-1.856712,-0.145811,28.92,34.57,24.35,27.84,42.42,11.67,24.84,-8.05,12.86,3.03,24.35,27.84,34.57,0,10.22,-0.32
rw_cut_5_p1_ch3_opt_disp_struct_10.xyz,Nucleus 23H :,-1.680584,-2.010442,1.959168,28.58,34.44,24.37,26.93,-9.97,17.35,39.2,36.58,8.31,-5.72,24.37,26.93,34.44,0,10.07,-0.49
rw_cut_5_p1_ch3_opt_disp_struct_10.xyz,Nucleus 24H :,-2.770822,-3.025008,1.773721,28.6,35.16,26.49,24.15,-9.05,17.36,40.77,36.24,7.42,-6.95,24.15,26.49,35.16,0,11.01,-0.57
rw_cut_5_p1_ch3_opt_disp_struct_10.xyz,Nucleus 26H :,-1.364477,-1.557955,3.244286,26.99,18.64,34.06,28.27,5.15,50.3,28.7,-16.52,14.19,-0.84,18.64,28.27,34.06,0,15.42,0.25
rw_cut_5_p1_ch3_opt_disp_struct_10.xyz,Nucleus 29H :,-1.936759,-1.920787,4.094506,26.96,37.38,23.77,19.74,73.39,26.86,47.99,-53.58,-10.88,-2.88,19.74,23.77,37.38,0,17.64,-0.54
rw_cut_5_p1_ch3_opt_disp_struct_10.xyz,Nucleus 31H :,-0.354531,-0.614026,3.458123,26.73,19.8,26.64,33.74,-1.71,25.14,56.76,21.65,1.46,-23.11,19.8,26.64,33.74,0,13.94,-0.02
rw_cut_5_p1_ch3_opt_disp_struct_10.xyz,Nucleus 32H :,-0.127967,-0.257962,4.458005,26.47,35.99,19.62,23.8,29.45,43.31,54.14,-34.21,-5.2,-8.09,19.62,23.8,35.99,0,16.37,-0.49
rw_cut_5_p1_ch3_opt_disp_struct_10.xyz,Nucleus 33H :,2.507273,1.646626,0.665813,28.22,35.17,25.94,23.54,-24.33,38.44,11.86,47.99,-3.31,14.0,23.54,25.94,35.17,0,11.63,-0.59
rw_cut_5_p1_ch3_opt_disp_struct_10.xyz,Nucleus 34H :,0.082672,0.339744,-1.793273,27.21,34.61,26.37,20.64,51.78,28.34,36.88,-24.26,-9.54,-1.59,20.64,26.37,34.61,0,13.97,-0.18
rw_cut_5_p1_ch3_opt_disp_struct_10.xyz,Nucleus 0C :,-2.823152,-3.373133,0.74039,172.94,160.83,169.72,188.28,236.75,240.52,259.67,-79.81,-72.27,-66.04,160.83,169.72,188.28,0,27.45,-0.35
rw_cut_5_p1_ch3_opt_disp_struct_10.xyz,Nucleus 3C :,-3.746257,-2.599548,2.033614,63.15,149.02,51.53,-11.11,242.1,278.85,262.96,-93.22,-226.44,-274.8,-11.11,51.53,149.02,0,160.13,-0.22
rw_cut_5_p1_ch3_opt_disp_struct_10.xyz,Nucleus 4C :,-2.621697,-3.897154,2.419652,54.6,-31.36,127.91,67.25,260.68,255.22,276.96,-294.68,-130.88,-203.5,-31.36,67.25,127.91,0,159.27,0.24
rw_cut_5_p1_ch3_opt_disp_struct_10.xyz,Nucleus 7C :,4.435064,-7.948991,3.725188,43.35,143.27,-34.25,21.04,273.27,266.75,267.7,-123.96,-307.37,-246.33,-34.25,21.04,143.27,0,177.52,-0.38
rw_cut_5_p1_ch3_opt_disp_struct_10.xyz,Nucleus 8C :,4.415203,-7.542988,4.74171,48.96,168.2,0.24,-21.55,225.66,271.12,257.05,-58.06,-267.5,-281.37,-21.55,0.24,168.2,0,189.75,-0.77
rw_cut_5_p1_ch3_opt_disp_struct_10.xyz,Nucleus 9C :,3.582748,-8.622818,3.575307,55.42,158.9,49.57,-42.22,248.84,276.06,270.5,-90.78,-224.79,-313.58,-42.22,49.57,158.9,0,201.12,-0.09
rw_cut_5_p1_ch3_opt_disp_struct_10.xyz,Nucleus 11C :,4.458606,-6.869923,2.741047,44.29,173.75,-60.91,20.02,235.36,263.3,277.32,-61.7,-326.6,-254.81,-60.91,20.02,173.75,0,234.66,-0.31
rw_cut_5_p1_ch3_opt_disp_struct_10.xyz,Nucleus 12C :,5.086709,-6.971865,1.960825,161.18,188.84,138.0,156.71,257.42,217.59,230.62,-64.33,-74.44,-83.32,138.0,156.71,188.84,0,50.84,-0.26
rw_cut_5_p1_ch3_opt_disp_struct_10.xyz,Nucleus 13C :,3.560083,-5.876888,2.663907,52.88,164.84,47.68,-53.89,232.22,257.93,277.39,-67.4,-229.5,-312.02,-53.89,47.68,164.84,0,218.73,-0.07
rw_cut_5_p1_ch3_opt_disp_struct_10.xyz,Nucleus 15C :,3.694901,-4.954215,1.711011,65.53,170.55,52.03,-26.0,242.11,273.69,266.64,-73.05,-221.05,-291.76,-26.0,52.03,170.55,0,196.55,-0.21
rw_cut_5_p1_ch3_opt_disp_struct_10.xyz,Nucleus 22C :,3.000524,-4.223772,1.576654,155.26,130.51,146.64,188.64,191.19,208.64,272.27,-44.66,-75.37,-86.29,130.51,146.64,188.64,0,58.13,-0.44
rw_cut_5_p1_ch3_opt_disp_struct_10.xyz,Nucleus 27C :,2.535647,-5.775777,3.511032,21.36,115.37,-16.63,-34.67,240.56,271.21,263.66,-125.21,-281.77,-304.39,-34.67,-16.63,115.37,0,150.04,-0.76
rw_cut_5_p1_ch3_opt_disp_struct_10.xyz,Nucleus 5N :,2.328203,-6.521693,4.15294,118.24,56.24,169.64,128.85,301.37,336.16,332.27,-132.03,-206.76,-276.27,56.24,128.85,169.64,0,113.4,0.28
rw_cut_5_p1_ch3_opt_disp_struct_10.xyz,Nucleus 25N :,1.914539,-4.967308,3.487934,167.94,100.54,222.49,180.79,279.66,348.86,330.63,-234.93,-97.07,-123.32,100.54,180.79,222.49,0,121.95,0.32
rw_cut_5_p1_ch3_opt_disp_struct_10.xyz,Nucleus 28N :,5.352341,-8.527933,3.617925,174.75,114.31,176.4,233.55,322.13,344.81,336.22,-212.97,-163.26,-102.68,114.31,176.4,233.55,0,119.24,0.04
rw_cut_5_p1_ch3_opt_disp_struct_10.xyz,Nucleus 30N :,4.54627,-4.887435,1.179629,173.83,114.41,212.27,194.81,296.16,340.52,324.68,-211.81,-99.5,-128.56,114.41,194.81,212.27,0,97.86,0.64
rw_cut_5_p1_ch3_opt_disp_struct_11.xyz,Nucleus 1H :,1.014023,0.00841,-1.320169,29.01,35.07,23.34,28.61,40.23,26.85,31.89,-6.63,-3.66,-1.65,23.34,28.61,35.07,0,11.73,-0.1
rw_cut_5_p1_ch3_opt_disp_struct_11.xyz,Nucleus 2H :,1.825936,0.614139,-1.728393,29.17,35.33,24.43,27.75,48.02,29.65,26.2,1.59,-4.84,-13.1,24.43,27.75,35.33,0,10.9,-0.39
rw_cut_5_p1_ch3_opt_disp_struct_11.xyz,Nucleus 6H :,1.178602,-1.028335,-1.637929,23.92,16.08,24.85,30.82,51.61,30.03,15.43,-21.19,-5.19,1.06,16.08,24.85,30.82,0,14.74,0.19
rw_cut_5_p1_ch3_opt_disp_struct_11.xyz,Nucleus 10H :,0.944671,0.132099,0.158764,23.67,29.72,19.06,22.22,51.94,40.98,34.43,-5.31,-21.36,-29.67,19.06,22.22,29.72,0,10.66,-0.41
rw_cut_5_p1_ch3_opt_disp_struct_11.xyz,Nucleus 14H :,1.729457,0.951462,0.946233,23.88,28.46,19.93,23.26,10.87,33.69,46.63,-23.38,9.08,-5.24,19.93,23.26,28.46,0,8.53,-0.22
rw_cut_5_p1_ch3_opt_disp_struct_11.xyz,Nucleus 16H :,1.355472,0.780761,2.251539,23.93,19.37,27.84,24.57,12.75,32.4,49.36,-24.88,-4.6,6.75,19.37,24.57,27.84,0,8.47,0.23
rw_cut_5_p1_ch3_opt_disp_struct_11.xyz,Nucleus 17H :,1.738617,1.287655,3.031704,24.14,20.51,25.11,26.8,45.11,28.47,33.46,-19.93,-7.77,-6.92,20.51,25.11,26.8,0,6.29,0.46
rw_cut_5_p1_ch3_opt_disp_struct_11.xyz,Nucleus 18H :,0.33399,-0.135347,2.338316,28.87,35.62,26.76,24.23,44.3,26.97,33.08,-0.27,-10.04,-7.44,24.23,26.76,35.62,0,11.39,-0.56
rw_cut_5_p1_ch3_opt_disp_struct_11.xyz,Nucleus 19H :,0.052322,-0.559436,1.040217,29.12,23.83,29.33,34.2,44.47,20.85,27.69,-10.93,3.15,2.11,23.83,29.33,34.2,0,10.37,0.06
rw_cut_5_p1_ch3_opt_disp_struct_11.xyz,Nucleus 20H :,-0.97321,-1.511113,0.852551,28.45,34.67,24.08,26.59,40.0,14.26,27.18,10.57,-6.27,-0.4,24.08,26.59,34.67,0,10.59,-0.53
rw_cut_5_p1_ch3_opt_disp_struct_11.xyz,Nucleus 21H :,-1.225032,-1.856712,-0.145811,28.91,34.59,24.31,27.84,42.29,11.58,24.96,12.89,-7.9,2.92,24.31,27.84,34.59,0,10.28,-0.31
rw_cut_5_p1_ch3_opt_disp_struct_11.xyz,Nucleus 23H :,-1.680584,-2.010442,1.959168,28.57,34.43,24.38,26.9,-10.81,17.27,39.23,37.45,8.36,-5.81,24.38,26.9,34.43,0,10.05,-0.5
rw_cut_5_p1_ch3_opt_disp_struct_11.xyz,Nucleus 24H :,-2.770822,-3.025008,1.773721,28.59,35.15,26.47,24.15,-9.95,17.32,40.86,37.17,7.45,-7.08,24.15,26.47,35.15,0,11.0,-0.58
rw_cut_5_p1_ch3_opt_disp_struct_11.xyz,Nucleus 26H :,-1.364477,-1.557955,3.244286,26.97,18.65,34.03,28.22,3.87,50.49,28.53,-16.76,15.47,-0.7,18.65,28.22,34.03,0,15.38,0.24
rw_cut_5_p1_ch3_opt_disp_struct_11.xyz,Nucleus 29H :,-1.936759,-1.920787,4.094506,26.89,37.05,23.81,19.82,75.25,27.3,47.5,-55.36,-10.79,-3.22,19.82,23.81,37.05,0,17.23,-0.54
rw_cut_5_p1_ch3_opt_disp_struct_11.xyz,Nucleus 31H :,-0.354531,-0.614026,3.458123,26.7,19.81,26.56,33.72,-1.74,25.16,57.17,21.69,1.36,-23.53,19.81,26.56,33.72,0,13.91,-0.03
rw_cut_5_p1_ch3_opt_disp_struct_11.xyz,Nucleus 32H :,-0.127967,-0.257962,4.458005,26.42,35.74,19.68,23.83,29.82,43.17,55.85,-35.89,-5.61,-8.1,19.68,23.83,35.74,0,16.06,-0.48
rw_cut_5_p1_ch3_opt_disp_struct_11.xyz,Nucleus 33H :,2.507273,1.646626,0.665813,28.2,35.13,25.94,23.53,-25.67,38.4,11.56,49.32,-3.31,14.3,23.53,25.94,35.13,0,11.6,-0.58
rw_cut_5_p1_ch3_opt_disp_struct_11.xyz,Nucleus 34H :,0.082672,0.339744,-1.793273,27.17,34.62,26.23,20.66,52.08,28.09,37.01,-24.55,-9.67,-1.47,20.66,26.23,34.62,0,13.96,-0.2
rw_cut_5_p1_ch3_opt_disp_struct_11.xyz,Nucleus 0C :,-2.823152,-3.373133,0.74039,172.93,160.84,169.66,188.29,236.67,240.54,259.54,-79.62,-72.31,-66.02,160.84,169.66,188.29,0,27.45,-0.36
rw_cut_5_p1_ch3_opt_disp_struct_11.xyz,Nucleus 3C :,-3.746257,-2.599548,2.033614,63.14,148.99,51.6,-11.17,242.04,278.57,262.87,-93.19,-226.03,-274.83,-11.17,51.6,148.99,0,160.16,-0.22
rw_cut_5_p1_ch3_opt_disp_struct_11.xyz,Nucleus 4C :,-2.621697,-3.897154,2.419652,54.77,-31.14,127.87,67.57,260.45,255.6,276.77,-294.53,-130.98,-203.01,-31.14,67.57,127.87,0,159.01,0.24
rw_cut_5_p1_ch3_opt_disp_struct_11.xyz,Nucleus 7C :,4.602174,-8.13338,3.749168,43.32,143.22,-34.33,21.08,273.08,267.01,267.5,-124.07,-307.2,-246.35,-34.33,21.08,143.22,0,177.55,-0.38
rw_cut_5_p1_ch3_opt_disp_struct_11.xyz,Nucleus 8C :,4.582313,-7.727377,4.765689,48.93,168.15,0.24,-21.6,225.6,270.46,257.14,-58.0,-267.12,-281.3,-21.6,0.24,168.15,0,189.75,-0.77
rw_cut_5_p1_ch3_opt_disp_struct_11.xyz,Nucleus 9C :,3.749858,-8.807207,3.599286,55.37,158.81,49.61,-42.31,249.02,275.57,270.25,-90.91,-224.42,-313.39,-42.31,49.61,158.81,0,201.12,-0.09
rw_cut_5_p1_ch3_opt_disp_struct_11.xyz,Nucleus 11C :,4.625716,-7.054312,2.765027,44.36,173.69,-60.88,20.27,235.28,263.27,277.08,-61.67,-326.44,-254.44,-60.88,20.27,173.69,0,234.57,-0.31
rw_cut_5_p1_ch3_opt_disp_struct_11.xyz,Nucleus 12C :,5.253819,-7.156254,1.984805,161.19,188.86,137.95,156.75,257.2,217.86,230.55,-64.11,-74.63,-83.31,137.95,156.75,188.86,0,50.91,-0.26
rw_cut_5_p1_ch3_opt_disp_struct_11.xyz,Nucleus 13C :,3.727192,-6.061277,2.687886,52.79,164.76,47.61,-54.01,232.03,258.01,277.18,-67.28,-229.36,-312.22,-54.01,47.61,164.76,0,218.77,-0.07
rw_cut_5_p1_ch3_opt_disp_struct_11.xyz,Nucleus 15C :,3.862011,-5.138604,1.734991,65.56,170.46,52.17,-25.95,242.36,273.61,266.48,-73.22,-220.81,-291.73,-25.95,52.17,170.46,0,196.41,-0.2
rw_cut_5_p1_ch3_opt_disp_struct_11.xyz,Nucleus 22C :,3.167634,-4.408161,1.600633,155.25,130.49,146.65,188.61,190.27,208.2,272.84,-43.73,-75.22,-86.62,130.49,146.65,188.61,0,58.12,-0.44
rw_cut_5_p1_ch3_opt_disp_struct_11.xyz,Nucleus 27C :,2.702757,-5.960166,3.535011,21.32,115.38,-16.65,-34.76,240.83,271.66,263.44,-125.47,-281.65,-304.85,-34.76,-16.65,115.38,0,150.14,-0.76
rw_cut_5_p1_ch3_opt_disp_struct_11.xyz,Nucleus 5N :,2.495313,-6.706082,4.17692,118.43,56.54,169.6,129.16,301.34,336.12,332.17,-131.97,-206.44,-275.92,56.54,129.16,169.6,0,113.06,0.28
rw_cut_5_p1_ch3_opt_disp_struct_11.xyz,Nucleus 25N :,2.081649,-5.151697,3.511914,167.78,100.28,222.21,180.84,278.13,349.22,330.6,-235.56,-95.54,-123.52,100.28,180.84,222.21,0,121.93,0.32
rw_cut_5_p1_ch3_opt_disp_struct_11.xyz,Nucleus 28N :,5.51945,-8.712322,3.641905,174.75,114.28,176.36,233.61,322.08,345.8,336.23,-213.04,-164.23,-102.58,114.28,176.36,233.61,0,119.33,0.04
rw_cut_5_p1_ch3_opt_disp_struct_11.xyz,Nucleus 30N :,4.713379,-5.071824,1.203609,173.8,114.32,212.37,194.72,296.97,340.89,324.56,-211.77,-100.41,-128.84,114.32,194.72,212.37,0,98.05,0.64
rw_cut_5_p1_ch3_opt_disp_struct_12.xyz,Nucleus 1H :,1.014023,0.00841,-1.320169,29.02,35.07,23.34,28.64,40.21,26.86,31.81,-6.61,-3.57,-1.65,23.34,28.64,35.07,0,11.73,-0.1
rw_cut_5_p1_ch3_opt_disp_struct_12.xyz,Nucleus 2H :,1.825936,0.614139,-1.728393,29.16,35.34,24.42,27.73,47.89,29.59,26.16,1.6,-4.75,-12.99,24.42,27.73,35.34,0,10.92,-0.39
rw_cut_5_p1_ch3_opt_disp_struct_12.xyz,Nucleus 6H :,1.178602,-1.028335,-1.637929,23.93,16.09,24.87,30.84,51.49,30.09,15.43,-21.03,-5.21,1.05,16.09,24.87,30.84,0,14.75,0.19
rw_cut_5_p1_ch3_opt_disp_struct_12.xyz,Nucleus 10H :,0.944671,0.132099,0.158764,23.68,29.75,19.05,22.23,51.77,40.87,34.38,-5.19,-21.32,-29.49,19.05,22.23,29.75,0,10.7,-0.41
rw_cut_5_p1_ch3_opt_disp_struct_12.xyz,Nucleus 14H :,1.729457,0.951462,0.946233,23.89,28.49,19.91,23.27,10.78,33.68,46.6,-23.34,9.16,-5.2,19.91,23.27,28.49,0,8.58,-0.22
rw_cut_5_p1_ch3_opt_disp_struct_12.xyz,Nucleus 16H :,1.355472,0.780761,2.251539,23.94,19.37,27.86,24.58,12.71,32.45,49.25,-24.76,-4.62,6.77,19.37,24.58,27.86,0,8.49,0.23
rw_cut_5_p1_ch3_opt_disp_struct_12.xyz,Nucleus 17H :,1.738617,1.287655,3.031704,24.15,20.52,25.12,26.82,45.07,28.49,33.41,-19.88,-7.78,-6.84,20.52,25.12,26.82,0,6.3,0.46
rw_cut_5_p1_ch3_opt_disp_struct_12.xyz,Nucleus 18H :,0.33399,-0.135347,2.338316,28.87,35.61,26.77,24.24,44.27,26.93,33.09,-0.24,-10.07,-7.36,24.24,26.77,35.61,0,11.37,-0.55
rw_cut_5_p1_ch3_opt_disp_struct_12.xyz,Nucleus 19H :,0.052322,-0.559436,1.040217,29.13,23.83,29.35,34.21,44.36,20.86,27.68,-10.79,3.13,2.13,23.83,29.35,34.21,0,10.38,0.06
rw_cut_5_p1_ch3_opt_disp_struct_12.xyz,Nucleus 20H :,-0.97321,-1.511113,0.852551,28.46,34.66,24.1,26.61,39.97,14.32,27.17,10.51,-6.22,-0.38,24.1,26.61,34.66,0,10.56,-0.53
rw_cut_5_p1_ch3_opt_disp_struct_12.xyz,Nucleus 21H :,-1.225032,-1.856712,-0.145811,28.91,34.61,24.28,27.85,42.17,11.5,25.05,12.92,-7.76,2.85,24.28,27.85,34.61,0,10.33,-0.31
rw_cut_5_p1_ch3_opt_disp_struct_12.xyz,Nucleus 23H :,-1.680584,-2.010442,1.959168,28.56,34.42,24.38,26.88,-11.64,17.2,39.27,38.32,8.42,-5.9,24.38,26.88,34.42,0,10.04,-0.5
rw_cut_5_p1_ch3_opt_disp_struct_12.xyz,Nucleus 24H :,-2.770822,-3.025008,1.773721,28.58,35.14,26.45,24.15,-10.85,17.27,40.95,38.09,7.48,-7.21,24.15,26.45,35.14,0,10.99,-0.58
rw_cut_5_p1_ch3_opt_disp_struct_12.xyz,Nucleus 26H :,-1.364477,-1.557955,3.244286,26.95,18.66,34.0,28.18,2.6,50.68,28.37,-16.99,16.73,-0.56,18.66,28.18,34.0,0,15.34,0.24
rw_cut_5_p1_ch3_opt_disp_struct_12.xyz,Nucleus 29H :,-1.936759,-1.920787,4.094506,26.83,36.77,23.83,19.88,77.06,27.7,47.07,-57.11,-10.7,-3.52,19.88,23.83,36.77,0,16.89,-0.53
rw_cut_5_p1_ch3_opt_disp_struct_12.xyz,Nucleus 31H :,-0.354531,-0.614026,3.458123,26.68,19.82,26.5,33.71,-1.8,25.17,57.59,21.75,1.28,-23.97,19.82,26.5,33.71,0,13.89,-0.04
rw_cut_5_p1_ch3_opt_disp_struct_12.xyz,Nucleus 32H :,-0.127967,-0.257962,4.458005,26.37,35.53,19.73,23.85,57.53,43.06,30.16,-37.53,-5.98,-8.11,19.73,23.85,35.53,0,15.8,-0.48
rw_cut_5_p1_ch3_opt_disp_struct_12.xyz,Nucleus 33H :,2.507273,1.646626,0.665813,28.19,35.1,25.94,23.53,-27.0,38.36,11.26,50.64,-3.3,14.6,23.53,25.94,35.1,0,11.57,-0.58
rw_cut_5_p1_ch3_opt_disp_struct_12.xyz,Nucleus 34H :,0.082672,0.339744,-1.793273,27.13,34.62,26.1,20.67,52.38,27.86,37.14,-24.85,-9.79,-1.35,20.67,26.1,34.62,0,13.95,-0.22
rw_cut_5_p1_ch3_opt_disp_struct_12.xyz,Nucleus 0C :,-2.823152,-3.373133,0.74039,172.92,160.85,169.61,188.31,236.6,240.57,259.41,-79.45,-72.36,-66.0,160.85,169.61,188.31,0,27.46,-0.36
rw_cut_5_p1_ch3_opt_disp_struct_12.xyz,Nucleus 3C :,-3.746257,-2.599548,2.033614,63.15,148.98,51.67,-11.19,241.98,278.31,262.79,-93.14,-225.67,-274.82,-11.19,51.67,148.98,0,160.17,-0.22
rw_cut_5_p1_ch3_opt_disp_struct_12.xyz,Nucleus 4C :,-2.621697,-3.897154,2.419652,54.9,-30.96,127.82,67.85,260.23,255.95,276.58,-294.4,-131.08,-202.56,-30.96,67.85,127.82,0,158.78,0.24
rw_cut_5_p1_ch3_opt_disp_struct_12.xyz,Nucleus 7C :,4.769284,-8.317769,3.773147,43.3,143.17,-34.39,21.11,272.92,267.32,267.24,-124.18,-307.04,-246.36,-34.39,21.11,143.17,0,177.56,-0.37
rw_cut_5_p1_ch3_opt_disp_struct_12.xyz,Nucleus 8C :,4.749423,-7.911766,4.789669,48.91,168.12,0.26,-21.64,225.54,269.92,257.2,-57.93,-266.78,-281.21,-21.64,0.26,168.12,0,189.76,-0.77
rw_cut_5_p1_ch3_opt_disp_struct_12.xyz,Nucleus 9C :,3.916968,-8.991596,3.623266,55.33,158.73,49.65,-42.38,249.14,275.17,270.05,-91.02,-224.12,-313.22,-42.38,49.65,158.73,0,201.11,-0.08
rw_cut_5_p1_ch3_opt_disp_struct_12.xyz,Nucleus 11C :,4.792825,-7.238701,2.789006,44.42,173.63,-60.85,20.48,235.2,263.22,276.87,-61.64,-326.28,-254.12,-60.85,20.48,173.63,0,234.48,-0.31
rw_cut_5_p1_ch3_opt_disp_struct_12.xyz,Nucleus 12C :,5.420929,-7.340643,2.008785,161.2,188.88,137.92,156.79,256.99,218.12,230.46,-63.89,-74.8,-83.31,137.92,156.79,188.88,0,50.96,-0.26
rw_cut_5_p1_ch3_opt_disp_struct_12.xyz,Nucleus 13C :,3.894302,-6.245666,2.711866,52.72,164.69,47.56,-54.1,231.85,258.06,276.99,-67.16,-229.22,-312.37,-54.1,47.56,164.69,0,218.79,-0.07
rw_cut_5_p1_ch3_opt_disp_struct_12.xyz,Nucleus 15C :,4.029121,-5.322993,1.758971,65.59,170.38,52.29,-25.91,242.59,273.56,266.32,-73.39,-220.61,-291.71,-25.91,52.29,170.38,0,196.29,-0.2
rw_cut_5_p1_ch3_opt_disp_struct_12.xyz,Nucleus 22C :,3.334744,-4.59255,1.624613,155.23,130.46,146.65,188.59,189.35,207.76,273.42,-42.82,-75.04,-86.97,130.46,146.65,188.59,0,58.13,-0.44
rw_cut_5_p1_ch3_opt_disp_struct_12.xyz,Nucleus 27C :,2.869867,-6.144555,3.558991,21.3,115.4,-16.66,-34.84,241.09,272.1,263.25,-125.71,-281.53,-305.29,-34.84,-16.66,115.4,0,150.24,-0.76
rw_cut_5_p1_ch3_opt_disp_struct_12.xyz,Nucleus 5N :,2.662422,-6.890471,4.200899,118.56,56.76,169.52,129.4,301.28,336.1,332.07,-131.94,-206.21,-275.62,56.76,129.4,169.52,0,112.76,0.29
rw_cut_5_p1_ch3_opt_disp_struct_12.xyz,Nucleus 25N :,2.248759,-5.336087,3.535894,167.65,100.08,221.97,180.89,276.62,349.6,330.57,-236.15,-94.03,-123.68,100.08,180.89,221.97,0,121.89,0.33
rw_cut_5_p1_ch3_opt_disp_struct_12.xyz,Nucleus 28N :,5.68656,-8.896711,3.665884,174.74,114.26,176.32,233.65,322.03,346.81,336.27,-213.14,-165.21,-102.53,114.26,176.32,233.65,0,119.39,0.04
rw_cut_5_p1_ch3_opt_disp_struct_12.xyz,Nucleus 30N :,4.880489,-5.256213,1.227588,173.78,114.24,212.45,194.66,297.72,341.28,324.46,-211.75,-101.23,-129.13,114.24,194.66,212.45,0,98.21,0.64
rw_cut_5_p1_ch3_opt_disp_struct_13.xyz,Nucleus 1H :,1.014023,0.00841,-1.320169,29.03,35.07,23.35,28.66,40.19,26.88,31.73,-6.59,-3.48,-1.65,23.35,28.66,35.07,0,11.72,-0.09
rw_cut_5_p1_ch3_opt_disp_struct_13.xyz,Nucleus 2H :,1.825936,0.614139,-1.728393,29.16,35.35,24.4,27.72,47.76,29.53,26.13,-12.89,-4.67,1.61,24.4,27.72,35.35,0,10.95,-0.39
rw_cut_5_p1_ch3_opt_disp_struct_13.xyz,Nucleus 6H :,1.178602,-1.028335,-1.637929,23.95,16.1,24.89,30.86,51.36,30.13,15.43,-20.88,-5.23,1.03,16.1,24.89,30.86,0,14.76,0.19
rw_cut_5_p1_ch3_opt_disp_struct_13.xyz,Nucleus 10H :,0.944671,0.132099,0.158764,23.68,29.77,19.04,22.24,51.61,40.77,34.35,-5.08,-21.28,-29.32,19.04,22.24,29.77,0,10.73,-0.4
rw_cut_5_p1_ch3_opt_disp_struct_13.xyz,Nucleus 14H :,1.729457,0.951462,0.946233,23.9,28.52,19.9,23.28,10.69,33.64,46.58,-23.31,9.22,-5.14,19.9,23.28,28.52,0,8.62,-0.22
rw_cut_5_p1_ch3_opt_disp_struct_13.xyz,Nucleus 16H :,1.355472,0.780761,2.251539,23.95,19.36,27.89,24.6,12.67,32.48,49.16,-24.64,-4.62,6.79,19.36,24.6,27.89,0,8.53,0.23
rw_cut_5_p1_ch3_opt_disp_struct_13.xyz,Nucleus 17H :,1.738617,1.287655,3.031704,24.16,20.53,25.12,26.83,45.04,28.5,33.35,-19.83,-7.8,-6.77,20.53,25.12,26.83,0,6.3,0.46
rw_cut_5_p1_ch3_opt_disp_struct_13.xyz,Nucleus 18H :,0.33399,-0.135347,2.338316,28.88,35.61,26.79,24.25,44.25,26.9,33.08,-0.21,-10.1,-7.27,24.25,26.79,35.61,0,11.36,-0.55
rw_cut_5_p1_ch3_opt_disp_struct_13.xyz,Nucleus 19H :,0.052322,-0.559436,1.040217,29.14,23.82,29.37,34.22,44.26,20.88,27.66,-10.65,3.11,2.15,23.82,29.37,34.22,0,10.4,0.07
rw_cut_5_p1_ch3_opt_disp_struct_13.xyz,Nucleus 20H :,-0.97321,-1.511113,0.852551,28.47,34.66,24.11,26.64,39.95,14.37,27.15,10.45,-6.17,-0.35,24.11,26.64,34.66,0,10.55,-0.52
rw_cut_5_p1_ch3_opt_disp_struct_13.xyz,Nucleus 21H :,-1.225032,-1.856712,-0.145811,28.91,34.62,24.26,27.85,42.07,11.43,25.12,12.96,-7.63,2.78,24.26,27.85,34.62,0,10.36,-0.31
rw_cut_5_p1_ch3_opt_disp_struct_13.xyz,Nucleus 23H :,-1.680584,-2.010442,1.959168,28.55,34.41,24.38,26.85,-12.46,17.12,39.32,39.18,8.47,-5.99,24.38,26.85,34.41,0,10.03,-0.51
rw_cut_5_p1_ch3_opt_disp_struct_13.xyz,Nucleus 24H :,-2.770822,-3.025008,1.773721,28.57,35.13,26.43,24.15,-11.73,17.22,41.05,39.0,7.52,-7.35,24.15,26.43,35.13,0,10.98,-0.58
rw_cut_5_p1_ch3_opt_disp_struct_13.xyz,Nucleus 26H :,-1.364477,-1.557955,3.244286,26.93,18.66,33.98,28.14,1.34,50.88,28.22,17.99,-17.21,-0.43,18.66,28.14,33.98,0,15.32,0.24
rw_cut_5_p1_ch3_opt_disp_struct_13.xyz,Nucleus 29H :,-1.936759,-1.920787,4.094506,26.78,36.53,23.86,19.94,78.84,28.07,46.69,-58.84,-10.64,-3.79,19.94,23.86,36.53,0,16.59,-0.53
rw_cut_5_p1_ch3_opt_disp_struct_13.xyz,Nucleus 31H :,-0.354531,-0.614026,3.458123,26.65,19.83,26.44,33.69,-1.88,25.19,58.02,21.84,1.2,-24.41,19.83,26.44,33.69,0,13.86,-0.05
rw_cut_5_p1_ch3_opt_disp_struct_13.xyz,Nucleus 32H :,-0.127967,-0.257962,4.458005,26.33,35.35,19.78,23.87,59.19,42.96,30.46,-39.16,-6.34,-8.11,19.78,23.87,35.35,0,15.57,-0.47
rw_cut_5_p1_ch3_opt_disp_struct_13.xyz,Nucleus 33H :,2.507273,1.646626,0.665813,28.18,35.07,25.94,23.54,-28.31,38.32,10.96,51.97,-3.3,14.9,23.54,25.94,35.07,0,11.53,-0.58
rw_cut_5_p1_ch3_opt_disp_struct_13.xyz,Nucleus 34H :,0.082672,0.339744,-1.793273,27.1,34.62,25.99,20.69,52.68,27.64,37.25,-25.14,-9.9,-1.24,20.69,25.99,34.62,0,13.93,-0.24
rw_cut_5_p1_ch3_opt_disp_struct_13.xyz,Nucleus 0C :,-2.823152,-3.373133,0.74039,172.92,160.86,169.56,188.33,236.54,240.6,259.29,-79.28,-72.4,-65.99,160.86,169.56,188.33,0,27.47,-0.37
rw_cut_5_p1_ch3_opt_disp_struct_13.xyz,Nucleus 3C :,-3.746257,-2.599548,2.033614,63.16,148.97,51.73,-11.21,241.94,278.07,262.71,-93.1,-225.34,-274.79,-11.21,51.73,148.97,0,160.18,-0.21
rw_cut_5_p1_ch3_opt_disp_struct_13.xyz,Nucleus 4C :,-2.621697,-3.897154,2.419652,55.03,-30.8,127.78,68.1,260.03,256.27,276.39,-294.3,-131.17,-202.15,-30.8,68.1,127.78,0,158.58,0.25
rw_cut_5_p1_ch3_opt_disp_struct_13.xyz,Nucleus 7C :,4.936393,-8.502158,3.797127,43.27,143.12,-34.44,21.13,272.77,267.47,267.13,-124.29,-306.89,-246.37,-34.44,21.13,143.12,0,177.56,-0.37
rw_cut_5_p1_ch3_opt_disp_struct_13.xyz,Nucleus 8C :,4.916532,-8.096155,4.813649,48.9,168.09,0.28,-21.66,225.48,269.45,257.26,-57.86,-266.48,-281.13,-21.66,0.28,168.09,0,189.75,-0.77
rw_cut_5_p1_ch3_opt_disp_struct_13.xyz,Nucleus 9C :,4.084078,-9.175985,3.647246,55.3,158.67,49.69,-42.45,249.26,274.8,269.84,-91.11,-223.84,-313.04,-42.45,49.69,158.67,0,201.12,-0.08
rw_cut_5_p1_ch3_opt_disp_struct_13.xyz,Nucleus 11C :,4.959935,-7.42309,2.812986,44.47,173.57,-60.81,20.66,235.13,263.18,276.66,-61.61,-326.12,-253.82,-60.81,20.66,173.57,0,234.38,-0.3
rw_cut_5_p1_ch3_opt_disp_struct_13.xyz,Nucleus 12C :,5.588039,-7.525032,2.032764,161.2,188.9,137.88,156.82,256.79,218.38,230.38,-63.68,-74.96,-83.32,137.88,156.82,188.9,0,51.02,-0.26
rw_cut_5_p1_ch3_opt_disp_struct_13.xyz,Nucleus 13C :,4.061412,-6.430055,2.735846,52.66,164.63,47.52,-54.18,231.69,258.11,276.8,-67.06,-229.07,-312.49,-54.18,47.52,164.63,0,218.81,-0.07
rw_cut_5_p1_ch3_opt_disp_struct_13.xyz,Nucleus 15C :,4.19623,-5.507382,1.78295,65.6,170.3,52.39,-25.88,242.8,273.5,266.16,-73.54,-220.41,-291.69,-25.88,52.39,170.3,0,196.18,-0.2
rw_cut_5_p1_ch3_opt_disp_struct_13.xyz,Nucleus 22C :,3.501854,-4.776939,1.648593,155.22,130.44,146.65,188.57,188.45,207.33,273.99,-41.92,-74.82,-87.36,130.44,146.65,188.57,0,58.13,-0.44
rw_cut_5_p1_ch3_opt_disp_struct_13.xyz,Nucleus 27C :,3.036976,-6.328944,3.582971,21.28,115.42,-16.68,-34.91,241.34,272.52,263.06,-125.94,-281.43,-305.72,-34.91,-16.68,115.42,0,150.33,-0.76
rw_cut_5_p1_ch3_opt_disp_struct_13.xyz,Nucleus 5N :,2.829532,-7.07486,4.224879,118.67,56.95,169.46,129.6,301.21,336.09,331.97,-131.91,-206.04,-275.32,56.95,129.6,169.46,0,112.51,0.29
rw_cut_5_p1_ch3_opt_disp_struct_13.xyz,Nucleus 25N :,2.415868,-5.520476,3.559873,167.53,99.91,221.76,180.93,275.15,350.0,330.54,-236.72,-92.55,-123.82,99.91,180.93,221.76,0,121.85,0.33
rw_cut_5_p1_ch3_opt_disp_struct_13.xyz,Nucleus 28N :,5.85367,-9.0811,3.689864,174.74,114.24,176.3,233.68,321.98,347.83,336.33,-213.26,-166.18,-102.49,114.24,176.3,233.68,0,119.44,0.04
rw_cut_5_p1_ch3_opt_disp_struct_13.xyz,Nucleus 30N :,5.047599,-5.440602,1.251568,173.76,114.17,212.51,194.61,298.4,341.67,324.37,-211.75,-101.97,-129.43,114.17,194.61,212.51,0,98.34,0.64
rw_cut_5_p1_ch3_opt_disp_struct_14.xyz,Nucleus 1H :,1.014023,0.00841,-1.320169,29.03,35.07,23.35,28.68,40.18,26.89,31.65,-6.58,-3.39,-1.64,23.35,28.68,35.07,0,11.72,-0.09
rw_cut_5_p1_ch3_opt_disp_struct_14.xyz,Nucleus 2H :,1.825936,0.614139,-1.728393,29.15,35.36,24.39,27.7,47.64,29.47,26.09,-12.8,-4.58,1.63,24.39,27.7,35.36,0,10.97,-0.4
rw_cut_5_p1_ch3_opt_disp_struct_14.xyz,Nucleus 6H :,1.178602,-1.028335,-1.637929,23.96,16.1,24.91,30.87,51.24,30.17,15.43,-20.74,-5.24,1.02,16.1,24.91,30.87,0,14.77,0.19
rw_cut_5_p1_ch3_opt_disp_struct_14.xyz,Nucleus 10H :,0.944671,0.132099,0.158764,23.69,29.79,19.03,22.25,51.46,40.69,34.31,-4.97,-21.25,-29.16,19.03,22.25,29.79,0,10.76,-0.4
rw_cut_5_p1_ch3_opt_disp_struct_14.xyz,Nucleus 14H :,1.729457,0.951462,0.946233,23.9,28.54,19.88,23.29,10.61,33.59,46.56,-23.27,9.28,-5.06,19.88,23.29,28.54,0,8.66,-0.21
rw_cut_5_p1_ch3_opt_disp_struct_14.xyz,Nucleus 16H :,1.355472,0.780761,2.251539,23.96,19.35,27.91,24.61,12.64,32.49,49.06,-24.52,-4.61,6.81,19.35,24.61,27.91,0,8.56,0.23
rw_cut_5_p1_ch3_opt_disp_struct_14.xyz,Nucleus 17H :,1.738617,1.287655,3.031704,24.17,20.54,25.13,26.85,45.01,28.51,33.29,-19.79,-7.8,-6.69,20.54,25.13,26.85,0,6.31,0.46
rw_cut_5_p1_ch3_opt_disp_struct_14.xyz,Nucleus 18H :,0.33399,-0.135347,2.338316,28.89,35.6,26.8,24.26,44.23,26.87,33.08,-0.19,-10.13,-7.19,24.26,26.8,35.6,0,11.34,-0.55
rw_cut_5_p1_ch3_opt_disp_struct_14.xyz,Nucleus 19H :,0.052322,-0.559436,1.040217,29.14,23.82,29.38,34.23,44.15,20.9,27.65,-10.52,3.08,2.17,23.82,29.38,34.23,0,10.41,0.07
rw_cut_5_p1_ch3_opt_disp_struct_14.xyz,Nucleus 20H :,-0.97321,-1.511113,0.852551,28.48,34.66,24.12,26.66,39.93,14.42,27.13,10.4,-6.12,-0.32,24.12,26.66,34.66,0,10.54,-0.52
rw_cut_5_p1_ch3_opt_disp_struct_14.xyz,Nucleus 21H :,-1.225032,-1.856712,-0.145811,28.91,34.64,24.23,27.85,41.96,11.36,25.17,12.99,-7.51,2.74,24.23,27.85,34.64,0,10.41,-0.31
rw_cut_5_p1_ch3_opt_disp_struct_14.xyz,Nucleus 23H :,-1.680584,-2.010442,1.959168,28.54,34.4,24.38,26.83,-13.29,17.04,39.37,40.04,8.53,-6.08,24.38,26.83,34.4,0,10.02,-0.51
rw_cut_5_p1_ch3_opt_disp_struct_14.xyz,Nucleus 24H :,-2.770822,-3.025008,1.773721,28.56,35.13,26.41,24.15,-12.62,17.17,41.15,39.92,7.56,-7.48,24.15,26.41,35.13,0,10.98,-0.59
rw_cut_5_p1_ch3_opt_disp_struct_14.xyz,Nucleus 26H :,-1.364477,-1.557955,3.244286,26.91,18.67,33.96,28.11,0.08,51.07,28.08,19.24,-17.43,-0.3,18.67,28.11,33.96,0,15.29,0.24
rw_cut_5_p1_ch3_opt_disp_struct_14.xyz,Nucleus 29H :,-1.936759,-1.920787,4.094506,26.73,36.32,23.88,19.99,80.6,28.4,46.35,-60.54,-10.59,-4.03,19.99,23.88,36.32,0,16.33,-0.52
rw_cut_5_p1_ch3_opt_disp_struct_14.xyz,Nucleus 31H :,-0.354531,-0.614026,3.458123,26.63,19.84,26.38,33.68,-1.97,25.2,58.45,21.94,1.14,-24.86,19.84,26.38,33.68,0,13.84,-0.05
rw_cut_5_p1_ch3_opt_disp_struct_14.xyz,Nucleus 32H :,-0.127967,-0.257962,4.458005,26.3,35.19,19.82,23.89,60.83,42.88,30.74,-40.77,-6.67,-8.11,19.82,23.89,35.19,0,15.37,-0.47
rw_cut_5_p1_ch3_opt_disp_struct_14.xyz,Nucleus 33H :,2.507273,1.646626,0.665813,28.17,35.04,25.94,23.54,-29.63,38.29,10.66,53.28,-3.29,15.21,23.54,25.94,35.04,0,11.5,-0.58
rw_cut_5_p1_ch3_opt_disp_struct_14.xyz,Nucleus 34H :,0.082672,0.339744,-1.793273,27.07,34.62,25.89,20.7,52.97,27.44,37.36,-25.42,-10.0,-1.14,20.7,25.89,34.62,0,13.92,-0.25
rw_cut_5_p1_ch3_opt_disp_struct_14.xyz,Nucleus 0C :,-2.823152,-3.373133,0.74039,172.91,160.87,169.52,188.35,236.49,240.64,259.17,-79.13,-72.45,-65.98,160.87,169.52,188.35,0,27.48,-0.37
rw_cut_5_p1_ch3_opt_disp_struct_14.xyz,Nucleus 3C :,-3.746257,-2.599548,2.033614,63.18,148.96,51.79,-11.22,241.9,277.85,262.65,-93.07,-225.04,-274.76,-11.22,51.79,148.96,0,160.18,-0.21
rw_cut_5_p1_ch3_opt_disp_struct_14.xyz,Nucleus 4C :,-2.621697,-3.897154,2.419652,55.13,-30.67,127.74,68.32,259.85,256.55,276.23,-294.22,-131.23,-201.78,-30.67,68.32,127.74,0,158.41,0.25
rw_cut_5_p1_ch3_opt_disp_struct_14.xyz,Nucleus 7C :,5.103503,-8.686547,3.821107,43.25,143.07,-34.48,21.15,272.64,267.67,266.96,-124.39,-306.75,-246.38,-34.48,21.15,143.07,0,177.55,-0.37
rw_cut_5_p1_ch3_opt_disp_struct_14.xyz,Nucleus 8C :,5.083642,-8.280544,4.837628,48.89,168.06,0.29,-21.67,225.43,269.03,257.3,-57.81,-266.21,-281.06,-21.67,0.29,168.06,0,189.73,-0.77
rw_cut_5_p1_ch3_opt_disp_struct_14.xyz,Nucleus 9C :,4.251187,-9.360374,3.671225,55.28,158.61,49.72,-42.5,249.36,274.48,269.67,-91.2,-223.6,-312.88,-42.5,49.72,158.61,0,201.11,-0.08
rw_cut_5_p1_ch3_opt_disp_struct_14.xyz,Nucleus 11C :,5.127045,-7.607479,2.836966,44.52,173.53,-60.78,20.81,235.07,263.13,276.46,-61.59,-325.96,-253.56,-60.78,20.81,173.53,0,234.31,-0.3
rw_cut_5_p1_ch3_opt_disp_struct_14.xyz,Nucleus 12C :,5.755148,-7.709421,2.056744,161.21,188.92,137.86,156.84,256.61,218.63,230.3,-63.48,-75.1,-83.35,137.86,156.84,188.92,0,51.06,-0.26
rw_cut_5_p1_ch3_opt_disp_struct_14.xyz,Nucleus 13C :,4.228522,-6.614444,2.759825,52.61,164.57,47.49,-54.24,231.55,258.15,276.62,-66.97,-228.92,-312.59,-54.24,47.49,164.57,0,218.81,-0.07
rw_cut_5_p1_ch3_opt_disp_struct_14.xyz,Nucleus 15C :,4.36334,-5.691771,1.80693,65.62,170.24,52.48,-25.85,242.98,273.44,266.01,-73.68,-220.23,-291.66,-25.85,52.48,170.24,0,196.09,-0.2
rw_cut_5_p1_ch3_opt_disp_struct_14.xyz,Nucleus 22C :,3.668963,-4.961328,1.672572,155.21,130.42,146.65,188.55,187.57,206.9,274.56,-41.04,-74.59,-87.77,130.42,146.65,188.55,0,58.13,-0.44
rw_cut_5_p1_ch3_opt_disp_struct_14.xyz,Nucleus 27C :,3.204086,-6.513333,3.60695,21.26,115.45,-16.7,-34.97,241.61,272.93,262.9,-126.18,-281.34,-306.13,-34.97,-16.7,115.45,0,150.42,-0.76
rw_cut_5_p1_ch3_opt_disp_struct_14.xyz,Nucleus 5N :,2.996642,-7.259249,4.248859,118.76,57.11,169.4,129.76,301.15,336.09,331.86,-131.88,-205.9,-275.05,57.11,129.76,169.4,0,112.29,0.29
rw_cut_5_p1_ch3_opt_disp_struct_14.xyz,Nucleus 25N :,2.582978,-5.704865,3.583853,167.43,99.75,221.58,180.97,273.69,350.4,330.5,-237.26,-91.08,-123.95,99.75,180.97,221.58,0,121.83,0.33
rw_cut_5_p1_ch3_opt_disp_struct_14.xyz,Nucleus 28N :,6.02078,-9.265489,3.713844,174.73,114.21,176.27,233.72,321.94,348.85,336.41,-213.4,-167.12,-102.48,114.21,176.27,233.72,0,119.51,0.04
rw_cut_5_p1_ch3_opt_disp_struct_14.xyz,Nucleus 30N :,5.214709,-5.624991,1.275548,173.74,114.1,212.56,194.57,299.03,342.05,324.29,-211.76,-102.65,-129.72,114.1,194.57,212.56,0,98.46,0.63
rw_cut_5_p1_ch3_opt_disp_struct_15.xyz,Nucleus 1H :,1.014023,0.00841,-1.320169,29.04,35.07,23.36,28.69,40.16,26.9,31.57,-6.57,-3.3,-1.63,23.36,28.69,35.07,0,11.71,-0.09
rw_cut_5_p1_ch3_opt_disp_struct_15.xyz,Nucleus 2H :,1.825936,0.614139,-1.728393,29.14,35.37,24.37,27.69,47.53,29.41,26.06,-12.72,-4.49,1.65,24.37,27.69,35.37,0,11.0,-0.4
rw_cut_5_p1_ch3_opt_disp_struct_15.xyz,Nucleus 6H :,1.178602,-1.028335,-1.637929,23.97,16.11,24.92,30.88,51.13,30.2,15.43,-20.6,-5.25,1.0,16.11,24.92,30.88,0,14.77,0.19
rw_cut_5_p1_ch3_opt_disp_struct_15.xyz,Nucleus 10H :,0.944671,0.132099,0.158764,23.7,29.81,19.02,22.26,51.32,40.62,34.26,-4.88,-21.23,-29.01,19.02,22.26,29.81,0,10.79,-0.4
rw_cut_5_p1_ch3_opt_disp_struct_15.xyz,Nucleus 14H :,1.729457,0.951462,0.946233,23.91,28.56,19.87,23.3,10.54,33.53,46.54,-23.24,9.34,-4.99,19.87,23.3,28.56,0,8.69,-0.21
rw_cut_5_p1_ch3_opt_disp_struct_15.xyz,Nucleus 16H :,1.355472,0.780761,2.251539,23.96,19.35,27.92,24.62,12.6,32.5,48.97,-24.41,-4.6,6.83,19.35,24.62,27.92,0,8.57,0.23
rw_cut_5_p1_ch3_opt_disp_struct_15.xyz,Nucleus 17H :,1.738617,1.287655,3.031704,24.18,20.55,25.13,26.86,44.97,28.51,33.23,-19.75,-7.81,-6.62,20.55,25.13,26.86,0,6.31,0.45
rw_cut_5_p1_ch3_opt_disp_struct_15.xyz,Nucleus 18H :,0.33399,-0.135347,2.338316,28.89,35.6,26.81,24.27,44.21,26.84,33.06,-0.16,-10.15,-7.12,24.27,26.81,35.6,0,11.33,-0.55
rw_cut_5_p1_ch3_opt_disp_struct_15.xyz,Nucleus 19H :,0.052322,-0.559436,1.040217,29.15,23.81,29.4,34.24,44.04,20.92,27.63,-10.39,3.06,2.18,23.81,29.4,34.24,0,10.43,0.07
rw_cut_5_p1_ch3_opt_disp_struct_15.xyz,Nucleus 20H :,-0.97321,-1.511113,0.852551,28.49,34.65,24.14,26.68,39.92,14.46,27.11,10.36,-6.08,-0.29,24.14,26.68,34.65,0,10.51,-0.52
rw_cut_5_p1_ch3_opt_disp_struct_15.xyz,Nucleus 21H :,-1.225032,-1.856712,-0.145811,28.9,34.65,24.21,27.85,41.86,11.3,25.21,13.02,-7.39,2.71,24.21,27.85,34.65,0,10.44,-0.3
rw_cut_5_p1_ch3_opt_disp_struct_15.xyz,Nucleus 23H :,-1.680584,-2.010442,1.959168,28.53,34.4,24.39,26.81,-14.11,16.97,39.42,40.9,8.59,-6.17,24.39,26.81,34.4,0,10.01,-0.52
rw_cut_5_p1_ch3_opt_disp_struct_15.xyz,Nucleus 24H :,-2.770822,-3.025008,1.773721,28.56,35.12,26.4,24.15,-13.51,17.12,41.25,40.83,7.6,-7.62,24.15,26.4,35.12,0,10.97,-0.59
rw_cut_5_p1_ch3_opt_disp_struct_15.xyz,Nucleus 26H :,-1.364477,-1.557955,3.244286,26.9,18.67,33.95,28.08,-1.17,51.26,27.93,20.49,-17.64,-0.17,18.67,28.08,33.95,0,15.28,0.23
rw_cut_5_p1_ch3_opt_disp_struct_15.xyz,Nucleus 29H :,-1.936759,-1.920787,4.094506,26.69,36.13,23.9,20.04,82.34,28.72,46.05,-62.23,-10.55,-4.25,20.04,23.9,36.13,0,16.09,-0.52
rw_cut_5_p1_ch3_opt_disp_struct_15.xyz,Nucleus 31H :,-0.354531,-0.614026,3.458123,26.62,33.67,26.33,19.85,58.88,25.2,-2.08,-25.3,1.09,22.06,19.85,26.33,33.67,0,13.82,-0.06
rw_cut_5_p1_ch3_opt_disp_struct_15.xyz,Nucleus 32H :,-0.127967,-0.257962,4.458005,26.27,35.05,19.86,23.9,62.46,42.82,31.0,-42.37,-6.98,-8.11,19.86,23.9,35.05,0,15.19,-0.47
rw_cut_5_p1_ch3_opt_disp_struct_15.xyz,Nucleus 33H :,2.507273,1.646626,0.665813,28.16,35.01,25.94,23.54,-30.94,38.26,10.36,54.59,-3.29,15.51,23.54,25.94,35.01,0,11.47,-0.58
rw_cut_5_p1_ch3_opt_disp_struct_15.xyz,Nucleus 34H :,0.082672,0.339744,-1.793273,27.05,34.63,25.8,20.71,53.25,27.26,37.45,-25.69,-10.1,-1.03,20.71,25.8,34.63,0,13.92,-0.27
rw_cut_5_p1_ch3_opt_disp_struct_15.xyz,Nucleus 0C :,-2.823152,-3.373133,0.74039,172.91,160.88,169.48,188.36,236.44,240.67,259.07,-78.99,-72.5,-65.96,160.88,169.48,188.36,0,27.48,-0.37
rw_cut_5_p1_ch3_opt_disp_struct_15.xyz,Nucleus 3C :,-3.746257,-2.599548,2.033614,63.19,148.95,51.84,-11.23,241.88,277.65,262.59,-93.05,-224.78,-274.72,-11.23,51.84,148.95,0,160.18,-0.21
rw_cut_5_p1_ch3_opt_disp_struct_15.xyz,Nucleus 4C :,-2.621697,-3.897154,2.419652,55.22,-30.55,127.7,68.51,259.69,256.78,276.07,-294.15,-131.29,-201.45,-30.55,68.51,127.7,0,158.25,0.25
rw_cut_5_p1_ch3_opt_disp_struct_15.xyz,Nucleus 7C :,5.270613,-8.870936,3.845086,43.23,143.03,-34.52,21.17,272.53,267.84,266.81,-124.49,-306.62,-246.38,-34.52,21.17,143.03,0,177.55,-0.37
rw_cut_5_p1_ch3_opt_disp_struct_15.xyz,Nucleus 8C :,5.250752,-8.464933,4.861608,48.89,168.04,0.31,-21.69,225.38,268.68,257.33,-57.76,-265.99,-280.98,-21.69,0.31,168.04,0,189.73,-0.77
rw_cut_5_p1_ch3_opt_disp_struct_15.xyz,Nucleus 9C :,4.418297,-9.544763,3.695205,55.25,158.55,49.75,-42.55,249.44,274.21,269.52,-91.28,-223.4,-312.74,-42.55,49.75,158.55,0,201.1,-0.08
rw_cut_5_p1_ch3_opt_disp_struct_15.xyz,Nucleus 11C :,5.294155,-7.791868,2.860945,44.56,173.49,-60.75,20.94,235.01,263.08,276.28,-61.57,-325.8,-253.33,-60.75,20.94,173.49,0,234.24,-0.3
rw_cut_5_p1_ch3_opt_disp_struct_15.xyz,Nucleus 12C :,5.922258,-7.89381,2.080724,161.21,188.93,137.83,156.86,256.44,218.87,230.23,-63.29,-75.23,-83.39,137.83,156.86,188.93,0,51.1,-0.26
rw_cut_5_p1_ch3_opt_disp_struct_15.xyz,Nucleus 13C :,4.395631,-6.798833,2.783805,52.57,164.52,47.47,-54.29,231.42,258.19,276.44,-66.89,-228.77,-312.67,-54.29,47.47,164.52,0,218.81,-0.07
rw_cut_5_p1_ch3_opt_disp_struct_15.xyz,Nucleus 15C :,4.53045,-5.87616,1.83091,65.64,170.18,52.55,-25.82,243.13,273.4,265.87,-73.79,-220.07,-291.63,-25.82,52.55,170.18,0,196.0,-0.2
rw_cut_5_p1_ch3_opt_disp_struct_15.xyz,Nucleus 22C :,3.836073,-5.145717,1.696552,155.2,130.4,146.66,188.54,186.69,206.47,275.14,-40.17,-74.34,-88.2,130.4,146.66,188.54,0,58.14,-0.44
rw_cut_5_p1_ch3_opt_disp_struct_15.xyz,Nucleus 27C :,3.371196,-6.697722,3.63093,21.24,115.46,-16.72,-35.02,241.88,273.34,262.75,-126.44,-281.26,-306.53,-35.02,-16.72,115.46,0,150.48,-0.76
rw_cut_5_p1_ch3_opt_disp_struct_15.xyz,Nucleus 5N :,3.163752,-7.443638,4.272838,118.83,57.25,169.34,129.9,301.08,336.09,331.76,-131.86,-205.79,-274.78,57.25,129.9,169.34,0,112.09,0.3
rw_cut_5_p1_ch3_opt_disp_struct_15.xyz,Nucleus 25N :,2.750088,-5.889254,3.607833,167.35,99.62,221.42,181.0,272.25,350.81,330.47,-237.78,-89.63,-124.06,99.62,181.0,221.42,0,121.8,0.34
rw_cut_5_p1_ch3_opt_disp_struct_15.xyz,Nucleus 28N :,6.187889,-9.449878,3.737823,174.73,114.19,176.26,233.74,321.89,349.87,336.5,-213.55,-168.05,-102.47,114.19,176.26,233.74,0,119.55,0.04
rw_cut_5_p1_ch3_opt_disp_struct_15.xyz,Nucleus 30N :,5.381818,-5.80938,1.299527,173.73,114.04,212.61,194.54,299.62,342.43,324.22,-211.78,-103.28,-130.01,114.04,194.54,212.61,0,98.57,0.63
rw_cut_5_p1_ch3_opt_disp_struct_16.xyz,Nucleus 1H :,1.014023,0.00841,-1.320169,29.05,35.08,23.36,28.71,40.15,26.9,31.48,-6.56,-3.22,-1.61,23.36,28.71,35.08,0,11.72,-0.09
rw_cut_5_p1_ch3_opt_disp_struct_16.xyz,Nucleus 2H :,1.825936,0.614139,-1.728393,29.14,35.38,24.36,27.68,47.42,29.35,26.02,-12.64,-4.4,1.67,24.36,27.68,35.38,0,11.02,-0.4
rw_cut_5_p1_ch3_opt_disp_struct_16.xyz,Nucleus 6H :,1.178602,-1.028335,-1.637929,23.98,16.11,24.94,30.9,51.02,15.43,30.23,-20.47,-5.25,0.99,16.11,24.94,30.9,0,14.79,0.19
rw_cut_5_p1_ch3_opt_disp_struct_16.xyz,Nucleus 10H :,0.944671,0.132099,0.158764,23.7,29.82,19.01,22.27,51.19,40.56,34.22,-4.79,-21.21,-28.88,19.01,22.27,29.82,0,10.81,-0.4
rw_cut_5_p1_ch3_opt_disp_struct_16.xyz,Nucleus 14H :,1.729457,0.951462,0.946233,23.91,28.57,19.85,23.31,10.47,33.47,46.52,-23.2,9.4,-4.91,19.85,23.31,28.57,0,8.72,-0.21
rw_cut_5_p1_ch3_opt_disp_struct_16.xyz,Nucleus 16H :,1.355472,0.780761,2.251539,23.97,19.34,27.94,24.63,12.57,32.5,48.88,-24.31,-4.59,6.85,19.34,24.63,27.94,0,8.6,0.23
rw_cut_5_p1_ch3_opt_disp_struct_16.xyz,Nucleus 17H :,1.738617,1.287655,3.031704,24.19,20.55,25.14,26.88,44.94,28.52,33.18,-19.71,-7.82,-6.54,20.55,25.14,26.88,0,6.33,0.45
rw_cut_5_p1_ch3_opt_disp_struct_16.xyz,Nucleus 18H :,0.33399,-0.135347,2.338316,28.9,35.6,26.82,24.28,44.19,26.81,33.05,-0.14,-10.17,-7.04,24.28,26.82,35.6,0,11.32,-0.55
rw_cut_5_p1_ch3_opt_disp_struct_16.xyz,Nucleus 19H :,0.052322,-0.559436,1.040217,29.15,23.8,29.41,34.25,43.94,20.94,27.61,-10.26,3.03,2.2,23.8,29.41,34.25,0,10.45,0.07
rw_cut_5_p1_ch3_opt_disp_struct_16.xyz,Nucleus 20H :,-0.97321,-1.511113,0.852551,28.5,34.65,24.15,26.69,39.9,14.49,27.09,10.32,-6.04,-0.26,24.15,26.69,34.65,0,10.5,-0.52
rw_cut_5_p1_ch3_opt_disp_struct_16.xyz,Nucleus 21H :,-1.225032,-1.856712,-0.145811,28.9,34.66,24.18,27.85,41.77,11.23,25.23,13.05,-7.29,2.69,24.18,27.85,34.66,0,10.48,-0.3
rw_cut_5_p1_ch3_opt_disp_struct_16.xyz,Nucleus 23H :,-1.680584,-2.010442,1.959168,28.52,34.39,24.39,26.79,-14.94,16.89,39.48,41.75,8.65,-6.27,24.39,26.79,34.39,0,10.0,-0.52
rw_cut_5_p1_ch3_opt_disp_struct_16.xyz,Nucleus 24H :,-2.770822,-3.025008,1.773721,28.55,35.11,26.38,24.15,-14.39,17.07,41.36,41.73,7.64,-7.76,24.15,26.38,35.11,0,10.96,-0.59
rw_cut_5_p1_ch3_opt_disp_struct_16.xyz,Nucleus 26H :,-1.364477,-1.557955,3.244286,26.89,18.68,33.93,28.05,-2.42,51.45,27.8,21.74,-17.85,-0.05,18.68,28.05,33.93,0,15.25,0.23
rw_cut_5_p1_ch3_opt_disp_struct_16.xyz,Nucleus 29H :,-1.936759,-1.920787,4.094506,26.66,35.97,23.92,20.08,84.07,29.01,45.78,-63.92,-10.53,-4.44,20.08,23.92,35.97,0,15.89,-0.52
rw_cut_5_p1_ch3_opt_disp_struct_16.xyz,Nucleus 31H :,-0.354531,-0.614026,3.458123,26.6,33.66,26.28,19.86,59.32,25.2,-2.21,-25.75,1.04,22.2,19.86,26.28,33.66,0,13.8,-0.07
rw_cut_5_p1_ch3_opt_disp_struct_16.xyz,Nucleus 32H :,-0.127967,-0.257962,4.458005,26.25,34.93,19.9,23.91,64.07,42.77,31.24,-43.96,-7.27,-8.12,19.9,23.91,34.93,0,15.03,-0.47
rw_cut_5_p1_ch3_opt_disp_struct_16.xyz,Nucleus 33H :,2.507273,1.646626,0.665813,28.16,34.99,25.94,23.54,-32.24,38.23,10.05,55.9,-3.29,15.82,23.54,25.94,34.99,0,11.45,-0.58
rw_cut_5_p1_ch3_opt_disp_struct_16.xyz,Nucleus 34H :,0.082672,0.339744,-1.793273,27.02,34.63,25.72,20.72,53.54,27.09,37.53,-25.96,-10.19,-0.94,20.72,25.72,34.63,0,13.91,-0.28
rw_cut_5_p1_ch3_opt_disp_struct_16.xyz,Nucleus 0C :,-2.823152,-3.373133,0.74039,172.91,160.89,169.45,188.38,236.39,240.71,258.96,-78.85,-72.54,-65.95,160.89,169.45,188.38,0,27.49,-0.38
rw_cut_5_p1_ch3_opt_disp_struct_16.xyz,Nucleus 3C :,-3.746257,-2.599548,2.033614,63.2,148.94,51.89,-11.23,241.86,277.47,262.54,-93.03,-224.54,-274.69,-11.23,51.89,148.94,0,160.17,-0.21
rw_cut_5_p1_ch3_opt_disp_struct_16.xyz,Nucleus 4C :,-2.621697,-3.897154,2.419652,55.3,-30.44,127.67,68.68,259.56,256.97,275.94,-294.09,-131.33,-201.15,-30.44,68.68,127.67,0,158.11,0.25
rw_cut_5_p1_ch3_opt_disp_struct_16.xyz,Nucleus 7C :,5.437723,-9.055325,3.869066,43.21,143.0,-34.55,21.19,272.43,268.0,266.68,-124.58,-306.51,-246.38,-34.55,21.19,143.0,0,177.55,-0.37
rw_cut_5_p1_ch3_opt_disp_struct_16.xyz,Nucleus 8C :,5.417862,-8.649322,4.885588,48.88,168.02,0.33,-21.7,225.34,268.38,257.36,-57.72,-265.8,-280.91,-21.7,0.33,168.02,0,189.72,-0.77
rw_cut_5_p1_ch3_opt_disp_struct_16.xyz,Nucleus 9C :,4.585407,-9.729152,3.719185,55.23,158.51,49.77,-42.58,249.52,273.97,269.38,-91.36,-223.22,-312.6,-42.58,49.77,158.51,0,201.09,-0.08
rw_cut_5_p1_ch3_opt_disp_struct_16.xyz,Nucleus 11C :,5.461264,-7.976257,2.884925,44.59,173.45,-60.73,21.05,234.96,263.03,276.11,-61.54,-325.66,-253.13,-60.73,21.05,173.45,0,234.18,-0.3
rw_cut_5_p1_ch3_opt_disp_struct_16.xyz,Nucleus 12C :,6.089368,-8.078199,2.104703,161.21,188.94,137.81,156.89,256.28,219.09,230.16,-63.12,-75.34,-83.43,137.81,156.89,188.94,0,51.13,-0.25
rw_cut_5_p1_ch3_opt_disp_struct_16.xyz,Nucleus 13C :,4.562741,-6.983222,2.807785,52.53,164.48,47.45,-54.33,231.3,258.22,276.28,-66.82,-228.63,-312.75,-54.33,47.45,164.48,0,218.81,-0.07
rw_cut_5_p1_ch3_opt_disp_struct_16.xyz,Nucleus 15C :,4.69756,-6.060549,1.854889,65.65,170.13,52.62,-25.8,243.26,273.35,265.74,-73.89,-219.92,-291.6,-25.8,52.62,170.13,0,195.93,-0.2
rw_cut_5_p1_ch3_opt_disp_struct_16.xyz,Nucleus 22C :,4.003183,-5.330106,1.720532,155.19,130.39,146.66,188.53,185.83,206.04,275.71,-39.3,-74.06,-88.65,130.39,146.66,188.53,0,58.14,-0.44
rw_cut_5_p1_ch3_opt_disp_struct_16.xyz,Nucleus 27C :,3.538306,-6.882111,3.65491,21.23,115.48,-16.73,-35.06,242.16,273.73,262.61,-126.7,-281.19,-306.92,-35.06,-16.73,115.48,0,150.54,-0.76
rw_cut_5_p1_ch3_opt_disp_struct_16.xyz,Nucleus 5N :,3.330861,-7.628027,4.296818,118.9,57.38,169.29,130.03,301.03,336.1,331.65,-131.84,-205.7,-274.53,57.38,130.03,169.29,0,111.91,0.3
rw_cut_5_p1_ch3_opt_disp_struct_16.xyz,Nucleus 25N :,2.917198,-6.073643,3.631812,167.27,99.51,221.28,181.02,270.81,351.23,330.42,-238.29,-88.2,-124.16,99.51,181.02,221.28,0,121.77,0.34
rw_cut_5_p1_ch3_opt_disp_struct_16.xyz,Nucleus 28N :,6.354999,-9.634267,3.761803,174.73,114.17,176.24,233.77,321.85,350.88,336.6,-213.72,-168.95,-102.47,114.17,176.24,233.77,0,119.6,0.04
rw_cut_5_p1_ch3_opt_disp_struct_16.xyz,Nucleus 30N :,5.548928,-5.993769,1.323507,173.72,113.99,212.65,194.51,300.18,342.8,324.16,-211.81,-103.87,-130.3,113.99,194.51,212.65,0,98.66,0.63
rw_cut_5_p1_ch3_opt_disp_struct_17.xyz,Nucleus 1H :,1.014023,0.00841,-1.320169,29.05,35.08,23.36,28.72,40.14,26.91,31.4,-6.55,-3.14,-1.6,23.36,28.72,35.08,0,11.72,-0.08
rw_cut_5_p1_ch3_opt_disp_struct_17.xyz,Nucleus 2H :,1.825936,0.614139,-1.728393,29.13,35.38,24.35,27.67,47.32,29.29,25.99,-12.57,-4.32,1.69,24.35,27.67,35.38,0,11.03,-0.4
rw_cut_5_p1_ch3_opt_disp_struct_17.xyz,Nucleus 6H :,1.178602,-1.028335,-1.637929,23.99,16.11,24.95,30.91,50.91,15.44,30.25,-20.35,-5.26,0.97,16.11,24.95,30.91,0,14.8,0.19
rw_cut_5_p1_ch3_opt_disp_struct_17.xyz,Nucleus 10H :,0.944671,0.132099,0.158764,23.7,29.84,19.0,22.27,51.07,40.51,34.18,-4.71,-21.19,-28.74,19.0,22.27,29.84,0,10.84,-0.4
rw_cut_5_p1_ch3_opt_disp_struct_17.xyz,Nucleus 14H :,1.729457,0.951462,0.946233,23.92,28.59,19.84,23.32,10.4,33.4,46.5,-23.17,9.45,-4.82,19.84,23.32,28.59,0,8.75,-0.21
rw_cut_5_p1_ch3_opt_disp_struct_17.xyz,Nucleus 16H :,1.355472,0.780761,2.251539,23.98,19.33,27.96,24.64,12.54,32.5,48.79,-24.21,-4.56,6.87,19.33,24.64,27.96,0,8.63,0.23
rw_cut_5_p1_ch3_opt_disp_struct_17.xyz,Nucleus 17H :,1.738617,1.287655,3.031704,24.2,20.56,25.14,26.89,44.92,28.52,33.12,-19.67,-7.83,-6.47,20.56,25.14,26.89,0,6.33,0.45
rw_cut_5_p1_ch3_opt_disp_struct_17.xyz,Nucleus 18H :,0.33399,-0.135347,2.338316,28.9,35.59,26.83,24.29,44.17,26.79,33.04,-0.12,-10.19,-6.97,24.29,26.83,35.59,0,11.3,-0.55
rw_cut_5_p1_ch3_opt_disp_struct_17.xyz,Nucleus 19H :,0.052322,-0.559436,1.040217,29.16,23.8,29.42,34.25,43.84,20.96,27.6,-10.14,3.01,2.21,23.8,29.42,34.25,0,10.45,0.07
rw_cut_5_p1_ch3_opt_disp_struct_17.xyz,Nucleus 20H :,-0.97321,-1.511113,0.852551,28.51,34.65,24.16,26.71,39.89,14.52,27.06,10.29,-6.01,-0.23,24.16,26.71,34.65,0,10.49,-0.51
rw_cut_5_p1_ch3_opt_disp_struct_17.xyz,Nucleus 21H :,-1.225032,-1.856712,-0.145811,28.89,34.67,24.16,27.85,41.69,11.18,25.25,13.08,-7.19,2.67,24.16,27.85,34.67,0,10.51,-0.3
rw_cut_5_p1_ch3_opt_disp_struct_17.xyz,Nucleus 23H :,-1.680584,-2.010442,1.959168,28.52,34.39,24.39,26.78,-15.76,16.81,39.54,42.61,8.72,-6.37,24.39,26.78,34.39,0,10.0,-0.52
rw_cut_5_p1_ch3_opt_disp_struct_17.xyz,Nucleus 24H :,-2.770822,-3.025008,1.773721,28.54,35.11,26.37,24.15,-15.28,17.02,41.47,42.64,7.69,-7.91,24.15,26.37,35.11,0,10.96,-0.59
rw_cut_5_p1_ch3_opt_disp_struct_17.xyz,Nucleus 26H :,-1.364477,-1.557955,3.244286,26.88,18.68,33.92,28.03,-3.67,51.64,27.66,22.99,-18.06,0.07,18.68,28.03,33.92,0,15.24,0.23
rw_cut_5_p1_ch3_opt_disp_struct_17.xyz,Nucleus 29H :,-1.936759,-1.920787,4.094506,26.63,35.83,23.94,20.12,85.78,29.28,45.55,-65.59,-10.51,-4.62,20.12,23.94,35.83,0,15.71,-0.51
rw_cut_5_p1_ch3_opt_disp_struct_17.xyz,Nucleus 31H :,-0.354531,-0.614026,3.458123,26.58,33.65,26.24,19.86,59.77,25.2,-2.35,-26.2,1.0,22.34,19.86,26.24,33.65,0,13.79,-0.07
rw_cut_5_p1_ch3_opt_disp_struct_17.xyz,Nucleus 32H :,-0.127967,-0.257962,4.458005,26.22,34.82,19.93,23.92,65.68,42.73,31.47,-45.54,-8.13,-7.54,19.93,23.92,34.82,0,14.89,-0.46
rw_cut_5_p1_ch3_opt_disp_struct_17.xyz,Nucleus 33H :,2.507273,1.646626,0.665813,28.15,34.96,25.95,23.55,-33.55,38.21,9.75,57.21,-3.29,16.12,23.55,25.95,34.96,0,11.41,-0.58
rw_cut_5_p1_ch3_opt_disp_struct_17.xyz,Nucleus 34H :,0.082672,0.339744,-1.793273,27.0,34.64,25.64,20.73,53.82,26.92,37.61,-26.22,-10.27,-0.84,20.73,25.64,34.64,0,13.91,-0.29
rw_cut_5_p1_ch3_opt_disp_struct_17.xyz,Nucleus 0C :,-2.823152,-3.373133,0.74039,172.9,160.9,169.42,188.39,236.35,240.74,258.87,-78.72,-72.59,-65.93,160.9,169.42,188.39,0,27.49,-0.38
rw_cut_5_p1_ch3_opt_disp_struct_17.xyz,Nucleus 3C :,-3.746257,-2.599548,2.033614,63.21,148.93,51.93,-11.23,241.84,277.29,262.49,-93.02,-224.32,-274.66,-11.23,51.93,148.93,0,160.16,-0.21
rw_cut_5_p1_ch3_opt_disp_struct_17.xyz,Nucleus 4C :,-2.621697,-3.897154,2.419652,55.37,-30.35,127.64,68.83,259.43,257.14,275.81,-294.03,-131.36,-200.87,-30.35,68.83,127.64,0,157.99,0.26
rw_cut_5_p1_ch3_opt_disp_struct_17.xyz,Nucleus 7C :,5.604832,-9.239714,3.893046,43.2,142.96,-34.58,21.21,272.34,268.15,266.56,-124.67,-306.41,-246.38,-34.58,21.21,142.96,0,177.54,-0.37
rw_cut_5_p1_ch3_opt_disp_struct_17.xyz,Nucleus 8C :,5.584971,-8.833711,4.909567,48.88,168.01,0.35,-21.71,225.3,268.11,257.38,-57.69,-265.62,-280.84,-21.71,0.35,168.01,0,189.72,-0.77
rw_cut_5_p1_ch3_opt_disp_struct_17.xyz,Nucleus 9C :,4.752517,-9.913541,3.743164,55.21,158.47,49.79,-42.62,249.58,273.76,269.25,-91.43,-223.05,-312.47,-42.62,49.79,158.47,0,201.09,-0.08
rw_cut_5_p1_ch3_opt_disp_struct_17.xyz,Nucleus 11C :,5.628374,-8.160646,2.908905,44.62,173.42,-60.71,21.15,234.91,262.98,275.95,-61.52,-325.52,-252.94,-60.71,21.15,173.42,0,234.13,-0.3
rw_cut_5_p1_ch3_opt_disp_struct_17.xyz,Nucleus 12C :,6.256478,-8.262588,2.128683,161.22,188.95,137.8,156.9,256.13,219.3,230.09,-62.95,-75.43,-83.47,137.8,156.9,188.95,0,51.15,-0.25
rw_cut_5_p1_ch3_opt_disp_struct_17.xyz,Nucleus 13C :,4.729851,-7.167611,2.831764,52.5,164.44,47.44,-54.37,231.19,258.25,276.12,-66.75,-228.48,-312.81,-54.37,47.44,164.44,0,218.81,-0.07
rw_cut_5_p1_ch3_opt_disp_struct_17.xyz,Nucleus 15C :,4.864669,-6.244938,1.878869,65.65,170.08,52.67,-25.79,243.37,273.3,265.61,-73.98,-219.77,-291.57,-25.79,52.67,170.08,0,195.87,-0.2
rw_cut_5_p1_ch3_opt_disp_struct_17.xyz,Nucleus 22C :,4.170293,-5.514495,1.744511,155.18,130.37,146.66,188.51,184.96,205.62,276.29,-38.44,-73.77,-89.11,130.37,146.66,188.51,0,58.14,-0.44
rw_cut_5_p1_ch3_opt_disp_struct_17.xyz,Nucleus 27C :,3.705415,-7.0665,3.678889,21.22,115.5,-16.75,-35.1,242.43,274.13,262.48,-126.96,-281.13,-307.3,-35.1,-16.75,115.5,0,150.6,-0.76
rw_cut_5_p1_ch3_opt_disp_struct_17.xyz,Nucleus 5N :,3.497971,-7.812416,4.320798,118.96,57.48,169.25,130.14,300.98,336.11,331.55,-131.83,-205.63,-274.31,57.48,130.14,169.25,0,111.77,0.3
rw_cut_5_p1_ch3_opt_disp_struct_17.xyz,Nucleus 25N :,3.084307,-6.258032,3.655792,167.21,99.41,221.16,181.05,269.38,351.66,330.38,-238.78,-86.77,-124.25,99.41,181.05,221.16,0,121.75,0.34
rw_cut_5_p1_ch3_opt_disp_struct_17.xyz,Nucleus 28N :,6.522109,-9.818656,3.785783,174.72,114.15,176.23,233.79,321.8,351.87,336.71,-213.9,-169.83,-102.48,114.15,176.23,233.79,0,119.64,0.04
rw_cut_5_p1_ch3_opt_disp_struct_17.xyz,Nucleus 30N :,5.716038,-6.178158,1.347487,173.7,113.94,212.68,194.49,300.7,343.16,324.11,-211.85,-104.43,-130.58,113.94,194.49,212.68,0,98.74,0.63
rw_cut_5_p1_ch3_opt_disp_struct_18.xyz,Nucleus 1H :,1.014023,0.00841,-1.320169,29.06,35.08,23.37,28.74,40.13,26.91,31.32,-6.54,-3.06,-1.58,23.37,28.74,35.08,0,11.71,-0.08
rw_cut_5_p1_ch3_opt_disp_struct_18.xyz,Nucleus 2H :,1.825936,0.614139,-1.728393,29.13,24.33,27.66,35.39,47.23,29.23,25.95,-12.51,-4.23,1.71,24.33,27.66,35.39,0,11.06,-0.4
rw_cut_5_p1_ch3_opt_disp_struct_18.xyz,Nucleus 6H :,1.178602,-1.028335,-1.637929,24.0,16.11,24.96,30.92,50.81,15.44,30.27,-20.23,-5.26,0.96,16.11,24.96,30.92,0,14.81,0.19
rw_cut_5_p1_ch3_opt_disp_struct_18.xyz,Nucleus 10H :,0.944671,0.132099,0.158764,23.71,29.85,18.99,22.28,50.95,40.46,34.14,-4.63,-21.18,-28.62,18.99,22.28,29.85,0,10.86,-0.4
rw_cut_5_p1_ch3_opt_disp_struct_18.xyz,Nucleus 14H :,1.729457,0.951462,0.946233,23.92,28.6,19.83,23.33,10.35,33.33,46.48,-23.15,9.49,-4.74,19.83,23.33,28.6,0,8.77,-0.2
rw_cut_5_p1_ch3_opt_disp_struct_18.xyz,Nucleus 16H :,1.355472,0.780761,2.251539,23.98,19.33,27.97,24.64,12.51,32.49,48.7,-24.11,-4.54,6.89,19.33,24.64,27.97,0,8.64,0.23
rw_cut_5_p1_ch3_opt_disp_struct_18.xyz,Nucleus 17H :,1.738617,1.287655,3.031704,24.2,20.56,25.14,26.9,44.89,28.52,33.07,-19.64,-7.83,-6.4,20.56,25.14,26.9,0,6.34,0.44
rw_cut_5_p1_ch3_opt_disp_struct_18.xyz,Nucleus 18H :,0.33399,-0.135347,2.338316,28.91,35.59,26.84,24.3,44.15,26.76,33.02,-0.1,-10.2,-6.9,24.3,26.84,35.59,0,11.29,-0.55
rw_cut_5_p1_ch3_opt_disp_struct_18.xyz,Nucleus 19H :,0.052322,-0.559436,1.040217,29.16,23.79,29.44,34.26,43.74,20.98,27.58,-10.03,2.99,2.22,23.79,29.44,34.26,0,10.47,0.08
rw_cut_5_p1_ch3_opt_disp_struct_18.xyz,Nucleus 20H :,-0.97321,-1.511113,0.852551,28.52,34.65,24.17,26.73,39.88,14.55,27.03,10.26,-5.97,-0.2,24.17,26.73,34.65,0,10.48,-0.51
rw_cut_5_p1_ch3_opt_disp_struct_18.xyz,Nucleus 21H :,-1.225032,-1.856712,-0.145811,28.89,34.68,24.14,27.85,41.61,11.12,25.25,13.11,-7.09,2.67,24.14,27.85,34.68,0,10.54,-0.3
rw_cut_5_p1_ch3_opt_disp_struct_18.xyz,Nucleus 23H :,-1.680584,-2.010442,1.959168,28.51,34.38,24.39,26.76,-16.59,16.73,39.61,43.47,8.79,-6.47,24.39,26.76,34.38,0,9.99,-0.53
rw_cut_5_p1_ch3_opt_disp_struct_18.xyz,Nucleus 24H :,-2.770822,-3.025008,1.773721,28.54,35.1,26.36,24.15,-16.17,16.96,41.58,43.55,7.74,-8.05,24.15,26.36,35.1,0,10.95,-0.6
rw_cut_5_p1_ch3_opt_disp_struct_18.xyz,Nucleus 26H :,-1.364477,-1.557955,3.244286,26.87,18.69,33.91,28.01,-4.92,51.82,27.54,24.24,-18.27,0.19,18.69,28.01,33.91,0,15.22,0.22
rw_cut_5_p1_ch3_opt_disp_struct_18.xyz,Nucleus 29H :,-1.936759,-1.920787,4.094506,26.6,35.71,23.95,20.15,87.48,29.54,45.34,-67.26,-10.51,-4.78,20.15,23.95,35.71,0,15.56,-0.51
rw_cut_5_p1_ch3_opt_disp_struct_18.xyz,Nucleus 31H :,-0.354531,-0.614026,3.458123,26.57,33.65,26.2,19.87,60.21,25.2,-2.49,-26.65,0.96,22.5,19.87,26.2,33.65,0,13.78,-0.08
rw_cut_5_p1_ch3_opt_disp_struct_18.xyz,Nucleus 32H :,-0.127967,-0.257962,4.458005,26.2,34.73,19.95,23.92,67.27,42.71,31.68,-47.12,-8.17,-7.77,19.95,23.92,34.73,0,14.78,-0.46
rw_cut_5_p1_ch3_opt_disp_struct_18.xyz,Nucleus 33H :,2.507273,1.646626,0.665813,28.15,34.94,25.95,23.55,-34.85,38.19,9.44,58.52,-3.28,16.43,23.55,25.95,34.94,0,11.39,-0.58
rw_cut_5_p1_ch3_opt_disp_struct_18.xyz,Nucleus 34H :,0.082672,0.339744,-1.793273,26.99,34.64,25.58,20.74,54.09,26.77,37.67,-26.47,-10.35,-0.75,20.74,25.58,34.64,0,13.9,-0.3
rw_cut_5_p1_ch3_opt_disp_struct_18.xyz,Nucleus 0C :,-2.823152,-3.373133,0.74039,172.9,160.91,169.39,188.41,236.3,240.78,258.77,-78.6,-72.63,-65.92,160.91,169.39,188.41,0,27.5,-0.38
rw_cut_5_p1_ch3_opt_disp_struct_18.xyz,Nucleus 3C :,-3.746257,-2.599548,2.033614,63.22,148.92,51.97,-11.23,241.83,277.13,262.45,-93.01,-224.11,-274.62,-11.23,51.97,148.92,0,160.15,-0.21
rw_cut_5_p1_ch3_opt_disp_struct_18.xyz,Nucleus 4C :,-2.621697,-3.897154,2.419652,55.43,-30.27,127.61,68.96,259.32,257.28,275.7,-293.99,-131.38,-200.61,-30.27,68.96,127.61,0,157.88,0.26
rw_cut_5_p1_ch3_opt_disp_struct_18.xyz,Nucleus 7C :,5.771942,-9.424103,3.917025,43.18,142.93,-34.61,21.22,272.26,268.28,266.44,-124.75,-306.31,-246.37,-34.61,21.22,142.93,0,177.54,-0.37
rw_cut_5_p1_ch3_opt_disp_struct_18.xyz,Nucleus 8C :,5.752081,-9.0181,4.933547,48.88,167.99,0.36,-21.72,225.27,267.85,257.4,-57.66,-265.44,-280.78,-21.72,0.36,167.99,0,189.71,-0.77
rw_cut_5_p1_ch3_opt_disp_struct_18.xyz,Nucleus 9C :,4.919626,-10.09793,3.767144,55.2,158.43,49.81,-42.65,249.64,273.55,269.13,-91.49,-222.9,-312.34,-42.65,49.81,158.43,0,201.08,-0.08
rw_cut_5_p1_ch3_opt_disp_struct_18.xyz,Nucleus 11C :,5.795484,-8.345035,2.932884,44.65,173.39,-60.69,21.24,234.87,262.93,275.8,-61.51,-325.39,-252.77,-60.69,21.24,173.39,0,234.08,-0.3
rw_cut_5_p1_ch3_opt_disp_struct_18.xyz,Nucleus 12C :,6.423587,-8.446977,2.152663,161.22,188.96,137.78,156.92,255.99,219.5,230.02,-62.79,-75.52,-83.52,137.78,156.92,188.96,0,51.18,-0.25
rw_cut_5_p1_ch3_opt_disp_struct_18.xyz,Nucleus 13C :,4.896961,-7.352,2.855744,52.48,164.41,47.42,-54.4,231.09,258.27,275.95,-66.69,-228.34,-312.86,-54.4,47.42,164.41,0,218.81,-0.07
rw_cut_5_p1_ch3_opt_disp_struct_18.xyz,Nucleus 15C :,5.031779,-6.429327,1.902849,65.66,170.04,52.72,-25.77,243.47,273.25,265.48,-74.05,-219.63,-291.53,-25.77,52.72,170.04,0,195.81,-0.2
rw_cut_5_p1_ch3_opt_disp_struct_18.xyz,Nucleus 22C :,4.337402,-5.698884,1.768491,155.17,130.36,146.66,188.5,184.1,205.19,276.87,-37.58,-73.46,-89.59,130.36,146.66,188.5,0,58.14,-0.44
rw_cut_5_p1_ch3_opt_disp_struct_18.xyz,Nucleus 27C :,3.872525,-7.250889,3.702869,21.2,115.51,-16.77,-35.13,242.71,274.51,262.36,-127.23,-281.07,-307.68,-35.13,-16.77,115.51,0,150.64,-0.76
rw_cut_5_p1_ch3_opt_disp_struct_18.xyz,Nucleus 5N :,3.665081,-7.996805,4.344777,119.0,57.57,169.21,130.23,300.93,336.12,331.44,-131.82,-205.57,-274.1,57.57,130.23,169.21,0,111.64,0.3
rw_cut_5_p1_ch3_opt_disp_struct_18.xyz,Nucleus 25N :,3.251417,-6.442421,3.679772,167.15,99.32,221.05,181.07,267.96,352.09,330.33,-239.26,-85.34,-124.33,99.32,181.07,221.05,0,121.73,0.34
rw_cut_5_p1_ch3_opt_disp_struct_18.xyz,Nucleus 28N :,6.689219,-10.003045,3.809762,174.72,114.14,176.22,233.81,352.87,321.76,336.83,-214.09,-170.69,-102.5,114.14,176.22,233.81,0,119.67,0.04
rw_cut_5_p1_ch3_opt_disp_struct_18.xyz,Nucleus 30N :,5.883148,-6.362547,1.371466,173.69,113.89,212.71,194.48,301.22,343.52,324.06,-211.89,-104.96,-130.86,113.89,194.48,212.71,0,98.82,0.63
rw_cut_5_p1_ch3_opt_disp_struct_19.xyz,Nucleus 1H :,1.014023,0.00841,-1.320169,29.07,35.08,23.37,28.75,40.13,26.91,31.24,-6.53,-2.99,-1.56,23.37,28.75,35.08,0,11.71,-0.08
rw_cut_5_p1_ch3_opt_disp_struct_19.xyz,Nucleus 2H :,1.825936,0.614139,-1.728393,29.12,24.32,27.65,35.39,47.13,29.17,25.92,-12.45,-4.14,1.73,24.32,27.65,35.39,0,11.07,-0.4
rw_cut_5_p1_ch3_opt_disp_struct_19.xyz,Nucleus 6H :,1.178602,-1.028335,-1.637929,24.0,16.11,24.97,30.93,50.71,15.44,30.29,-20.11,-5.26,0.95,16.11,24.97,30.93,0,14.82,0.2
rw_cut_5_p1_ch3_opt_disp_struct_19.xyz,Nucleus 10H :,0.944671,0.132099,0.158764,23.71,29.86,18.98,22.29,50.83,40.42,34.1,-4.56,-21.17,-28.49,18.98,22.29,29.86,0,10.88,-0.39
rw_cut_5_p1_ch3_opt_disp_struct_19.xyz,Nucleus 14H :,1.729457,0.951462,0.946233,23.93,28.62,19.82,23.34,10.29,33.26,46.46,-23.12,9.54,-4.65,19.82,23.34,28.62,0,8.8,-0.2
rw_cut_5_p1_ch3_opt_disp_struct_19.xyz,Nucleus 16H :,1.355472,0.780761,2.251539,23.98,19.32,27.98,24.65,12.48,32.48,48.62,-24.02,-4.51,6.9,19.32,24.65,27.98,0,8.66,0.23
rw_cut_5_p1_ch3_opt_disp_struct_19.xyz,Nucleus 17H :,1.738617,1.287655,3.031704,24.21,20.57,25.15,26.91,44.86,28.53,33.02,-19.6,-7.84,-6.33,20.57,25.15,26.91,0,6.34,0.44
rw_cut_5_p1_ch3_opt_disp_struct_19.xyz,Nucleus 18H :,0.33399,-0.135347,2.338316,28.92,35.59,26.85,24.31,44.14,26.73,33.0,-0.07,-10.22,-6.83,24.31,26.85,35.59,0,11.28,-0.55
rw_cut_5_p1_ch3_opt_disp_struct_19.xyz,Nucleus 19H :,0.052322,-0.559436,1.040217,29.17,23.78,29.45,34.27,43.65,21.0,27.56,-9.92,2.97,2.23,23.78,29.45,34.27,0,10.49,0.08
rw_cut_5_p1_ch3_opt_disp_struct_19.xyz,Nucleus 20H :,-0.97321,-1.511113,0.852551,28.52,34.65,24.18,26.74,39.87,14.57,27.0,10.24,-5.94,-0.17,24.18,26.74,34.65,0,10.47,-0.51
rw_cut_5_p1_ch3_opt_disp_struct_19.xyz,Nucleus 21H :,-1.225032,-1.856712,-0.145811,28.88,34.68,24.12,27.85,41.53,11.07,25.25,13.13,-7.01,2.67,24.12,27.85,34.68,0,10.56,-0.29
rw_cut_5_p1_ch3_opt_disp_struct_19.xyz,Nucleus 23H :,-1.680584,-2.010442,1.959168,28.51,34.38,24.39,26.75,-17.43,16.65,39.68,44.33,8.86,-6.57,24.39,26.75,34.38,0,9.99,-0.53
rw_cut_5_p1_ch3_opt_disp_struct_19.xyz,Nucleus 24H :,-2.770822,-3.025008,1.773721,28.53,35.1,26.35,24.15,-17.06,16.9,41.7,44.46,7.79,-8.19,24.15,26.35,35.1,0,10.95,-0.6
rw_cut_5_p1_ch3_opt_disp_struct_19.xyz,Nucleus 26H :,-1.364477,-1.557955,3.244286,26.86,18.69,33.9,27.99,-6.17,52.01,27.41,25.49,-18.47,0.31,18.69,27.99,33.9,0,15.21,0.22
rw_cut_5_p1_ch3_opt_disp_struct_19.xyz,Nucleus 29H :,-1.936759,-1.920787,4.094506,26.58,35.6,23.96,20.18,89.17,45.15,29.79,-68.92,-10.51,-4.93,20.18,23.96,35.6,0,15.42,-0.51
rw_cut_5_p1_ch3_opt_disp_struct_19.xyz,Nucleus 31H :,-0.354531,-0.614026,3.458123,26.56,33.64,26.16,19.88,60.65,25.19,-2.65,-27.1,0.93,22.65,19.88,26.16,33.64,0,13.76,-0.09
rw_cut_5_p1_ch3_opt_disp_struct_19.xyz,Nucleus 32H :,-0.127967,-0.257962,4.458005,26.18,34.64,19.98,23.93,68.86,42.69,31.88,-48.69,-8.27,-7.93,19.98,23.93,34.64,0,14.66,-0.46
rw_cut_5_p1_ch3_opt_disp_struct_19.xyz,Nucleus 33H :,2.507273,1.646626,0.665813,28.14,34.92,25.95,23.55,-36.16,38.16,9.14,59.82,-3.28,16.74,23.55,25.95,34.92,0,11.37,-0.58
rw_cut_5_p1_ch3_opt_disp_struct_19.xyz,Nucleus 34H :,0.082672,0.339744,-1.793273,26.97,34.64,25.52,20.75,54.37,26.63,37.74,-26.72,-10.43,-0.67,20.75,25.52,34.64,0,13.89,-0.31
rw_cut_5_p1_ch3_opt_disp_struct_19.xyz,Nucleus 0C :,-2.823152,-3.373133,0.74039,172.9,160.92,169.36,188.42,236.26,240.81,258.68,-78.48,-72.66,-65.91,160.92,169.36,188.42,0,27.5,-0.39
rw_cut_5_p1_ch3_opt_disp_struct_19.xyz,Nucleus 3C :,-3.746257,-2.599548,2.033614,63.23,148.91,52.01,-11.23,241.82,276.97,262.41,-93.01,-223.92,-274.59,-11.23,52.01,148.91,0,160.14,-0.21
rw_cut_5_p1_ch3_opt_disp_struct_19.xyz,Nucleus 4C :,-2.621697,-3.897154,2.419652,55.49,-30.19,127.58,69.08,259.21,257.41,275.59,-293.95,-131.41,-200.38,-30.19,69.08,127.58,0,157.77,0.26
rw_cut_5_p1_ch3_opt_disp_struct_19.xyz,Nucleus 7C :,5.939052,-9.608492,3.941005,43.17,142.91,-34.63,21.24,272.19,268.4,266.33,-124.83,-306.21,-246.36,-34.63,21.24,142.91,0,177.54,-0.37
rw_cut_5_p1_ch3_opt_disp_struct_19.xyz,Nucleus 8C :,5.919191,-9.202489,4.957527,48.88,167.98,0.38,-21.72,225.24,267.6,257.41,-57.63,-265.28,-280.72,-21.72,0.38,167.98,0,189.7,-0.77
rw_cut_5_p1_ch3_opt_disp_struct_19.xyz,Nucleus 9C :,5.086736,-10.282319,3.791124,55.19,158.4,49.83,-42.67,249.7,273.37,269.01,-91.54,-222.76,-312.21,-42.67,49.83,158.4,0,201.07,-0.08
rw_cut_5_p1_ch3_opt_disp_struct_19.xyz,Nucleus 11C :,5.962594,-8.529424,2.956864,44.66,173.36,-60.68,21.31,234.82,262.88,275.66,-61.49,-325.26,-252.61,-60.68,21.31,173.36,0,234.04,-0.3
rw_cut_5_p1_ch3_opt_disp_struct_19.xyz,Nucleus 12C :,6.590697,-8.631366,2.176642,161.23,188.97,137.77,156.94,255.86,219.68,229.96,-62.64,-75.59,-83.58,137.77,156.94,188.97,0,51.2,-0.25
rw_cut_5_p1_ch3_opt_disp_struct_19.xyz,Nucleus 13C :,5.06407,-7.536389,2.879724,52.45,164.37,47.41,-54.42,230.99,258.29,275.8,-66.63,-228.19,-312.9,-54.42,47.41,164.37,0,218.79,-0.07
rw_cut_5_p1_ch3_opt_disp_struct_19.xyz,Nucleus 15C :,5.198889,-6.613716,1.926828,65.67,170.0,52.76,-25.76,243.55,273.2,265.36,-74.12,-219.5,-291.5,-25.76,52.76,170.0,0,195.76,-0.2
rw_cut_5_p1_ch3_opt_disp_struct_19.xyz,Nucleus 22C :,4.504512,-5.883273,1.792471,155.17,130.35,146.67,188.49,183.24,204.76,277.44,-36.72,-73.14,-90.08,130.35,146.67,188.49,0,58.14,-0.44
rw_cut_5_p1_ch3_opt_disp_struct_19.xyz,Nucleus 27C :,4.039635,-7.435278,3.726849,21.19,115.52,-16.79,-35.16,243.0,274.89,262.25,-127.5,-281.02,-308.04,-35.16,-16.79,115.52,0,150.68,-0.76
rw_cut_5_p1_ch3_opt_disp_struct_19.xyz,Nucleus 5N :,3.832191,-8.181194,4.368757,119.04,57.65,169.17,130.31,300.89,336.13,331.34,-131.81,-205.52,-273.9,57.65,130.31,169.17,0,111.52,0.3
rw_cut_5_p1_ch3_opt_disp_struct_19.xyz,Nucleus 25N :,3.418527,-6.62681,3.703751,167.09,99.24,220.95,181.09,266.54,352.52,330.28,-239.73,-83.91,-124.41,99.24,181.09,220.95,0,121.71,0.35
rw_cut_5_p1_ch3_opt_disp_struct_19.xyz,Nucleus 28N :,6.856328,-10.187434,3.833742,174.72,114.12,176.22,233.82,353.85,321.72,336.95,-214.29,-171.54,-102.53,114.12,176.22,233.82,0,119.7,0.04
rw_cut_5_p1_ch3_opt_disp_struct_19.xyz,Nucleus 30N :,6.050257,-6.546936,1.395446,173.69,113.86,212.74,194.46,301.72,343.87,324.02,-211.94,-105.48,-131.13,113.86,194.46,212.74,0,98.88,0.63
rw_cut_5_p1_ch3_opt_disp_struct_2.xyz,Nucleus 1H :,1.014023,0.00841,-1.320169,28.89,35.23,23.18,28.25,40.36,26.39,32.62,-1.51,-6.49,-4.71,23.18,28.25,35.23,0,12.05,-0.16
rw_cut_5_p1_ch3_opt_disp_struct_2.xyz,Nucleus 2H :,1.825936,0.614139,-1.728393,29.21,35.07,24.38,28.19,49.39,29.92,26.61,1.61,-5.36,-14.54,24.38,28.19,35.07,0,10.69,-0.29
rw_cut_5_p1_ch3_opt_disp_struct_2.xyz,Nucleus 6H :,1.178602,-1.028335,-1.637929,23.64,15.8,24.53,30.58,52.66,28.97,14.9,-22.6,-4.58,1.57,15.8,24.53,30.58,0,14.78,0.18
rw_cut_5_p1_ch3_opt_disp_struct_2.xyz,Nucleus 10H :,0.944671,0.132099,0.158764,23.49,29.11,19.0,22.35,53.39,42.08,34.87,-6.58,-22.15,-31.15,19.0,22.35,29.11,0,10.11,-0.34
rw_cut_5_p1_ch3_opt_disp_struct_2.xyz,Nucleus 14H :,1.729457,0.951462,0.946233,23.78,27.76,23.47,20.1,13.61,31.98,46.34,-23.19,6.83,-4.24,20.1,23.47,27.76,0,7.66,-0.12
rw_cut_5_p1_ch3_opt_disp_struct_2.xyz,Nucleus 16H :,1.355472,0.780761,2.251539,23.68,19.23,27.27,24.55,13.15,30.97,50.04,-25.84,-3.82,6.54,19.23,24.55,27.27,0,8.04,0.32
rw_cut_5_p1_ch3_opt_disp_struct_2.xyz,Nucleus 17H :,1.738617,1.287655,3.031704,23.91,20.18,25.05,26.51,45.12,27.7,34.03,-19.99,-7.12,-8.01,20.18,25.05,26.51,0,6.33,0.54
rw_cut_5_p1_ch3_opt_disp_struct_2.xyz,Nucleus 18H :,0.33399,-0.135347,2.338316,28.81,35.79,26.61,24.02,44.64,27.3,33.2,-0.46,-9.73,-8.51,24.02,26.61,35.79,0,11.77,-0.56
rw_cut_5_p1_ch3_opt_disp_struct_2.xyz,Nucleus 19H :,0.052322,-0.559436,1.040217,28.98,23.75,29.0,34.2,44.93,21.08,27.47,-11.73,3.06,2.14,23.75,29.0,34.2,0,10.45,0.01
rw_cut_5_p1_ch3_opt_disp_struct_2.xyz,Nucleus 20H :,-0.97321,-1.511113,0.852551,28.35,34.91,26.29,23.85,40.42,13.61,26.51,11.23,-6.69,-0.04,23.85,26.29,34.91,0,11.06,-0.56
rw_cut_5_p1_ch3_opt_disp_struct_2.xyz,Nucleus 21H :,-1.225032,-1.856712,-0.145811,28.91,34.31,24.5,27.93,43.53,12.83,22.37,-9.34,12.25,5.1,24.5,27.93,34.31,0,9.81,-0.3
rw_cut_5_p1_ch3_opt_disp_struct_2.xyz,Nucleus 23H :,-1.680584,-2.010442,1.959168,28.75,34.63,24.36,27.27,-2.98,18.16,39.1,29.21,7.85,-5.07,24.36,27.27,34.63,0,10.27,-0.43
rw_cut_5_p1_ch3_opt_disp_struct_2.xyz,Nucleus 24H :,-2.770822,-3.025008,1.773721,28.75,35.34,26.77,24.15,-1.48,17.85,40.27,28.37,7.17,-5.92,24.15,26.77,35.34,0,11.19,-0.53
rw_cut_5_p1_ch3_opt_disp_struct_2.xyz,Nucleus 26H :,-1.364477,-1.557955,3.244286,27.35,18.57,34.59,28.89,48.88,15.65,30.38,-14.47,3.89,-2.28,18.57,28.89,34.59,0,16.02,0.29
rw_cut_5_p1_ch3_opt_disp_struct_2.xyz,Nucleus 29H :,-1.936759,-1.920787,4.094506,28.11,43.21,22.92,18.21,20.41,56.7,53.71,-37.24,2.68,-11.93,18.21,22.92,43.21,0,25.0,-0.62
rw_cut_5_p1_ch3_opt_disp_struct_2.xyz,Nucleus 31H :,-0.354531,-0.614026,3.458123,27.17,19.86,27.5,34.14,-0.5,25.04,53.74,20.51,2.48,-19.77,19.86,27.5,34.14,0,14.28,0.07
rw_cut_5_p1_ch3_opt_disp_struct_2.xyz,Nucleus 32H :,-0.127967,-0.257962,4.458005,27.19,41.04,18.18,22.35,23.87,37.75,47.21,-19.5,-0.65,-7.12,18.18,22.35,41.04,0,22.86,-0.64
rw_cut_5_p1_ch3_opt_disp_struct_2.xyz,Nucleus 33H :,2.507273,1.646626,0.665813,28.39,35.65,25.98,23.55,-13.16,38.97,14.46,36.83,-3.35,11.44,23.55,25.98,35.65,0,12.1,-0.6
rw_cut_5_p1_ch3_opt_disp_struct_2.xyz,Nucleus 34H :,0.082672,0.339744,-1.793273,27.86,20.43,34.66,28.49,49.35,31.32,35.14,-21.82,-7.75,-2.65,20.43,28.49,34.66,0,14.23,0.13
rw_cut_5_p1_ch3_opt_disp_struct_2.xyz,Nucleus 0C :,-2.823152,-3.373133,0.74039,173.2,160.8,170.5,188.29,237.02,240.88,261.41,-82.0,-71.32,-66.39,160.8,170.5,188.29,0,27.49,-0.29
rw_cut_5_p1_ch3_opt_disp_struct_2.xyz,Nucleus 3C :,-3.746257,-2.599548,2.033614,63.08,149.07,50.55,-10.38,242.42,281.71,263.82,-93.93,-230.36,-274.43,-10.38,50.55,149.07,0,159.45,-0.24
rw_cut_5_p1_ch3_opt_disp_struct_2.xyz,Nucleus 4C :,-2.621697,-3.897154,2.419652,51.53,-35.52,128.51,61.61,259.74,254.91,279.28,-298.83,-129.68,-210.82,-35.52,61.61,128.51,0,164.03,0.18
rw_cut_5_p1_ch3_opt_disp_struct_2.xyz,Nucleus 7C :,3.098186,-6.473879,3.53335,43.7,144.16,-32.84,19.78,273.98,266.08,267.58,-122.49,-306.64,-247.42,-32.84,19.78,144.16,0,177.0,-0.41
rw_cut_5_p1_ch3_opt_disp_struct_2.xyz,Nucleus 8C :,3.078325,-6.067876,4.549872,50.16,168.94,0.98,-19.43,225.51,271.55,253.83,-57.04,-263.43,-279.92,-19.43,0.98,168.94,0,188.37,-0.78
rw_cut_5_p1_ch3_opt_disp_struct_2.xyz,Nucleus 9C :,2.24587,-7.147706,3.383469,55.38,160.32,47.16,-41.33,249.92,278.32,271.69,-90.86,-229.1,-313.83,-41.33,47.16,160.32,0,201.65,-0.12
rw_cut_5_p1_ch3_opt_disp_struct_2.xyz,Nucleus 11C :,3.121728,-5.394811,2.54921,42.61,174.77,-61.25,14.3,237.27,262.91,278.45,-63.3,-326.7,-260.81,-61.25,14.3,174.77,0,236.02,-0.36
rw_cut_5_p1_ch3_opt_disp_struct_2.xyz,Nucleus 12C :,3.749831,-5.496753,1.768988,161.18,188.71,138.89,155.94,259.25,216.76,230.15,-65.19,-73.6,-83.83,138.89,155.94,188.71,0,49.82,-0.32
rw_cut_5_p1_ch3_opt_disp_struct_2.xyz,Nucleus 13C :,2.223205,-4.401776,2.472069,55.07,166.34,48.98,-50.11,230.21,277.18,257.71,-67.26,-227.73,-304.88,-50.11,48.98,166.34,0,216.45,-0.08
rw_cut_5_p1_ch3_opt_disp_struct_2.xyz,Nucleus 15C :,2.358023,-3.479103,1.519174,63.99,171.98,47.45,-27.46,240.01,273.4,267.46,-71.19,-225.51,-292.21,-27.46,47.45,171.98,0,199.44,-0.25
rw_cut_5_p1_ch3_opt_disp_struct_2.xyz,Nucleus 22C :,1.663646,-2.74866,1.384816,155.5,130.99,146.63,188.87,199.26,212.52,267.4,-52.71,-85.06,-74.93,130.99,146.63,188.87,0,57.88,-0.46
rw_cut_5_p1_ch3_opt_disp_struct_2.xyz,Nucleus 27C :,1.198769,-4.300665,3.319194,21.81,115.63,-17.7,-32.51,237.46,267.43,265.96,-121.85,-284.98,-298.59,-32.51,-17.7,115.63,0,148.14,-0.8
rw_cut_5_p1_ch3_opt_disp_struct_2.xyz,Nucleus 5N :,0.991325,-5.04658,3.961103,114.78,50.38,170.74,123.23,300.49,336.77,332.68,-130.59,-211.73,-283.26,50.38,123.23,170.74,0,120.36,0.21
rw_cut_5_p1_ch3_opt_disp_struct_2.xyz,Nucleus 25N :,0.577661,-3.492196,3.296097,171.03,105.63,227.66,179.8,293.38,346.85,330.89,-227.3,-109.9,-120.82,105.63,179.8,227.66,0,122.03,0.22
rw_cut_5_p1_ch3_opt_disp_struct_2.xyz,Nucleus 28N :,4.015463,-7.052821,3.426087,173.63,114.2,176.75,229.93,319.68,333.93,337.93,-211.86,-152.45,-106.35,114.2,176.75,229.93,0,115.73,0.08
rw_cut_5_p1_ch3_opt_disp_struct_2.xyz,Nucleus 30N :,3.209392,-3.412323,0.987792,172.31,114.45,207.22,195.25,289.26,336.38,325.94,-213.47,-128.55,-92.65,114.45,195.25,207.22,0,92.77,0.74
rw_cut_5_p1_ch3_opt_disp_struct_3.xyz,Nucleus 1H :,1.014023,0.00841,-1.320169,28.9,35.18,23.21,28.31,40.37,26.5,32.59,-1.57,-6.56,-4.63,23.21,28.31,35.18,0,11.97,-0.15
rw_cut_5_p1_ch3_opt_disp_struct_3.xyz,Nucleus 2H :,1.825936,0.614139,-1.728393,29.21,35.1,24.41,28.11,49.24,29.94,26.58,1.57,-5.36,-14.35,24.41,28.11,35.1,0,10.69,-0.31
rw_cut_5_p1_ch3_opt_disp_struct_3.xyz,Nucleus 6H :,1.178602,-1.028335,-1.637929,23.68,15.86,24.59,30.6,52.59,29.13,15.03,-22.52,-4.66,1.48,15.86,24.59,30.6,0,14.74,0.19
rw_cut_5_p1_ch3_opt_disp_struct_3.xyz,Nucleus 10H :,0.944671,0.132099,0.158764,23.51,29.22,19.04,22.28,53.35,42.06,34.79,-6.52,-22.04,-31.11,19.04,22.28,29.22,0,10.18,-0.36
rw_cut_5_p1_ch3_opt_disp_struct_3.xyz,Nucleus 14H :,1.729457,0.951462,0.946233,23.79,27.9,23.36,20.1,13.16,32.28,46.43,-23.3,7.19,-4.4,20.1,23.36,27.9,0,7.8,-0.17
rw_cut_5_p1_ch3_opt_disp_struct_3.xyz,Nucleus 16H :,1.355472,0.780761,2.251539,23.72,19.29,27.36,24.51,13.18,31.22,50.1,-25.88,-3.97,6.51,19.29,24.51,27.36,0,8.07,0.29
rw_cut_5_p1_ch3_opt_disp_struct_3.xyz,Nucleus 17H :,1.738617,1.287655,3.031704,23.95,20.24,25.06,26.56,45.19,27.86,33.97,-20.09,-7.18,-7.9,20.24,25.06,26.56,0,6.32,0.53
rw_cut_5_p1_ch3_opt_disp_struct_3.xyz,Nucleus 18H :,0.33399,-0.135347,2.338316,28.81,35.75,26.62,24.05,44.6,27.32,33.12,-0.5,-9.75,-8.37,24.05,26.62,35.75,0,11.7,-0.56
rw_cut_5_p1_ch3_opt_disp_struct_3.xyz,Nucleus 19H :,0.052322,-0.559436,1.040217,29.0,23.79,29.05,34.16,44.98,20.99,27.6,-11.75,3.15,2.04,23.79,29.05,34.16,0,10.37,0.01
rw_cut_5_p1_ch3_opt_disp_struct_3.xyz,Nucleus 20H :,-0.97321,-1.511113,0.852551,28.36,34.85,26.33,23.89,40.37,13.71,26.72,11.14,-6.69,-0.19,23.89,26.33,34.85,0,10.96,-0.56
rw_cut_5_p1_ch3_opt_disp_struct_3.xyz,Nucleus 21H :,-1.225032,-1.856712,-0.145811,28.92,34.34,24.51,27.9,43.42,12.74,22.76,-9.22,12.27,4.77,24.51,27.9,34.34,0,9.83,-0.31
rw_cut_5_p1_ch3_opt_disp_struct_3.xyz,Nucleus 23H :,-1.680584,-2.010442,1.959168,28.72,34.59,24.35,27.21,-3.94,18.02,39.08,30.21,7.93,-5.15,24.35,27.21,34.59,0,10.24,-0.44
rw_cut_5_p1_ch3_opt_disp_struct_3.xyz,Nucleus 24H :,-2.770822,-3.025008,1.773721,28.72,35.3,26.72,24.15,-2.5,17.76,40.3,29.43,7.21,-6.04,24.15,26.72,35.3,0,11.15,-0.54
rw_cut_5_p1_ch3_opt_disp_struct_3.xyz,Nucleus 26H :,-1.364477,-1.557955,3.244286,27.28,18.59,34.47,28.77,49.02,14.29,30.11,-14.74,5.19,-2.04,18.59,28.77,34.47,0,15.88,0.28
rw_cut_5_p1_ch3_opt_disp_struct_3.xyz,Nucleus 29H :,-1.936759,-1.920787,4.094506,27.96,41.97,23.25,18.67,21.95,58.47,53.42,-39.5,1.36,-11.81,18.67,23.25,41.97,0,23.3,-0.61
rw_cut_5_p1_ch3_opt_disp_struct_3.xyz,Nucleus 31H :,-0.354531,-0.614026,3.458123,27.09,19.82,27.37,34.08,-0.78,25.01,54.06,20.75,2.34,-20.11,19.82,27.37,34.08,0,14.26,0.06
rw_cut_5_p1_ch3_opt_disp_struct_3.xyz,Nucleus 32H :,-0.127967,-0.257962,4.458005,27.13,39.85,18.65,22.9,25.17,39.97,46.44,-21.34,-1.4,-7.45,18.65,22.9,39.85,0,21.2,-0.6
rw_cut_5_p1_ch3_opt_disp_struct_3.xyz,Nucleus 33H :,2.507273,1.646626,0.665813,28.36,35.57,25.96,23.54,-14.63,38.87,14.1,38.29,-3.34,11.78,23.54,25.96,35.57,0,12.03,-0.6
rw_cut_5_p1_ch3_opt_disp_struct_3.xyz,Nucleus 34H :,0.082672,0.339744,-1.793273,27.74,20.48,34.67,28.08,49.63,30.82,35.46,-22.1,-8.08,-2.5,20.48,28.08,34.67,0,14.19,0.07
rw_cut_5_p1_ch3_opt_disp_struct_3.xyz,Nucleus 0C :,-2.823152,-3.373133,0.74039,173.13,160.8,170.36,188.24,237.09,240.75,261.1,-81.67,-71.45,-66.41,160.8,170.36,188.24,0,27.44,-0.3
rw_cut_5_p1_ch3_opt_disp_struct_3.xyz,Nucleus 3C :,-3.746257,-2.599548,2.033614,63.12,149.08,50.8,-10.51,242.36,281.3,263.71,-93.68,-229.75,-274.56,-10.51,50.8,149.08,0,159.59,-0.23
rw_cut_5_p1_ch3_opt_disp_struct_3.xyz,Nucleus 4C :,-2.621697,-3.897154,2.419652,52.18,-34.61,128.39,62.76,260.4,254.31,278.98,-297.84,-129.84,-209.46,-34.61,62.76,128.39,0,163.0,0.19
rw_cut_5_p1_ch3_opt_disp_struct_3.xyz,Nucleus 7C :,3.265296,-6.658268,3.55733,43.7,144.0,-33.07,20.18,274.2,266.0,267.42,-122.4,-307.07,-247.05,-33.07,20.18,144.0,0,177.07,-0.4
rw_cut_5_p1_ch3_opt_disp_struct_3.xyz,Nucleus 8C :,3.245435,-6.252265,4.573852,49.86,168.8,0.75,-19.98,225.94,272.69,254.68,-57.69,-265.15,-280.91,-19.98,0.75,168.8,0,188.78,-0.78
rw_cut_5_p1_ch3_opt_disp_struct_3.xyz,Nucleus 9C :,2.41298,-7.332095,3.407449,55.58,160.06,48.02,-41.33,248.66,278.79,271.87,-90.1,-228.33,-314.15,-41.33,48.02,160.06,0,201.39,-0.11
rw_cut_5_p1_ch3_opt_disp_struct_3.xyz,Nucleus 11C :,3.288838,-5.5792,2.573189,43.06,174.57,-61.14,15.74,236.88,263.08,278.58,-62.86,-326.98,-259.53,-61.14,15.74,174.57,0,235.71,-0.35
rw_cut_5_p1_ch3_opt_disp_struct_3.xyz,Nucleus 12C :,3.916941,-5.681142,1.792968,161.17,188.7,138.69,156.11,259.09,216.6,230.37,-65.27,-73.52,-83.76,138.69,156.11,188.7,0,50.01,-0.3
rw_cut_5_p1_ch3_opt_disp_struct_3.xyz,Nucleus 13C :,2.390314,-4.586165,2.496049,54.61,166.0,48.9,-51.08,230.98,277.69,257.46,-67.57,-228.34,-306.41,-51.08,48.9,166.0,0,217.08,-0.08
rw_cut_5_p1_ch3_opt_disp_struct_3.xyz,Nucleus 15C :,2.525133,-3.663492,1.543154,64.5,171.7,48.84,-27.05,240.2,273.81,267.52,-71.46,-224.32,-292.26,-27.05,48.84,171.7,0,198.75,-0.24
rw_cut_5_p1_ch3_opt_disp_struct_3.xyz,Nucleus 22C :,1.830756,-2.933049,1.408796,155.45,130.88,146.62,188.84,198.18,212.01,268.05,-51.64,-85.1,-75.17,130.88,146.62,188.84,0,57.96,-0.46
rw_cut_5_p1_ch3_opt_disp_struct_3.xyz,Nucleus 27C :,1.365879,-4.485054,3.343174,21.7,115.4,-17.25,-33.05,237.74,267.62,265.86,-122.37,-284.17,-299.59,-33.05,-17.25,115.4,0,148.45,-0.79
rw_cut_5_p1_ch3_opt_disp_struct_3.xyz,Nucleus 5N :,1.158435,-5.23097,3.985082,115.58,51.72,170.55,124.47,300.55,336.65,332.72,-130.87,-210.73,-281.58,51.72,124.47,170.55,0,118.83,0.22
rw_cut_5_p1_ch3_opt_disp_struct_3.xyz,Nucleus 25N :,0.744771,-3.676585,3.320076,170.29,104.36,226.51,180.01,291.48,346.96,330.83,-228.81,-108.46,-121.12,104.36,180.01,226.51,0,122.15,0.24
rw_cut_5_p1_ch3_opt_disp_struct_3.xyz,Nucleus 28N :,4.182572,-7.23721,3.450067,174.28,114.39,176.89,231.57,320.71,335.02,338.09,-211.96,-154.27,-104.75,114.39,176.89,231.57,0,117.18,0.07
rw_cut_5_p1_ch3_opt_disp_struct_3.xyz,Nucleus 30N :,3.376501,-3.596712,1.011771,173.16,114.74,209.25,195.48,290.3,336.99,325.7,-212.75,-93.25,-127.53,114.74,195.48,209.25,0,94.51,0.71
rw_cut_5_p1_ch3_opt_disp_struct_4.xyz,Nucleus 1H :,1.014023,0.00841,-1.320169,28.91,35.15,23.23,28.36,40.37,26.6,32.51,-1.61,-6.63,-4.5,23.23,28.36,35.15,0,11.92,-0.14
rw_cut_5_p1_ch3_opt_disp_struct_4.xyz,Nucleus 2H :,1.825936,0.614139,-1.728393,29.2,35.14,24.44,28.03,49.08,29.96,26.53,1.55,-5.35,-14.16,24.44,28.03,35.14,0,10.7,-0.33
rw_cut_5_p1_ch3_opt_disp_struct_4.xyz,Nucleus 6H :,1.178602,-1.028335,-1.637929,23.73,15.91,24.63,30.64,52.49,29.29,15.15,-22.39,-4.75,1.39,15.91,24.63,30.64,0,14.73,0.18
rw_cut_5_p1_ch3_opt_disp_struct_4.xyz,Nucleus 10H :,0.944671,0.132099,0.158764,23.54,29.33,19.07,22.22,53.25,42.0,34.71,-6.4,-21.92,-31.02,19.07,22.22,29.33,0,10.26,-0.39
rw_cut_5_p1_ch3_opt_disp_struct_4.xyz,Nucleus 14H :,1.729457,0.951462,0.946233,23.8,28.02,23.29,20.09,12.62,32.6,46.54,-23.4,7.64,-4.6,20.09,23.29,28.02,0,7.93,-0.19
rw_cut_5_p1_ch3_opt_disp_struct_4.xyz,Nucleus 16H :,1.355472,0.780761,2.251539,23.76,19.32,27.46,24.5,13.14,31.45,50.09,-25.85,-4.09,6.53,19.32,24.5,27.46,0,8.14,0.27
rw_cut_5_p1_ch3_opt_disp_struct_4.xyz,Nucleus 17H :,1.738617,1.287655,3.031704,23.99,20.3,25.07,26.59,45.25,28.01,33.89,-20.16,-7.25,-7.78,20.3,25.07,26.59,0,6.29,0.52
rw_cut_5_p1_ch3_opt_disp_struct_4.xyz,Nucleus 18H :,0.33399,-0.135347,2.338316,28.82,35.72,26.64,24.09,44.57,27.31,33.07,-0.51,-9.78,-8.22,24.09,26.64,35.72,0,11.63,-0.56
rw_cut_5_p1_ch3_opt_disp_struct_4.xyz,Nucleus 19H :,0.052322,-0.559436,1.040217,29.02,23.81,29.1,34.14,44.99,20.9,27.68,-11.73,3.21,2.0,23.81,29.1,34.14,0,10.33,0.02
rw_cut_5_p1_ch3_opt_disp_struct_4.xyz,Nucleus 20H :,-0.97321,-1.511113,0.852551,28.36,34.8,26.38,23.91,40.32,13.79,26.87,11.05,-6.67,-0.28,23.91,26.38,34.8,0,10.89,-0.55
rw_cut_5_p1_ch3_opt_disp_struct_4.xyz,Nucleus 21H :,-1.225032,-1.856712,-0.145811,28.92,34.37,24.5,27.88,43.28,12.56,23.16,-9.07,12.37,4.45,24.5,27.88,34.37,0,9.87,-0.32
rw_cut_5_p1_ch3_opt_disp_struct_4.xyz,Nucleus 23H :,-1.680584,-2.010442,1.959168,28.69,34.56,24.36,27.16,-4.85,17.89,39.08,31.17,8.0,-5.22,24.36,27.16,34.56,0,10.2,-0.45
rw_cut_5_p1_ch3_opt_disp_struct_4.xyz,Nucleus 24H :,-2.770822,-3.025008,1.773721,28.7,35.27,26.67,24.15,-3.49,17.69,40.35,30.46,7.25,-6.17,24.15,26.67,35.27,0,11.12,-0.55
rw_cut_5_p1_ch3_opt_disp_struct_4.xyz,Nucleus 26H :,-1.364477,-1.557955,3.244286,27.22,18.61,34.38,28.67,49.17,12.97,29.88,-15.0,6.48,-1.84,18.61,28.67,34.38,0,15.77,0.28
rw_cut_5_p1_ch3_opt_disp_struct_4.xyz,Nucleus 29H :,-1.936759,-1.920787,4.094506,27.77,40.94,23.43,18.95,23.07,60.82,52.48,-41.73,0.36,-11.69,18.95,23.43,40.94,0,21.99,-0.59
rw_cut_5_p1_ch3_opt_disp_struct_4.xyz,Nucleus 31H :,-0.354531,-0.614026,3.458123,27.02,19.8,27.23,34.02,-1.08,25.0,54.42,21.03,2.2,-20.52,19.8,27.23,34.02,0,14.22,0.04
rw_cut_5_p1_ch3_opt_disp_struct_4.xyz,Nucleus 32H :,-0.127967,-0.257962,4.458005,27.02,38.9,18.93,23.22,26.12,41.94,45.95,-23.22,-2.06,-7.68,18.93,23.22,38.9,0,19.97,-0.57
rw_cut_5_p1_ch3_opt_disp_struct_4.xyz,Nucleus 33H :,2.507273,1.646626,0.665813,28.32,35.49,25.95,23.52,-16.07,38.79,13.75,39.71,-3.34,12.12,23.52,25.95,35.49,0,11.97,-0.59
rw_cut_5_p1_ch3_opt_disp_struct_4.xyz,Nucleus 34H :,0.082672,0.339744,-1.793273,27.64,20.52,34.67,27.73,49.95,30.38,35.77,-22.42,-8.39,-2.37,20.52,27.73,34.67,0,14.15,0.02
rw_cut_5_p1_ch3_opt_disp_struct_4.xyz,Nucleus 0C :,-2.823152,-3.373133,0.74039,173.08,160.8,170.23,188.2,237.15,240.66,260.81,-81.34,-71.65,-66.4,160.8,170.23,188.2,0,27.4,-0.31
rw_cut_5_p1_ch3_opt_disp_struct_4.xyz,Nucleus 3C :,-3.746257,-2.599548,2.033614,63.14,149.06,50.99,-10.64,242.39,280.89,263.57,-93.6,-229.19,-274.63,-10.64,50.99,149.06,0,159.7,-0.23
rw_cut_5_p1_ch3_opt_disp_struct_4.xyz,Nucleus 4C :,-2.621697,-3.897154,2.419652,52.76,-33.81,128.33,63.76,260.91,253.97,278.59,-297.0,-129.98,-208.23,-33.81,63.76,128.33,0,162.14,0.2
rw_cut_5_p1_ch3_opt_disp_struct_4.xyz,Nucleus 7C :,3.432406,-6.842657,3.58131,43.67,143.87,-33.3,20.45,274.3,266.03,267.48,-122.56,-307.41,-246.83,-33.3,20.45,143.87,0,177.17,-0.39
rw_cut_5_p1_ch3_opt_disp_struct_4.xyz,Nucleus 8C :,3.412545,-6.436654,4.597831,49.56,168.62,0.53,-20.47,226.17,273.51,255.43,-58.2,-266.63,-281.6,-20.47,0.53,168.62,0,189.09,-0.78
rw_cut_5_p1_ch3_opt_disp_struct_4.xyz,Nucleus 9C :,2.58009,-7.516484,3.431429,55.66,159.81,48.58,-41.42,248.04,278.9,271.87,-89.79,-227.7,-314.34,-41.42,48.58,159.81,0,201.23,-0.11
rw_cut_5_p1_ch3_opt_disp_struct_4.xyz,Nucleus 11C :,3.455947,-5.763589,2.597169,43.38,174.4,-61.1,16.83,236.64,263.25,278.59,-62.64,-327.16,-258.54,-61.1,16.83,174.4,0,235.5,-0.34
rw_cut_5_p1_ch3_opt_disp_struct_4.xyz,Nucleus 12C :,4.084051,-5.865531,1.816947,161.17,188.71,138.53,156.26,258.89,216.53,230.5,-65.25,-73.53,-83.64,138.53,156.26,188.71,0,50.18,-0.29
rw_cut_5_p1_ch3_opt_disp_struct_4.xyz,Nucleus 13C :,2.557424,-4.770554,2.520029,54.18,165.72,48.69,-51.88,231.95,278.03,257.14,-67.7,-228.93,-307.96,-51.88,48.69,165.72,0,217.6,-0.08
rw_cut_5_p1_ch3_opt_disp_struct_4.xyz,Nucleus 15C :,2.692243,-3.847881,1.567133,64.85,171.48,49.81,-26.74,240.43,274.06,267.55,-71.74,-223.49,-292.25,-26.74,49.81,171.48,0,198.22,-0.23
rw_cut_5_p1_ch3_opt_disp_struct_4.xyz,Nucleus 22C :,1.997866,-3.117438,1.432776,155.41,130.8,146.63,188.8,197.12,211.49,268.69,-50.58,-85.14,-75.35,130.8,146.63,188.8,0,58.0,-0.45
rw_cut_5_p1_ch3_opt_disp_struct_4.xyz,Nucleus 27C :,1.532989,-4.669443,3.367154,21.61,115.27,-16.99,-33.44,238.16,268.08,265.54,-122.91,-283.55,-300.48,-33.44,-16.99,115.27,0,148.71,-0.78
rw_cut_5_p1_ch3_opt_disp_struct_4.xyz,Nucleus 5N :,1.325544,-5.415359,4.009062,116.29,52.92,170.41,125.55,300.65,336.56,332.72,-131.11,-209.83,-280.12,52.92,125.55,170.41,0,117.49,0.24
rw_cut_5_p1_ch3_opt_disp_struct_4.xyz,Nucleus 25N :,0.911881,-3.860974,3.344056,169.7,103.38,225.55,180.18,289.64,347.14,330.8,-230.08,-106.87,-121.52,103.38,180.18,225.55,0,122.17,0.26
rw_cut_5_p1_ch3_opt_disp_struct_4.xyz,Nucleus 28N :,4.349682,-7.421599,3.474047,174.62,114.49,176.9,232.48,321.45,338.81,335.8,-212.14,-156.08,-103.96,114.49,176.9,232.48,0,117.99,0.06
rw_cut_5_p1_ch3_opt_disp_struct_4.xyz,Nucleus 30N :,3.543611,-3.781101,1.035751,173.61,114.87,210.47,195.5,291.27,337.74,325.52,-212.38,-94.05,-127.26,114.87,195.5,210.47,0,95.6,0.69
rw_cut_5_p1_ch3_opt_disp_struct_5.xyz,Nucleus 1H :,1.014023,0.00841,-1.320169,28.93,35.12,23.26,28.41,40.37,26.67,32.41,-1.64,-6.68,-4.35,23.26,28.41,35.12,0,11.86,-0.13
rw_cut_5_p1_ch3_opt_disp_struct_5.xyz,Nucleus 2H :,1.825936,0.614139,-1.728393,29.2,35.18,24.46,27.96,48.92,29.97,26.47,1.54,-5.32,-13.97,24.46,27.96,35.18,0,10.72,-0.35
rw_cut_5_p1_ch3_opt_disp_struct_5.xyz,Nucleus 6H :,1.178602,-1.028335,-1.637929,23.76,15.95,24.67,30.67,52.38,29.43,15.24,-22.24,-4.83,1.31,15.95,24.67,30.67,0,14.72,0.19
rw_cut_5_p1_ch3_opt_disp_struct_5.xyz,Nucleus 10H :,0.944671,0.132099,0.158764,23.57,29.42,19.09,22.19,53.1,41.9,34.66,-6.25,-21.82,-30.88,19.09,22.19,29.42,0,10.33,-0.4
rw_cut_5_p1_ch3_opt_disp_struct_5.xyz,Nucleus 14H :,1.729457,0.951462,0.946233,23.82,28.13,20.07,23.25,12.16,32.93,46.62,-23.48,8.04,-4.82,20.07,23.25,28.13,0,8.06,-0.21
rw_cut_5_p1_ch3_opt_disp_struct_5.xyz,Nucleus 16H :,1.355472,0.780761,2.251539,23.79,19.35,27.54,24.49,13.07,31.66,50.02,-25.75,-4.2,6.57,19.35,24.49,27.54,0,8.19,0.26
rw_cut_5_p1_ch3_opt_disp_struct_5.xyz,Nucleus 17H :,1.738617,1.287655,3.031704,24.02,20.34,25.08,26.64,45.28,28.14,33.8,-20.19,-7.3,-7.67,20.34,25.08,26.64,0,6.3,0.5
rw_cut_5_p1_ch3_opt_disp_struct_5.xyz,Nucleus 18H :,0.33399,-0.135347,2.338316,28.82,35.69,26.66,24.11,44.53,27.27,33.04,-0.49,-9.82,-8.07,24.11,26.66,35.69,0,11.58,-0.56
rw_cut_5_p1_ch3_opt_disp_struct_5.xyz,Nucleus 19H :,0.052322,-0.559436,1.040217,29.03,23.82,29.14,34.14,44.97,20.85,27.73,-11.67,3.24,1.99,23.82,29.14,34.14,0,10.32,0.03
rw_cut_5_p1_ch3_opt_disp_struct_5.xyz,Nucleus 20H :,-0.97321,-1.511113,0.852551,28.37,34.76,26.41,23.94,40.26,13.87,26.99,10.97,-6.63,-0.35,23.94,26.41,34.76,0,10.82,-0.54
rw_cut_5_p1_ch3_opt_disp_struct_5.xyz,Nucleus 21H :,-1.225032,-1.856712,-0.145811,28.92,34.41,24.49,27.86,43.14,12.36,23.55,-8.9,12.49,4.12,24.49,27.86,34.41,0,9.92,-0.32
rw_cut_5_p1_ch3_opt_disp_struct_5.xyz,Nucleus 23H :,-1.680584,-2.010442,1.959168,28.67,34.53,24.36,27.11,-5.73,17.78,39.08,32.1,8.07,-5.3,24.36,27.11,34.53,0,10.17,-0.46
rw_cut_5_p1_ch3_opt_disp_struct_5.xyz,Nucleus 24H :,-2.770822,-3.025008,1.773721,28.68,35.25,26.63,24.15,-4.44,17.62,40.41,31.46,7.28,-6.3,24.15,26.63,35.25,0,11.1,-0.55
rw_cut_5_p1_ch3_opt_disp_struct_5.xyz,Nucleus 26H :,-1.364477,-1.557955,3.244286,27.17,18.62,34.3,28.58,49.34,11.66,29.65,-15.27,7.76,-1.65,18.62,28.58,34.3,0,15.68,0.27
rw_cut_5_p1_ch3_opt_disp_struct_5.xyz,Nucleus 29H :,-1.936759,-1.920787,4.094506,27.59,40.07,23.53,19.16,23.93,63.13,51.53,-43.88,-0.4,-11.55,19.16,23.53,40.07,0,20.91,-0.58
rw_cut_5_p1_ch3_opt_disp_struct_5.xyz,Nucleus 31H :,-0.354531,-0.614026,3.458123,26.95,19.79,27.11,33.95,-1.35,25.01,54.81,21.28,2.06,-20.97,19.79,27.11,33.95,0,14.16,0.03
rw_cut_5_p1_ch3_opt_disp_struct_5.xyz,Nucleus 32H :,-0.127967,-0.257962,4.458005,26.9,38.15,19.12,23.42,26.87,43.44,46.0,-25.13,-2.66,-7.83,19.12,23.42,38.15,0,19.03,-0.55
rw_cut_5_p1_ch3_opt_disp_struct_5.xyz,Nucleus 33H :,2.507273,1.646626,0.665813,28.3,35.42,25.95,23.52,-17.48,38.72,13.42,41.12,-3.33,12.45,23.52,25.95,35.42,0,11.9,-0.59
rw_cut_5_p1_ch3_opt_disp_struct_5.xyz,Nucleus 34H :,0.082672,0.339744,-1.793273,27.54,20.55,34.65,27.42,50.28,29.97,36.04,-22.75,-8.67,-2.25,20.55,27.42,34.65,0,14.1,-0.03
rw_cut_5_p1_ch3_opt_disp_struct_5.xyz,Nucleus 0C :,-2.823152,-3.373133,0.74039,173.04,160.8,170.12,188.19,237.17,240.6,260.55,-81.03,-71.83,-66.36,160.8,170.12,188.19,0,27.39,-0.32
rw_cut_5_p1_ch3_opt_disp_struct_5.xyz,Nucleus 3C :,-3.746257,-2.599548,2.033614,63.13,149.06,51.11,-10.77,242.39,280.5,263.44,-93.54,-228.71,-274.68,-10.77,51.11,149.06,0,159.83,-0.23
rw_cut_5_p1_ch3_opt_disp_struct_5.xyz,Nucleus 4C :,-2.621697,-3.897154,2.419652,53.22,-33.2,128.25,64.6,261.2,253.87,278.22,-296.34,-130.15,-207.16,-33.2,64.6,128.25,0,161.45,0.21
rw_cut_5_p1_ch3_opt_disp_struct_5.xyz,Nucleus 7C :,3.599515,-7.027046,3.605289,43.62,143.75,-33.53,20.64,274.26,266.1,267.62,-122.85,-307.62,-246.66,-33.53,20.64,143.75,0,177.28,-0.39
rw_cut_5_p1_ch3_opt_disp_struct_5.xyz,Nucleus 8C :,3.579654,-6.621043,4.621811,49.35,168.51,0.38,-20.84,226.17,273.8,255.98,-58.39,-267.64,-281.88,-20.84,0.38,168.51,0,189.35,-0.78
rw_cut_5_p1_ch3_opt_disp_struct_5.xyz,Nucleus 9C :,2.7472,-7.700873,3.455408,55.66,159.61,48.93,-41.57,247.92,278.66,271.75,-89.84,-227.15,-314.38,-41.57,48.93,159.61,0,201.18,-0.1
rw_cut_5_p1_ch3_opt_disp_struct_5.xyz,Nucleus 11C :,3.623057,-5.947978,2.621149,43.62,174.26,-61.08,17.68,236.38,263.33,278.48,-62.43,-327.19,-257.7,-61.08,17.68,174.26,0,235.34,-0.33
rw_cut_5_p1_ch3_opt_disp_struct_5.xyz,Nucleus 12C :,4.251161,-6.04992,1.840927,161.16,188.71,138.4,156.38,258.66,216.56,230.6,-65.19,-73.62,-83.52,138.4,156.38,188.71,0,50.31,-0.29
rw_cut_5_p1_ch3_opt_disp_struct_5.xyz,Nucleus 13C :,2.724534,-4.954943,2.544008,53.82,165.5,48.45,-52.5,232.56,278.15,257.12,-67.74,-229.35,-309.28,-52.5,48.45,165.5,0,218.0,-0.07
rw_cut_5_p1_ch3_opt_disp_struct_5.xyz,Nucleus 15C :,2.859352,-4.03227,1.591113,65.09,171.28,50.5,-26.52,240.67,274.13,267.51,-72.01,-222.88,-292.16,-26.52,50.5,171.28,0,197.8,-0.22
rw_cut_5_p1_ch3_opt_disp_struct_5.xyz,Nucleus 22C :,2.164976,-3.301827,1.456755,155.38,130.73,146.64,188.77,196.09,210.98,269.31,-49.55,-85.22,-75.48,130.73,146.64,188.77,0,58.04,-0.45
rw_cut_5_p1_ch3_opt_disp_struct_5.xyz,Nucleus 27C :,1.700098,-4.853832,3.391133,21.55,115.24,-16.82,-33.77,238.64,268.63,265.16,-123.42,-283.05,-301.31,-33.77,-16.82,115.24,0,149.01,-0.77
rw_cut_5_p1_ch3_opt_disp_struct_5.xyz,Nucleus 5N :,1.492654,-5.599748,4.033042,116.81,53.81,170.25,126.38,300.8,336.49,332.69,-131.38,-209.13,-279.04,53.81,126.38,170.25,0,116.44,0.25
rw_cut_5_p1_ch3_opt_disp_struct_5.xyz,Nucleus 25N :,1.07899,-4.045363,3.368036,169.24,102.63,224.77,180.33,287.87,347.36,330.77,-231.14,-105.21,-121.92,102.63,180.33,224.77,0,122.14,0.27
rw_cut_5_p1_ch3_opt_disp_struct_5.xyz,Nucleus 28N :,4.516792,-7.605988,3.498026,174.74,114.48,176.81,232.93,321.91,339.88,336.17,-212.39,-157.76,-103.58,114.48,176.81,232.93,0,118.45,0.05
rw_cut_5_p1_ch3_opt_disp_struct_5.xyz,Nucleus 30N :,3.710721,-3.96549,1.059731,173.8,114.86,211.15,195.39,292.11,338.42,325.37,-212.23,-94.92,-127.35,114.86,195.39,211.15,0,96.29,0.67
rw_cut_5_p1_ch3_opt_disp_struct_6.xyz,Nucleus 1H :,1.014023,0.00841,-1.320169,28.95,35.1,23.28,28.46,40.36,26.72,32.3,-6.7,-1.65,-4.2,23.28,28.46,35.1,0,11.82,-0.12
rw_cut_5_p1_ch3_opt_disp_struct_6.xyz,Nucleus 2H :,1.825936,0.614139,-1.728393,29.2,35.22,24.47,27.91,48.75,29.94,26.42,1.54,-5.26,-13.8,24.47,27.91,35.22,0,10.75,-0.36
rw_cut_5_p1_ch3_opt_disp_struct_6.xyz,Nucleus 6H :,1.178602,-1.028335,-1.637929,23.8,15.99,24.71,30.7,52.25,29.57,15.31,-22.06,-4.91,1.24,15.99,24.71,30.7,0,14.71,0.19
rw_cut_5_p1_ch3_opt_disp_struct_6.xyz,Nucleus 10H :,0.944671,0.132099,0.158764,23.59,29.5,19.1,22.18,52.91,41.76,34.62,-6.09,-21.73,-30.69,19.1,22.18,29.5,0,10.4,-0.41
rw_cut_5_p1_ch3_opt_disp_struct_6.xyz,Nucleus 14H :,1.729457,0.951462,0.946233,23.83,28.21,20.05,23.22,11.79,33.22,46.67,-23.51,8.34,-5.02,20.05,23.22,28.21,0,8.16,-0.22
rw_cut_5_p1_ch3_opt_disp_struct_6.xyz,Nucleus 16H :,1.355472,0.780761,2.251539,23.82,19.36,27.61,24.5,13.0,31.86,49.92,-25.61,-4.31,6.62,19.36,24.5,27.61,0,8.25,0.25
rw_cut_5_p1_ch3_opt_disp_struct_6.xyz,Nucleus 17H :,1.738617,1.287655,3.031704,24.05,20.39,25.09,26.67,45.28,28.24,33.72,-20.19,-7.64,-7.28,20.39,25.09,26.67,0,6.28,0.5
rw_cut_5_p1_ch3_opt_disp_struct_6.xyz,Nucleus 18H :,0.33399,-0.135347,2.338316,28.83,35.67,26.68,24.14,44.49,27.22,33.03,-0.46,-9.86,-7.93,24.14,26.68,35.67,0,11.53,-0.56
rw_cut_5_p1_ch3_opt_disp_struct_6.xyz,Nucleus 19H :,0.052322,-0.559436,1.040217,29.05,23.84,29.18,34.14,44.93,20.83,27.74,-11.58,3.24,2.0,23.84,29.18,34.14,0,10.3,0.04
rw_cut_5_p1_ch3_opt_disp_struct_6.xyz,Nucleus 20H :,-0.97321,-1.511113,0.852551,28.39,34.74,26.45,23.97,40.21,13.94,27.08,10.9,-6.57,-0.4,23.97,26.45,34.74,0,10.77,-0.54
rw_cut_5_p1_ch3_opt_disp_struct_6.xyz,Nucleus 21H :,-1.225032,-1.856712,-0.145811,28.92,34.45,24.46,27.85,42.98,12.18,23.91,-8.72,12.6,3.81,24.46,27.85,34.45,0,9.99,-0.32
rw_cut_5_p1_ch3_opt_disp_struct_6.xyz,Nucleus 23H :,-1.680584,-2.010442,1.959168,28.65,34.51,24.36,27.07,-6.59,17.68,39.1,33.01,8.12,-5.39,24.36,27.07,34.51,0,10.15,-0.47
rw_cut_5_p1_ch3_opt_disp_struct_6.xyz,Nucleus 24H :,-2.770822,-3.025008,1.773721,28.66,35.22,26.6,24.15,-5.38,17.56,40.47,32.44,7.31,-6.43,24.15,26.6,35.22,0,11.07,-0.56
rw_cut_5_p1_ch3_opt_disp_struct_6.xyz,Nucleus 26H :,-1.364477,-1.557955,3.244286,27.12,18.62,34.23,28.5,49.52,10.36,29.44,-15.53,9.04,-1.48,18.62,28.5,34.23,0,15.61,0.27
rw_cut_5_p1_ch3_opt_disp_struct_6.xyz,Nucleus 29H :,-1.936759,-1.920787,4.094506,27.42,39.34,23.6,19.31,24.64,65.35,50.65,-45.96,-11.41,-1.03,19.31,23.6,39.34,0,20.03,-0.57
rw_cut_5_p1_ch3_opt_disp_struct_6.xyz,Nucleus 31H :,-0.354531,-0.614026,3.458123,26.9,19.79,27.0,33.9,-1.52,25.03,55.2,21.45,1.93,-21.4,19.79,27.0,33.9,0,14.11,0.02
rw_cut_5_p1_ch3_opt_disp_struct_6.xyz,Nucleus 32H :,-0.127967,-0.257962,4.458005,26.78,37.54,19.26,23.55,27.51,43.93,47.11,-27.04,-3.24,-7.93,19.26,23.55,37.54,0,18.28,-0.53
rw_cut_5_p1_ch3_opt_disp_struct_6.xyz,Nucleus 33H :,2.507273,1.646626,0.665813,28.27,35.36,25.94,23.52,-18.88,38.65,13.09,42.52,-3.33,12.77,23.52,25.94,35.36,0,11.84,-0.59
rw_cut_5_p1_ch3_opt_disp_struct_6.xyz,Nucleus 34H :,0.082672,0.339744,-1.793273,27.45,34.64,27.15,20.57,50.59,29.6,36.25,-23.05,-8.91,-2.11,20.57,27.15,34.64,0,14.07,-0.06
rw_cut_5_p1_ch3_opt_disp_struct_6.xyz,Nucleus 0C :,-2.823152,-3.373133,0.74039,173.0,160.8,170.02,188.19,237.13,240.56,260.33,-80.74,-71.98,-66.28,160.8,170.02,188.19,0,27.39,-0.33
rw_cut_5_p1_ch3_opt_disp_struct_6.xyz,Nucleus 3C :,-3.746257,-2.599548,2.033614,63.12,149.05,51.21,-10.89,242.35,280.14,263.33,-93.48,-228.24,-274.72,-10.89,51.21,149.05,0,159.94,-0.22
rw_cut_5_p1_ch3_opt_disp_struct_6.xyz,Nucleus 4C :,-2.621697,-3.897154,2.419652,53.6,-32.69,128.18,65.31,261.29,253.96,277.9,-295.83,-130.3,-206.22,-32.69,65.31,128.18,0,160.87,0.22
rw_cut_5_p1_ch3_opt_disp_struct_6.xyz,Nucleus 7C :,3.766625,-7.211435,3.629269,43.55,143.63,-33.74,20.77,274.1,266.17,267.77,-123.15,-307.7,-246.53,-33.74,20.77,143.63,0,177.37,-0.39
rw_cut_5_p1_ch3_opt_disp_struct_6.xyz,Nucleus 8C :,3.746764,-6.805432,4.645791,49.2,168.42,0.29,-21.11,226.06,273.61,256.35,-58.4,-268.14,-281.87,-21.11,0.29,168.42,0,189.53,-0.77
rw_cut_5_p1_ch3_opt_disp_struct_6.xyz,Nucleus 9C :,2.914309,-7.885262,3.479388,55.61,159.42,49.15,-41.73,248.03,278.23,271.57,-90.03,-226.63,-314.32,-41.73,49.15,159.42,0,201.15,-0.1
rw_cut_5_p1_ch3_opt_disp_struct_6.xyz,Nucleus 11C :,3.790167,-6.132367,2.645128,43.81,174.13,-61.06,18.36,236.09,263.35,278.29,-62.2,-327.14,-256.96,-61.06,18.36,174.13,0,235.19,-0.32
rw_cut_5_p1_ch3_opt_disp_struct_6.xyz,Nucleus 12C :,4.41827,-6.234309,1.864907,161.16,188.73,138.29,156.47,258.41,216.69,230.67,-65.08,-73.76,-83.44,138.29,156.47,188.73,0,50.44,-0.28
rw_cut_5_p1_ch3_opt_disp_struct_6.xyz,Nucleus 13C :,2.891644,-5.139332,2.567988,53.53,165.33,48.22,-52.96,232.75,278.13,257.31,-67.75,-229.6,-310.24,-52.96,48.22,165.33,0,218.29,-0.07
rw_cut_5_p1_ch3_opt_disp_struct_6.xyz,Nucleus 15C :,3.026462,-4.216659,1.615093,65.24,171.09,50.99,-26.37,240.93,274.09,267.38,-72.24,-222.41,-292.05,-26.37,50.99,171.09,0,197.46,-0.22
rw_cut_5_p1_ch3_opt_disp_struct_6.xyz,Nucleus 22C :,2.332085,-3.486216,1.480735,155.35,130.68,146.64,188.74,195.08,210.49,269.92,-48.53,-75.55,-85.35,130.68,146.64,188.74,0,58.06,-0.45
rw_cut_5_p1_ch3_opt_disp_struct_6.xyz,Nucleus 27C :,1.867208,-5.038221,3.415113,21.5,115.24,-16.72,-34.03,239.11,269.19,264.79,-123.89,-282.66,-302.05,-34.03,-16.72,115.24,0,149.27,-0.77
rw_cut_5_p1_ch3_opt_disp_struct_6.xyz,Nucleus 5N :,1.659764,-5.784137,4.057021,117.24,54.52,170.11,127.08,300.98,336.42,332.63,-131.61,-208.52,-278.18,54.52,127.08,170.11,0,115.59,0.26
rw_cut_5_p1_ch3_opt_disp_struct_6.xyz,Nucleus 25N :,1.2461,-4.229752,3.392016,168.87,102.03,224.13,180.45,286.15,347.61,330.74,-232.05,-103.55,-122.29,102.03,180.45,224.13,0,122.1,0.28
rw_cut_5_p1_ch3_opt_disp_struct_6.xyz,Nucleus 28N :,4.683902,-7.790377,3.522006,174.79,114.45,176.72,233.19,322.14,340.98,336.29,-212.59,-159.15,-103.32,114.45,176.72,233.19,0,118.74,0.05
rw_cut_5_p1_ch3_opt_disp_struct_6.xyz,Nucleus 30N :,3.877831,-4.149879,1.08371,173.87,114.79,211.57,195.26,292.88,338.96,325.23,-212.13,-95.78,-127.54,114.79,195.26,211.57,0,96.78,0.66
rw_cut_5_p1_ch3_opt_disp_struct_7.xyz,Nucleus 1H :,1.014023,0.00841,-1.320169,28.96,35.09,23.29,28.49,40.34,26.76,32.21,-6.7,-1.65,-4.07,23.29,28.49,35.09,0,11.8,-0.12
rw_cut_5_p1_ch3_opt_disp_struct_7.xyz,Nucleus 2H :,1.825936,0.614139,-1.728393,29.2,35.25,24.47,27.87,48.6,29.9,26.36,1.55,-5.19,-13.64,24.47,27.87,35.25,0,10.78,-0.37
rw_cut_5_p1_ch3_opt_disp_struct_7.xyz,Nucleus 6H :,1.178602,-1.028335,-1.637929,23.83,16.02,24.74,30.73,52.12,29.69,15.36,-21.88,-4.98,1.18,16.02,24.74,30.73,0,14.71,0.19
rw_cut_5_p1_ch3_opt_disp_struct_7.xyz,Nucleus 10H :,0.944671,0.132099,0.158764,23.61,29.56,19.1,22.18,52.71,41.6,34.58,-5.92,-21.64,-30.48,19.1,22.18,29.56,0,10.46,-0.41
rw_cut_5_p1_ch3_opt_disp_struct_7.xyz,Nucleus 14H :,1.729457,0.951462,0.946233,23.84,28.28,20.02,23.22,11.51,33.44,46.68,-23.51,8.57,-5.17,20.02,23.22,28.28,0,8.26,-0.23
rw_cut_5_p1_ch3_opt_disp_struct_7.xyz,Nucleus 16H :,1.355472,0.780761,2.251539,23.85,19.37,27.67,24.51,12.94,32.02,49.81,-25.46,-4.41,6.65,19.37,24.51,27.67,0,8.3,0.24
rw_cut_5_p1_ch3_opt_disp_struct_7.xyz,Nucleus 17H :,1.738617,1.287655,3.031704,24.07,20.42,25.09,26.7,45.26,28.32,33.66,-20.16,-7.65,-7.21,20.42,25.09,26.7,0,6.28,0.49
rw_cut_5_p1_ch3_opt_disp_struct_7.xyz,Nucleus 18H :,0.33399,-0.135347,2.338316,28.84,35.66,26.69,24.16,44.45,27.17,33.03,-0.42,-9.9,-7.82,24.16,26.69,35.66,0,11.5,-0.56
rw_cut_5_p1_ch3_opt_disp_struct_7.xyz,Nucleus 19H :,0.052322,-0.559436,1.040217,29.07,23.84,29.22,34.15,44.86,20.83,27.74,-11.47,3.22,2.02,23.84,29.22,34.15,0,10.31,0.04
rw_cut_5_p1_ch3_opt_disp_struct_7.xyz,Nucleus 20H :,-0.97321,-1.511113,0.852551,28.39,34.71,26.48,23.99,40.15,14.0,27.14,10.83,-6.52,-0.43,23.99,26.48,34.71,0,10.72,-0.53
rw_cut_5_p1_ch3_opt_disp_struct_7.xyz,Nucleus 21H :,-1.225032,-1.856712,-0.145811,28.92,34.48,24.44,27.84,42.83,12.02,24.22,-8.55,12.69,3.55,24.44,27.84,34.48,0,10.04,-0.32
rw_cut_5_p1_ch3_opt_disp_struct_7.xyz,Nucleus 23H :,-1.680584,-2.010442,1.959168,28.62,34.48,24.36,27.03,-7.44,17.59,39.11,33.92,8.17,-5.47,24.36,27.03,34.48,0,10.12,-0.47
rw_cut_5_p1_ch3_opt_disp_struct_7.xyz,Nucleus 24H :,-2.770822,-3.025008,1.773721,28.64,35.21,26.57,24.15,-6.31,17.51,40.54,33.4,7.34,-6.56,24.15,26.57,35.21,0,11.06,-0.56
rw_cut_5_p1_ch3_opt_disp_struct_7.xyz,Nucleus 26H :,-1.364477,-1.557955,3.244286,27.08,18.63,34.17,28.43,49.71,9.05,29.24,-15.78,10.33,-1.31,18.63,28.43,34.17,0,15.54,0.26
rw_cut_5_p1_ch3_opt_disp_struct_7.xyz,Nucleus 29H :,-1.936759,-1.920787,4.094506,27.27,38.72,23.65,19.45,25.27,67.48,49.87,-47.96,-11.26,-1.58,19.45,23.65,38.72,0,19.27,-0.56
rw_cut_5_p1_ch3_opt_disp_struct_7.xyz,Nucleus 31H :,-0.354531,-0.614026,3.458123,26.84,19.79,26.89,33.85,-1.62,25.06,55.58,21.55,1.8,-21.83,19.79,26.89,33.85,0,14.06,0.01
rw_cut_5_p1_ch3_opt_disp_struct_7.xyz,Nucleus 32H :,-0.127967,-0.257962,4.458005,26.68,37.04,19.37,23.64,28.08,43.85,48.82,-28.92,-3.78,-8.0,19.37,23.64,37.04,0,17.67,-0.52
rw_cut_5_p1_ch3_opt_disp_struct_7.xyz,Nucleus 33H :,2.507273,1.646626,0.665813,28.26,35.31,25.94,23.52,-20.26,38.59,12.78,43.9,-3.32,13.08,23.52,25.94,35.31,0,11.79,-0.59
rw_cut_5_p1_ch3_opt_disp_struct_7.xyz,Nucleus 34H :,0.082672,0.339744,-1.793273,27.38,34.63,26.92,20.59,50.89,29.24,36.42,-23.35,-9.1,-1.98,20.59,26.92,34.63,0,14.04,-0.1
rw_cut_5_p1_ch3_opt_disp_struct_7.xyz,Nucleus 0C :,-2.823152,-3.373133,0.74039,172.98,160.81,169.93,188.21,237.05,240.53,260.14,-80.48,-72.09,-66.21,160.81,169.93,188.21,0,27.4,-0.33
rw_cut_5_p1_ch3_opt_disp_struct_7.xyz,Nucleus 3C :,-3.746257,-2.599548,2.033614,63.12,149.04,51.29,-10.98,242.29,279.8,263.23,-93.42,-227.78,-274.76,-10.98,51.29,149.04,0,160.02,-0.22
rw_cut_5_p1_ch3_opt_disp_struct_7.xyz,Nucleus 4C :,-2.621697,-3.897154,2.419652,53.92,-32.26,128.11,65.91,261.26,254.17,277.62,-295.43,-130.45,-205.41,-32.26,65.91,128.11,0,160.37,0.22
rw_cut_5_p1_ch3_opt_disp_struct_7.xyz,Nucleus 7C :,3.933735,-7.395824,3.653249,43.5,143.53,-33.91,20.87,273.91,266.24,267.88,-123.42,-307.69,-246.43,-33.91,20.87,143.53,0,177.44,-0.38
rw_cut_5_p1_ch3_opt_disp_struct_7.xyz,Nucleus 8C :,3.913874,-6.989821,4.66977,49.1,168.34,0.25,-21.29,225.94,273.14,256.6,-58.34,-268.29,-281.75,-21.29,0.25,168.34,0,189.63,-0.77
rw_cut_5_p1_ch3_opt_disp_struct_7.xyz,Nucleus 9C :,3.081419,-8.069651,3.503368,55.56,159.26,49.31,-41.88,248.21,277.7,271.32,-90.24,-226.13,-314.17,-41.88,49.31,159.26,0,201.14,-0.09
rw_cut_5_p1_ch3_opt_disp_struct_7.xyz,Nucleus 11C :,3.957277,-6.316756,2.669108,43.96,174.02,-61.04,18.9,235.83,263.34,278.06,-62.0,-327.03,-256.31,-61.04,18.9,174.02,0,235.06,-0.32
rw_cut_5_p1_ch3_opt_disp_struct_7.xyz,Nucleus 12C :,4.58538,-6.418698,1.888886,161.17,188.75,138.2,156.55,258.15,216.87,230.72,-64.93,-73.92,-83.39,138.2,156.55,188.75,0,50.55,-0.27
rw_cut_5_p1_ch3_opt_disp_struct_7.xyz,Nucleus 13C :,3.058753,-5.323721,2.591968,53.3,165.17,48.03,-53.3,232.72,257.52,278.01,-67.7,-229.71,-310.93,-53.3,48.03,165.17,0,218.47,-0.07
rw_cut_5_p1_ch3_opt_disp_struct_7.xyz,Nucleus 15C :,3.193572,-4.401048,1.639072,65.35,170.93,51.35,-26.24,241.23,274.0,267.21,-72.46,-222.01,-291.94,-26.24,51.35,170.93,0,197.17,-0.21
rw_cut_5_p1_ch3_opt_disp_struct_7.xyz,Nucleus 22C :,2.499195,-3.670605,1.504715,155.33,130.63,146.64,188.71,194.08,210.01,270.52,-47.54,-75.57,-85.52,130.63,146.64,188.71,0,58.08,-0.45
rw_cut_5_p1_ch3_opt_disp_struct_7.xyz,Nucleus 27C :,2.034318,-5.22261,3.439093,21.45,115.26,-16.66,-34.24,239.55,269.73,264.46,-124.31,-282.36,-302.73,-34.24,-16.66,115.26,0,149.5,-0.76
rw_cut_5_p1_ch3_opt_disp_struct_7.xyz,Nucleus 5N :,1.826874,-5.968526,4.081001,117.59,55.11,169.99,127.66,301.16,336.35,332.54,-131.8,-207.98,-277.51,55.11,127.66,169.99,0,114.88,0.26
rw_cut_5_p1_ch3_opt_disp_struct_7.xyz,Nucleus 25N :,1.41321,-4.414141,3.415995,168.57,101.54,223.61,180.56,284.47,347.89,330.71,-232.86,-101.89,-122.61,101.54,180.56,223.61,0,122.07,0.29
rw_cut_5_p1_ch3_opt_disp_struct_7.xyz,Nucleus 28N :,4.851011,-7.974766,3.545986,174.79,114.41,176.62,233.33,322.22,341.98,336.3,-212.73,-160.3,-103.11,114.41,176.62,233.33,0,118.92,0.05
rw_cut_5_p1_ch3_opt_disp_struct_7.xyz,Nucleus 30N :,4.04494,-4.334268,1.10769,173.88,114.7,211.84,195.11,293.67,339.39,325.09,-212.04,-96.68,-127.77,114.7,195.11,211.84,0,97.14,0.66
rw_cut_5_p1_ch3_opt_disp_struct_8.xyz,Nucleus 1H :,1.014023,0.00841,-1.320169,28.97,35.08,23.31,28.53,40.31,26.78,32.12,-6.69,-1.65,-3.95,23.31,28.53,35.08,0,11.77,-0.11
rw_cut_5_p1_ch3_opt_disp_struct_8.xyz,Nucleus 2H :,1.825936,0.614139,-1.728393,29.19,35.27,24.46,27.83,48.44,29.84,26.32,1.56,-5.1,-13.49,24.46,27.83,35.27,0,10.81,-0.38
rw_cut_5_p1_ch3_opt_disp_struct_8.xyz,Nucleus 6H :,1.178602,-1.028335,-1.637929,23.86,16.04,24.77,30.76,51.99,29.8,15.4,-21.7,-5.05,1.14,16.04,24.77,30.76,0,14.72,0.19
rw_cut_5_p1_ch3_opt_disp_struct_8.xyz,Nucleus 10H :,0.944671,0.132099,0.158764,23.63,29.61,19.09,22.19,52.5,41.43,34.54,-5.75,-21.56,-30.27,19.09,22.19,29.61,0,10.52,-0.41
rw_cut_5_p1_ch3_opt_disp_struct_8.xyz,Nucleus 14H :,1.729457,0.951462,0.946233,23.85,28.34,19.99,23.22,11.29,33.58,46.68,-23.49,8.75,-5.25,19.99,23.22,28.34,0,8.35,-0.23
rw_cut_5_p1_ch3_opt_disp_struct_8.xyz,Nucleus 16H :,1.355472,0.780761,2.251539,23.88,19.38,27.73,24.52,12.88,32.16,49.69,-25.31,-4.48,6.68,19.38,24.52,27.73,0,8.35,0.23
rw_cut_5_p1_ch3_opt_disp_struct_8.xyz,Nucleus 17H :,1.738617,1.287655,3.031704,24.09,20.45,25.1,26.73,45.23,28.38,33.61,-20.11,-7.69,-7.14,20.45,25.1,26.73,0,6.28,0.48
rw_cut_5_p1_ch3_opt_disp_struct_8.xyz,Nucleus 18H :,0.33399,-0.135347,2.338316,28.85,35.65,26.71,24.18,44.4,27.11,33.04,-0.38,-9.93,-7.71,24.18,26.71,35.65,0,11.47,-0.56
rw_cut_5_p1_ch3_opt_disp_struct_8.xyz,Nucleus 19H :,0.052322,-0.559436,1.040217,29.08,23.84,29.25,34.16,44.78,20.83,27.74,-11.34,3.21,2.04,23.84,29.25,34.16,0,10.32,0.05
rw_cut_5_p1_ch3_opt_disp_struct_8.xyz,Nucleus 20H :,-0.97321,-1.511113,0.852551,28.41,34.7,26.51,24.02,40.11,14.07,27.18,10.77,-6.45,-0.44,24.02,26.51,34.7,0,10.68,-0.53
rw_cut_5_p1_ch3_opt_disp_struct_8.xyz,Nucleus 21H :,-1.225032,-1.856712,-0.145811,28.92,34.51,24.41,27.84,42.69,11.88,24.48,-8.37,12.76,3.33,24.41,27.84,34.51,0,10.1,-0.32
rw_cut_5_p1_ch3_opt_disp_struct_8.xyz,Nucleus 23H :,-1.680584,-2.010442,1.959168,28.61,34.47,24.37,26.99,-8.29,17.5,39.14,34.81,8.22,-5.55,24.37,26.99,34.47,0,10.1,-0.48
rw_cut_5_p1_ch3_opt_disp_struct_8.xyz,Nucleus 24H :,-2.770822,-3.025008,1.773721,28.63,35.19,26.54,24.15,-7.24,17.46,40.61,34.36,7.37,-6.69,24.15,26.54,35.19,0,11.04,-0.57
rw_cut_5_p1_ch3_opt_disp_struct_8.xyz,Nucleus 26H :,-1.364477,-1.557955,3.244286,27.04,18.63,34.13,28.37,49.9,7.74,29.05,-16.04,11.62,-1.15,18.63,28.37,34.13,0,15.5,0.26
rw_cut_5_p1_ch3_opt_disp_struct_8.xyz,Nucleus 29H :,-1.936759,-1.920787,4.094506,27.15,38.2,23.7,19.56,25.85,69.52,49.17,-49.89,-11.12,-2.07,19.56,23.7,38.2,0,18.64,-0.56
rw_cut_5_p1_ch3_opt_disp_struct_8.xyz,Nucleus 31H :,-0.354531,-0.614026,3.458123,26.8,19.79,26.8,33.81,-1.66,25.08,55.96,21.59,1.67,-22.25,19.79,26.8,33.81,0,14.02,0.0
rw_cut_5_p1_ch3_opt_disp_struct_8.xyz,Nucleus 32H :,-0.127967,-0.257962,4.458005,26.6,36.62,19.47,23.71,28.59,43.66,50.62,-30.74,-4.29,-8.04,19.47,23.71,36.62,0,17.15,-0.51
rw_cut_5_p1_ch3_opt_disp_struct_8.xyz,Nucleus 33H :,2.507273,1.646626,0.665813,28.24,35.26,25.94,23.52,-21.63,38.54,12.47,45.27,-3.32,13.39,23.52,25.94,35.26,0,11.74,-0.59
rw_cut_5_p1_ch3_opt_disp_struct_8.xyz,Nucleus 34H :,0.082672,0.339744,-1.793273,27.31,34.62,26.71,20.61,51.18,28.92,36.58,-23.64,-9.26,-1.85,20.61,26.71,34.62,0,14.01,-0.13
rw_cut_5_p1_ch3_opt_disp_struct_8.xyz,Nucleus 0C :,-2.823152,-3.373133,0.74039,172.96,160.81,169.85,188.23,236.95,240.51,259.97,-80.24,-72.17,-66.14,160.81,169.85,188.23,0,27.42,-0.34
rw_cut_5_p1_ch3_opt_disp_struct_8.xyz,Nucleus 3C :,-3.746257,-2.599548,2.033614,63.12,149.03,51.37,-11.05,242.22,279.47,263.15,-93.36,-227.32,-274.8,-11.05,51.37,149.03,0,160.08,-0.22
rw_cut_5_p1_ch3_opt_disp_struct_8.xyz,Nucleus 4C :,-2.621697,-3.897154,2.419652,54.18,-31.91,128.04,66.42,261.11,254.47,277.39,-295.12,-130.59,-204.7,-31.91,66.42,128.04,0,159.95,0.23
rw_cut_5_p1_ch3_opt_disp_struct_8.xyz,Nucleus 7C :,4.100845,-7.580213,3.677229,43.45,143.44,-34.04,20.94,273.69,266.39,267.89,-123.64,-307.62,-246.37,-34.04,20.94,143.44,0,177.48,-0.38
rw_cut_5_p1_ch3_opt_disp_struct_8.xyz,Nucleus 8C :,4.080984,-7.17421,4.69375,49.03,168.28,0.22,-21.42,225.83,272.49,256.8,-58.26,-268.16,-281.61,-21.42,0.22,168.28,0,189.7,-0.77
rw_cut_5_p1_ch3_opt_disp_struct_8.xyz,Nucleus 9C :,3.248529,-8.25404,3.527347,55.51,159.12,49.42,-42.01,248.45,277.14,271.06,-90.46,-225.65,-314.0,-42.01,49.42,159.12,0,201.13,-0.09
rw_cut_5_p1_ch3_opt_disp_struct_8.xyz,Nucleus 11C :,4.124386,-6.501145,2.693088,44.09,173.92,-61.0,19.35,235.62,263.33,277.82,-61.85,-326.9,-255.75,-61.0,19.35,173.92,0,234.92,-0.32
rw_cut_5_p1_ch3_opt_disp_struct_8.xyz,Nucleus 12C :,4.75249,-6.603087,1.912866,161.17,188.78,138.12,156.61,257.9,217.09,230.72,-64.76,-74.09,-83.36,138.12,156.61,188.78,0,50.66,-0.27
rw_cut_5_p1_ch3_opt_disp_struct_8.xyz,Nucleus 13C :,3.225863,-5.50811,2.615947,53.12,165.05,47.88,-53.56,232.6,257.7,277.83,-67.63,-229.71,-311.43,-53.56,47.88,165.05,0,218.61,-0.07
rw_cut_5_p1_ch3_opt_disp_struct_8.xyz,Nucleus 15C :,3.360682,-4.585437,1.663052,65.43,170.79,51.63,-26.14,241.53,273.9,267.02,-72.66,-221.66,-291.86,-26.14,51.63,170.79,0,196.93,-0.21
rw_cut_5_p1_ch3_opt_disp_struct_8.xyz,Nucleus 22C :,2.666305,-3.854994,1.528694,155.3,130.59,146.64,188.68,193.1,209.55,271.11,-46.56,-75.55,-85.74,130.59,146.64,188.68,0,58.09,-0.45
rw_cut_5_p1_ch3_opt_disp_struct_8.xyz,Nucleus 27C :,2.201428,-5.406999,3.463072,21.41,115.29,-16.64,-34.41,239.93,270.25,264.17,-124.66,-282.12,-303.33,-34.41,-16.64,115.29,0,149.7,-0.76
rw_cut_5_p1_ch3_opt_disp_struct_8.xyz,Nucleus 5N :,1.993983,-6.152915,4.104981,117.86,55.58,169.87,128.14,301.29,336.28,332.45,-131.92,-207.5,-276.99,55.58,128.14,169.87,0,114.29,0.27
rw_cut_5_p1_ch3_opt_disp_struct_8.xyz,Nucleus 25N :,1.58032,-4.59853,3.439975,168.32,101.14,223.17,180.65,282.83,348.19,330.68,-233.6,-100.25,-122.89,101.14,180.65,223.17,0,122.03,0.3
rw_cut_5_p1_ch3_opt_disp_struct_8.xyz,Nucleus 28N :,5.018121,-8.159155,3.569965,174.78,114.37,176.53,233.43,322.21,342.91,336.26,-212.82,-161.31,-102.92,114.37,176.53,233.43,0,119.06,0.04
rw_cut_5_p1_ch3_opt_disp_struct_8.xyz,Nucleus 30N :,4.21205,-4.518657,1.13167,173.87,114.6,212.03,194.98,294.48,339.77,324.94,-211.95,-97.62,-128.0,114.6,194.98,212.03,0,97.43,0.65
rw_cut_5_p1_ch3_opt_disp_struct_9.xyz,Nucleus 1H :,1.014023,0.00841,-1.320169,28.99,35.08,23.32,28.56,40.28,26.8,32.04,-6.67,-1.65,-3.85,23.32,28.56,35.08,0,11.76,-0.11
rw_cut_5_p1_ch3_opt_disp_struct_9.xyz,Nucleus 2H :,1.825936,0.614139,-1.728393,29.19,35.3,24.46,27.8,48.3,29.78,26.27,1.57,-5.02,-13.35,24.46,27.8,35.3,0,10.84,-0.38
rw_cut_5_p1_ch3_opt_disp_struct_9.xyz,Nucleus 6H :,1.178602,-1.028335,-1.637929,23.88,16.06,24.8,30.78,51.86,29.89,15.42,-21.53,-5.11,1.11,16.06,24.8,30.78,0,14.72,0.19
rw_cut_5_p1_ch3_opt_disp_struct_9.xyz,Nucleus 10H :,0.944671,0.132099,0.158764,23.65,29.66,19.09,22.2,52.31,41.27,34.5,-5.59,-21.48,-30.07,19.09,22.2,29.66,0,10.57,-0.41
rw_cut_5_p1_ch3_opt_disp_struct_9.xyz,Nucleus 14H :,1.729457,0.951462,0.946233,23.86,28.39,19.97,23.23,11.12,33.66,46.67,-23.46,8.89,-5.29,19.97,23.23,28.39,0,8.42,-0.22
rw_cut_5_p1_ch3_opt_disp_struct_9.xyz,Nucleus 16H :,1.355472,0.780761,2.251539,23.9,19.38,27.77,24.54,12.83,32.26,49.57,-25.16,-4.54,6.71,19.38,24.54,27.77,0,8.39,0.23
rw_cut_5_p1_ch3_opt_disp_struct_9.xyz,Nucleus 17H :,1.738617,1.287655,3.031704,24.11,20.47,25.11,26.76,45.19,28.42,33.56,-20.05,-7.72,-7.06,20.47,25.11,26.76,0,6.29,0.48
rw_cut_5_p1_ch3_opt_disp_struct_9.xyz,Nucleus 18H :,0.33399,-0.135347,2.338316,28.85,35.63,26.73,24.19,44.36,27.06,33.06,-0.34,-9.97,-7.62,24.19,26.73,35.63,0,11.44,-0.56
rw_cut_5_p1_ch3_opt_disp_struct_9.xyz,Nucleus 19H :,0.052322,-0.559436,1.040217,29.1,23.84,29.28,34.17,44.69,20.84,27.72,-11.21,3.19,2.06,23.84,29.28,34.17,0,10.33,0.05
rw_cut_5_p1_ch3_opt_disp_struct_9.xyz,Nucleus 20H :,-0.97321,-1.511113,0.852551,28.42,34.68,26.54,24.04,40.07,14.13,27.2,10.7,-6.39,-0.44,24.04,26.54,34.68,0,10.64,-0.53
rw_cut_5_p1_ch3_opt_disp_struct_9.xyz,Nucleus 21H :,-1.225032,-1.856712,-0.145811,28.92,34.54,24.37,27.84,42.55,11.76,24.68,-8.21,12.81,3.16,24.37,27.84,34.54,0,10.17,-0.32
rw_cut_5_p1_ch3_opt_disp_struct_9.xyz,Nucleus 23H :,-1.680584,-2.010442,1.959168,28.59,34.45,24.37,26.96,-9.14,17.42,39.16,35.7,8.27,-5.64,24.37,26.96,34.45,0,10.08,-0.49
rw_cut_5_p1_ch3_opt_disp_struct_9.xyz,Nucleus 24H :,-2.770822,-3.025008,1.773721,28.61,35.17,26.51,24.15,-8.15,17.41,40.69,35.3,7.39,-6.82,24.15,26.51,35.17,0,11.02,-0.57
rw_cut_5_p1_ch3_opt_disp_struct_9.xyz,Nucleus 26H :,-1.364477,-1.557955,3.244286,27.02,18.64,34.09,28.32,6.44,50.1,28.87,-16.28,12.91,-0.99,18.64,28.32,34.09,0,15.45,0.25
rw_cut_5_p1_ch3_opt_disp_struct_9.xyz,Nucleus 29H :,-1.936759,-1.920787,4.094506,27.05,37.76,23.74,19.65,71.48,26.38,48.54,-51.76,-10.99,-2.5,19.65,23.74,37.76,0,18.11,-0.55
rw_cut_5_p1_ch3_opt_disp_struct_9.xyz,Nucleus 31H :,-0.354531,-0.614026,3.458123,26.76,19.8,26.71,33.77,-1.69,25.11,56.36,21.62,1.56,-22.67,19.8,26.71,33.77,0,13.97,-0.01
rw_cut_5_p1_ch3_opt_disp_struct_9.xyz,Nucleus 32H :,-0.127967,-0.257962,4.458005,26.53,36.28,19.55,23.76,29.04,43.48,52.39,-32.49,-4.76,-8.07,19.55,23.76,36.28,0,16.73,-0.5
rw_cut_5_p1_ch3_opt_disp_struct_9.xyz,Nucleus 33H :,2.507273,1.646626,0.665813,28.23,35.21,25.94,23.53,-22.99,38.49,12.17,46.63,-3.32,13.69,23.53,25.94,35.21,0,11.68,-0.59
rw_cut_5_p1_ch3_opt_disp_struct_9.xyz,Nucleus 34H :,0.082672,0.339744,-1.793273,27.26,34.62,26.53,20.63,51.48,28.62,36.73,-23.94,-9.4,-1.72,20.63,26.53,34.62,0,13.99,-0.16
rw_cut_5_p1_ch3_opt_disp_struct_9.xyz,Nucleus 0C :,-2.823152,-3.373133,0.74039,172.95,160.82,169.78,188.25,236.85,240.51,259.82,-80.01,-72.23,-66.09,160.82,169.78,188.25,0,27.43,-0.35
rw_cut_5_p1_ch3_opt_disp_struct_9.xyz,Nucleus 3C :,-3.746257,-2.599548,2.033614,63.12,149.02,51.45,-11.1,242.16,279.15,263.05,-93.3,-226.87,-274.82,-11.1,51.45,149.02,0,160.12,-0.22
rw_cut_5_p1_ch3_opt_disp_struct_9.xyz,Nucleus 4C :,-2.621697,-3.897154,2.419652,54.41,-31.61,127.98,66.86,260.92,254.83,277.17,-294.87,-130.73,-204.07,-31.61,66.86,127.98,0,159.59,0.23
rw_cut_5_p1_ch3_opt_disp_struct_9.xyz,Nucleus 7C :,4.267954,-7.764602,3.701208,43.4,143.36,-34.16,21.0,273.48,266.54,267.83,-123.81,-307.52,-246.34,-34.16,21.0,143.36,0,177.52,-0.38
rw_cut_5_p1_ch3_opt_disp_struct_9.xyz,Nucleus 8C :,4.248093,-7.358599,4.71773,48.98,168.23,0.22,-21.5,225.74,271.83,256.93,-58.17,-267.9,-281.49,-21.5,0.22,168.23,0,189.73,-0.77
rw_cut_5_p1_ch3_opt_disp_struct_9.xyz,Nucleus 9C :,3.415639,-8.438429,3.551327,55.46,159.0,49.5,-42.12,248.63,276.61,270.8,-90.63,-225.22,-313.81,-42.12,49.5,159.0,0,201.12,-0.09
rw_cut_5_p1_ch3_opt_disp_struct_9.xyz,Nucleus 11C :,4.291496,-6.685534,2.717067,44.19,173.83,-60.96,19.71,235.47,263.32,277.58,-61.76,-326.77,-255.26,-60.96,19.71,173.83,0,234.79,-0.31
rw_cut_5_p1_ch3_opt_disp_struct_9.xyz,Nucleus 12C :,4.9196,-6.787476,1.936846,161.18,188.81,138.05,156.67,257.66,217.34,230.69,-64.55,-74.27,-83.33,138.05,156.67,188.81,0,50.76,-0.27
rw_cut_5_p1_ch3_opt_disp_struct_9.xyz,Nucleus 13C :,3.392973,-5.692499,2.639927,52.98,164.94,47.76,-53.75,232.41,257.84,277.62,-67.51,-229.63,-311.78,-53.75,47.76,164.94,0,218.69,-0.07
rw_cut_5_p1_ch3_opt_disp_struct_9.xyz,Nucleus 15C :,3.527791,-4.769826,1.687032,65.48,170.66,51.85,-26.07,241.83,273.79,266.83,-72.85,-221.34,-291.81,-26.07,51.85,170.66,0,196.73,-0.21
rw_cut_5_p1_ch3_opt_disp_struct_9.xyz,Nucleus 22C :,2.833415,-4.039383,1.552674,155.29,130.55,146.65,188.66,192.14,209.09,271.69,-45.6,-75.48,-86.0,130.55,146.65,188.66,0,58.11,-0.45
rw_cut_5_p1_ch3_opt_disp_struct_9.xyz,Nucleus 27C :,2.368537,-5.591388,3.487052,21.38,115.32,-16.63,-34.55,240.26,270.74,263.9,-124.96,-281.93,-303.87,-34.55,-16.63,115.32,0,149.87,-0.76
rw_cut_5_p1_ch3_opt_disp_struct_9.xyz,Nucleus 5N :,2.161093,-6.337304,4.12896,118.1,55.97,169.77,128.55,301.36,336.21,332.36,-131.98,-207.08,-276.58,55.97,128.55,169.77,0,113.8,0.28
rw_cut_5_p1_ch3_opt_disp_struct_9.xyz,Nucleus 25N :,1.747429,-4.782919,3.463955,168.11,100.81,222.8,180.72,281.22,348.51,330.65,-234.29,-98.65,-123.12,100.81,180.72,222.8,0,121.99,0.31
rw_cut_5_p1_ch3_opt_disp_struct_9.xyz,Nucleus 28N :,5.185231,-8.343544,3.593945,174.77,114.34,176.46,233.5,322.18,343.86,336.23,-212.89,-162.29,-102.78,114.34,176.46,233.5,0,119.16,0.04
rw_cut_5_p1_ch3_opt_disp_struct_9.xyz,Nucleus 30N :,4.37916,-4.703046,1.155649,173.85,114.5,212.17,194.88,295.34,340.14,324.81,-211.87,-98.59,-128.27,114.5,194.88,212.17,0,97.67,0.65
rw_cut_5_p1_opt.xyz,Nucleus 1H :,0.481257,0.741436,-1.432009,28.8,35.26,28.1,23.04,40.15,30.37,25.61,-4.97,-1.83,-2.93,23.04,28.1,35.26,0,12.22,-0.17
rw_cut_5_p1_opt.xyz,Nucleus 2H :,1.376091,1.259999,-1.782431,29.13,24.18,28.17,35.05,47.06,26.7,29.97,0.62,-4.71,-12.24,24.18,28.17,35.05,0,10.87,-0.26
rw_cut_5_p1_opt.xyz,Nucleus 6H :,0.331331,-0.137431,-2.070295,23.32,15.55,24.14,30.26,51.11,28.58,15.84,-21.02,-4.61,0.05,15.55,24.14,30.26,0,14.71,0.17
rw_cut_5_p1_opt.xyz,Nucleus 10H :,0.60421,0.375351,0.005136,23.16,27.53,23.33,18.62,49.93,32.67,31.88,-26.89,-4.56,-13.55,18.62,23.33,27.53,0,8.91,0.06
rw_cut_5_p1_opt.xyz,Nucleus 12H :,1.648612,0.717142,0.840465,23.49,19.78,24.41,26.29,48.63,16.65,29.13,-24.46,3.48,-2.94,19.78,24.41,26.29,0,6.51,0.42
rw_cut_5_p1_opt.xyz,Nucleus 14H :,1.368036,0.259657,2.100358,23.6,20.19,25.92,24.69,9.21,30.96,43.75,11.27,-5.14,-19.24,20.19,24.69,25.92,0,5.73,0.57
rw_cut_5_p1_opt.xyz,Nucleus 16H :,1.964988,0.370322,2.902746,23.5,19.0,26.96,24.55,47.61,30.25,13.41,-23.3,-3.41,5.95,19.0,24.55,26.96,0,7.96,0.4
rw_cut_5_p1_opt.xyz,Nucleus 17H :,0.181036,-0.436577,2.092912,23.73,19.85,26.38,24.97,44.8,27.51,31.85,-19.59,-7.52,-5.86,19.85,24.97,26.38,0,6.53,0.57
rw_cut_5_p1_opt.xyz,Nucleus 18H :,-0.332094,-0.364522,0.796939,28.79,36.05,26.37,23.96,43.93,25.28,29.01,1.17,-8.58,-4.44,23.96,26.37,36.05,0,12.09,-0.6
rw_cut_5_p1_opt.xyz,Nucleus 20H :,-1.575214,-0.975831,0.532739,28.9,34.74,24.41,27.54,3.84,19.47,39.23,22.29,6.81,-4.96,24.41,27.54,34.74,0,10.33,-0.39
rw_cut_5_p1_opt.xyz,Nucleus 21H :,-2.01054,-0.928082,-0.460486,28.89,35.61,26.8,24.26,40.08,18.39,4.3,22.17,6.87,-5.14,24.26,26.8,35.61,0,11.35,-0.55
rw_cut_5_p1_opt.xyz,Nucleus 23H :,-2.255591,-1.629413,1.56716,27.65,18.45,35.09,29.41,48.66,21.69,31.38,-13.62,-4.58,-0.56,18.45,29.41,35.09,0,16.64,0.32
rw_cut_5_p1_opt.xyz,Nucleus 26H :,-3.21827,-2.085788,1.364524,27.3,48.68,14.06,19.17,16.75,41.89,59.19,-28.54,4.41,-11.79,14.06,19.17,48.68,0,34.62,-0.7
rw_cut_5_p1_opt.xyz,Nucleus 28H :,-1.7188,-1.678678,2.85103,27.43,20.2,27.99,34.11,52.86,4.47,24.72,-19.3,15.77,3.77,20.2,27.99,34.11,0,13.91,0.12
rw_cut_5_p1_opt.xyz,Nucleus 29H :,-2.27419,-2.156438,3.652739,26.57,47.97,13.8,17.95,51.09,26.55,17.68,-12.76,2.3,-5.14,13.8,17.95,47.97,0,34.17,-0.76
rw_cut_5_p1_opt.xyz,Nucleus 30H :,-0.48843,-1.081939,3.139926,28.53,35.91,23.6,26.09,39.03,-4.95,16.98,28.68,9.03,-3.16,23.6,26.09,35.91,0,12.31,-0.59
rw_cut_5_p1_opt.xyz,Nucleus 31H :,-0.0806,-1.102468,4.145334,28.18,20.31,34.27,29.95,48.63,35.45,33.34,-20.42,-9.03,-3.44,20.31,29.95,34.27,0,13.96,0.38
rw_cut_5_p1_opt.xyz,Nucleus 0C :,2.537869,1.29502,0.634339,173.29,160.56,170.82,188.5,260.34,235.77,240.32,-80.6,-67.85,-68.1,160.56,170.82,188.5,0,27.94,-0.27
rw_cut_5_p1_opt.xyz,Nucleus 3C :,-0.374688,1.404825,-1.599393,61.04,148.75,47.64,-13.28,245.56,280.18,265.3,-97.24,-232.39,-278.31,-13.28,47.64,148.75,0,162.03,-0.25
rw_cut_5_p1_opt.xyz,Nucleus 4C :,1.185357,-6.560801,1.259307,48.55,-40.21,56.61,129.24,276.08,260.26,256.2,-303.24,-214.5,-129.16,-40.21,56.61,129.24,0,169.45,0.14
rw_cut_5_p1_opt.xyz,Nucleus 7C :,1.375766,-6.457647,2.332408,40.69,144.42,-37.47,15.12,275.47,266.07,268.38,-123.52,-312.25,-252.08,-37.47,15.12,144.42,0,181.89,-0.42
rw_cut_5_p1_opt.xyz,Nucleus 8C :,0.190172,-6.992037,1.096265,51.04,172.85,0.92,-20.65,229.79,268.14,255.53,-57.14,-262.78,-280.43,-20.65,0.92,172.85,0,193.5,-0.78
rw_cut_5_p1_opt.xyz,Nucleus 9C :,1.341499,-5.275029,0.584092,52.17,178.55,28.93,-50.98,275.74,251.88,264.81,-73.69,-243.81,-318.43,-50.98,28.93,178.55,0,229.53,-0.3
rw_cut_5_p1_opt.xyz,Nucleus 11C :,1.831614,-5.273551,-0.295427,52.22,179.46,-59.15,36.34,232.85,262.78,271.94,-54.46,-321.9,-234.55,-59.15,36.34,179.46,0,238.61,-0.2
rw_cut_5_p1_opt.xyz,Nucleus 13C :,0.695541,-4.146887,0.914898,56.29,180.08,41.16,-52.36,222.14,273.83,254.32,-43.02,-232.61,-305.79,-52.36,41.16,180.08,0,232.44,-0.2
rw_cut_5_p1_opt.xyz,Nucleus 15C :,0.926495,-3.038327,0.211136,60.86,173.95,38.8,-30.18,239.86,272.48,263.86,-67.63,-233.37,-292.63,-30.18,38.8,173.95,0,204.13,-0.32
rw_cut_5_p1_opt.xyz,Nucleus 19C :,0.421205,-2.176602,0.396836,155.56,131.38,146.43,188.87,264.44,206.24,215.41,-59.39,-86.31,-73.71,131.38,146.43,188.87,0,57.49,-0.48
rw_cut_5_p1_opt.xyz,Nucleus 24C :,-0.169048,-4.092059,1.928203,22.72,118.4,-20.58,-29.67,235.89,265.43,268.1,-117.49,-288.27,-295.5,-29.67,-20.58,118.4,0,148.07,-0.88
rw_cut_5_p1_opt.xyz,Nucleus 5N :,-0.484116,-4.936141,2.375518,109.79,41.81,116.71,170.84,300.81,336.76,331.72,-130.68,-290.47,-218.77,41.81,116.71,170.84,0,129.03,0.16
rw_cut_5_p1_opt.xyz,Nucleus 22N :,-0.600241,-3.212575,2.205111,174.43,112.28,179.12,231.9,300.9,345.79,331.45,-220.13,-110.66,-124.06,112.28,179.12,231.9,0,119.62,0.12
rw_cut_5_p1_opt.xyz,Nucleus 25N :,1.927464,-7.249751,0.855911,165.4,111.75,172.86,211.59,339.74,331.35,318.14,-214.34,-151.15,-127.55,111.75,172.86,211.59,0,99.84,0.22
rw_cut_5_p1_opt.xyz,Nucleus 27N :,1.705118,-2.988638,-0.423803,160.34,107.14,190.51,183.37,292.89,337.11,325.89,-102.79,-147.88,-224.21,107.14,183.37,190.51,0,83.37,0.83
rw_cut_5_p1_opt_disp_struct_0.xyz,Nucleus 1H :,0.481257,0.741436,-1.432009,28.82,35.21,28.17,23.08,40.08,30.67,25.54,-4.97,-1.85,-3.02,23.08,28.17,35.21,0,12.13,-0.16
rw_cut_5_p1_opt_disp_struct_0.xyz,Nucleus 2H :,1.376091,1.259999,-1.782431,29.13,24.21,28.13,35.06,47.1,26.86,29.87,0.55,-4.74,-12.23,24.21,28.13,35.06,0,10.85,-0.28
rw_cut_5_p1_opt_disp_struct_0.xyz,Nucleus 6H :,0.331331,-0.137431,-2.070295,23.38,15.62,24.26,30.27,51.33,28.69,15.97,-21.25,-4.58,-0.01,15.62,24.26,30.27,0,14.65,0.18
rw_cut_5_p1_opt_disp_struct_0.xyz,Nucleus 10H :,0.60421,0.375351,0.005136,23.18,27.61,23.23,18.71,50.1,32.91,31.77,-27.08,-4.71,-13.44,18.71,23.23,27.61,0,8.9,0.02
rw_cut_5_p1_opt_disp_struct_0.xyz,Nucleus 12H :,1.648612,0.717142,0.840465,23.53,19.84,24.38,26.38,48.77,16.83,29.22,-24.62,3.38,-2.98,19.84,24.38,26.38,0,6.54,0.39
rw_cut_5_p1_opt_disp_struct_0.xyz,Nucleus 14H :,1.368036,0.259657,2.100358,23.65,20.21,26.04,24.69,9.94,31.08,43.87,10.55,-5.14,-19.35,20.21,24.69,26.04,0,5.83,0.54
rw_cut_5_p1_opt_disp_struct_0.xyz,Nucleus 16H :,1.964988,0.370322,2.902746,23.53,19.07,27.02,24.51,47.79,30.28,13.86,-23.53,-3.39,5.59,19.07,24.51,27.02,0,7.95,0.37
rw_cut_5_p1_opt_disp_struct_0.xyz,Nucleus 17H :,0.181036,-0.436577,2.092912,23.78,19.93,26.43,24.99,44.91,27.55,32.16,-19.7,-7.43,-6.14,19.93,24.99,26.43,0,6.5,0.56
rw_cut_5_p1_opt_disp_struct_0.xyz,Nucleus 18H :,-0.332094,-0.364522,0.796939,28.8,36.01,26.38,24.01,43.76,25.38,29.0,1.1,-8.35,-4.49,24.01,26.38,36.01,0,12.0,-0.61
rw_cut_5_p1_opt_disp_struct_0.xyz,Nucleus 20H :,-1.575214,-0.975831,0.532739,28.84,34.68,24.38,27.47,2.65,19.41,39.16,23.54,6.77,-5.0,24.38,27.47,34.68,0,10.3,-0.4
rw_cut_5_p1_opt_disp_struct_0.xyz,Nucleus 21H :,-2.01054,-0.928082,-0.460486,28.84,35.54,26.76,24.22,40.04,18.32,3.07,23.45,6.86,-5.21,24.22,26.76,35.54,0,11.32,-0.55
rw_cut_5_p1_opt_disp_struct_0.xyz,Nucleus 23H :,-2.255591,-1.629413,1.56716,27.54,18.52,34.89,29.2,48.74,20.44,30.95,-13.92,-3.81,0.22,18.52,29.2,34.89,0,16.37,0.3
rw_cut_5_p1_opt_disp_struct_0.xyz,Nucleus 26H :,-3.21827,-2.085788,1.364524,28.01,46.59,16.2,21.24,19.43,46.72,57.18,-30.99,2.9,-11.2,16.2,21.24,46.59,0,30.39,-0.67
rw_cut_5_p1_opt_disp_struct_0.xyz,Nucleus 28H :,-1.7188,-1.678678,2.85103,27.4,20.05,27.85,34.29,52.94,2.97,24.84,-19.01,17.13,3.31,20.05,27.85,34.29,0,14.24,0.09
rw_cut_5_p1_opt_disp_struct_0.xyz,Nucleus 29H :,-2.27419,-2.156438,3.652739,27.24,45.38,15.98,20.35,48.73,30.45,21.34,-14.47,0.84,-5.18,15.98,20.35,45.38,0,29.4,-0.7
rw_cut_5_p1_opt_disp_struct_0.xyz,Nucleus 30H :,-0.48843,-1.081939,3.139926,28.49,35.81,23.6,26.05,38.91,-6.49,16.59,30.21,9.38,-3.14,23.6,26.05,35.81,0,12.21,-0.6
rw_cut_5_p1_opt_disp_struct_0.xyz,Nucleus 31H :,-0.0806,-1.102468,4.145334,28.1,20.38,34.48,29.44,48.74,35.94,32.43,-20.81,-8.95,-3.05,20.38,29.44,34.48,0,14.1,0.29
rw_cut_5_p1_opt_disp_struct_0.xyz,Nucleus 0C :,2.537869,1.29502,0.634339,173.26,160.66,170.65,188.47,260.17,235.37,240.09,-80.43,-67.52,-67.9,160.66,170.65,188.47,0,27.81,-0.28
rw_cut_5_p1_opt_disp_struct_0.xyz,Nucleus 3C :,-0.374688,1.404825,-1.599393,61.67,148.92,49.06,-12.98,243.96,279.51,264.86,-95.54,-230.31,-277.47,-12.98,49.06,148.92,0,161.9,-0.23
rw_cut_5_p1_opt_disp_struct_0.xyz,Nucleus 4C :,1.302269,-6.773993,1.201163,49.63,-38.63,58.39,129.12,276.16,260.82,255.37,-301.75,-212.81,-128.91,-38.63,58.39,129.12,0,167.75,0.16
rw_cut_5_p1_opt_disp_struct_0.xyz,Nucleus 7C :,1.492678,-6.670838,2.274264,41.07,144.27,-37.31,16.24,275.08,264.58,268.55,-122.42,-311.78,-250.81,-37.31,16.24,144.27,0,181.58,-0.41
rw_cut_5_p1_opt_disp_struct_0.xyz,Nucleus 8C :,0.307084,-7.205229,1.038121,51.22,172.36,1.76,-20.47,229.55,268.82,256.35,-57.34,-263.13,-280.6,-20.47,1.76,172.36,0,192.83,-0.77
rw_cut_5_p1_opt_disp_struct_0.xyz,Nucleus 9C :,1.458411,-5.488221,0.525948,53.35,178.51,31.62,-50.07,250.76,275.88,264.76,-72.65,-241.22,-317.46,-50.07,31.62,178.51,0,228.58,-0.29
rw_cut_5_p1_opt_disp_struct_0.xyz,Nucleus 11C :,1.948527,-5.486743,-0.353571,53.63,179.21,-58.13,39.8,231.73,262.9,271.79,-53.72,-320.79,-231.03,-58.13,39.8,179.21,0,237.34,-0.17
rw_cut_5_p1_opt_disp_struct_0.xyz,Nucleus 13C :,0.812454,-4.360079,0.856754,56.65,179.47,42.97,-52.49,222.61,274.29,254.73,-44.22,-231.26,-306.19,-52.49,42.97,179.47,0,231.96,-0.18
rw_cut_5_p1_opt_disp_struct_0.xyz,Nucleus 15C :,1.043407,-3.251519,0.152992,62.49,173.81,42.42,-28.76,238.52,272.5,264.65,-67.18,-229.8,-291.23,-28.76,42.42,173.81,0,202.57,-0.3
rw_cut_5_p1_opt_disp_struct_0.xyz,Nucleus 19C :,0.538118,-2.389794,0.338692,155.53,131.2,146.51,188.89,265.08,205.07,214.96,-58.19,-86.31,-74.01,131.2,146.51,188.89,0,57.69,-0.47
rw_cut_5_p1_opt_disp_struct_0.xyz,Nucleus 24C :,-0.052136,-4.305251,1.870059,22.26,116.89,-19.11,-30.99,236.83,267.29,265.83,-119.94,-286.37,-296.85,-30.99,-19.11,116.89,0,147.88,-0.84
rw_cut_5_p1_opt_disp_struct_0.xyz,Nucleus 5N :,-0.367203,-5.149333,2.317375,111.37,44.28,119.17,170.66,300.47,336.85,332.1,-130.83,-288.05,-216.43,44.28,119.17,170.66,0,126.38,0.19
rw_cut_5_p1_opt_disp_struct_0.xyz,Nucleus 22N :,-0.483329,-3.425767,2.146967,172.94,109.19,179.44,230.18,299.25,345.64,331.17,-223.26,-111.15,-122.85,109.19,179.44,230.18,0,120.99,0.16
rw_cut_5_p1_opt_disp_struct_0.xyz,Nucleus 25N :,2.044376,-7.462942,0.797767,170.1,113.63,175.27,221.41,331.21,338.66,318.26,-212.25,-149.18,-116.39,113.63,175.27,221.41,0,107.78,0.14
rw_cut_5_p1_opt_disp_struct_0.xyz,Nucleus 27N :,1.82203,-3.20183,-0.481947,166.55,111.79,196.47,191.4,290.27,337.09,325.55,-96.78,-139.07,-217.42,111.79,191.4,196.47,0,84.68,0.88
rw_cut_5_p1_opt_disp_struct_1.xyz,Nucleus 1H :,0.481257,0.741436,-1.432009,28.84,35.15,28.24,23.12,40.02,30.84,25.55,-4.97,-1.87,-3.07,23.12,28.24,35.15,0,12.03,-0.15
rw_cut_5_p1_opt_disp_struct_1.xyz,Nucleus 2H :,1.376091,1.259999,-1.782431,29.13,24.25,28.06,35.09,47.06,26.93,29.77,0.5,-4.73,-12.13,24.25,28.06,35.09,0,10.84,-0.3
rw_cut_5_p1_opt_disp_struct_1.xyz,Nucleus 6H :,0.331331,-0.137431,-2.070295,23.44,15.69,24.35,30.29,51.45,28.8,16.05,-21.37,-4.58,-0.03,15.69,24.35,30.29,0,14.6,0.19
rw_cut_5_p1_opt_disp_struct_1.xyz,Nucleus 10H :,0.60421,0.375351,0.005136,23.21,27.72,23.12,18.78,50.16,33.29,31.36,-27.18,-4.66,-13.36,18.78,23.12,27.72,0,8.94,-0.03
rw_cut_5_p1_opt_disp_struct_1.xyz,Nucleus 12H :,1.648612,0.717142,0.840465,23.57,19.9,24.32,26.49,48.83,16.93,29.44,-24.72,3.35,-3.14,19.9,24.32,26.49,0,6.59,0.34
rw_cut_5_p1_opt_disp_struct_1.xyz,Nucleus 14H :,1.368036,0.259657,2.100358,23.67,20.23,26.18,24.61,10.37,31.39,43.95,10.1,-5.3,-19.5,20.23,24.61,26.18,0,5.95,0.47
rw_cut_5_p1_opt_disp_struct_1.xyz,Nucleus 16H :,1.964988,0.370322,2.902746,23.57,19.14,27.11,24.45,47.92,30.4,14.1,-23.71,-3.44,5.41,19.14,24.45,27.11,0,7.97,0.33
rw_cut_5_p1_opt_disp_struct_1.xyz,Nucleus 17H :,0.181036,-0.436577,2.092912,23.83,20.0,25.0,26.48,45.0,27.6,32.33,-19.81,-7.38,-6.24,20.0,25.0,26.48,0,6.48,0.54
rw_cut_5_p1_opt_disp_struct_1.xyz,Nucleus 18H :,-0.332094,-0.364522,0.796939,28.8,35.96,26.39,24.06,43.64,25.46,28.98,1.04,-8.23,-4.47,24.06,26.39,35.96,0,11.9,-0.61
rw_cut_5_p1_opt_disp_struct_1.xyz,Nucleus 20H :,-1.575214,-0.975831,0.532739,28.8,34.63,24.37,27.4,1.57,19.33,39.11,24.66,6.77,-5.05,24.37,27.4,34.63,0,10.26,-0.41
rw_cut_5_p1_opt_disp_struct_1.xyz,Nucleus 21H :,-2.01054,-0.928082,-0.460486,28.8,35.48,26.72,24.2,40.03,18.23,1.94,24.63,6.88,-5.31,24.2,26.72,35.48,0,11.28,-0.55
rw_cut_5_p1_opt_disp_struct_1.xyz,Nucleus 23H :,-2.255591,-1.629413,1.56716,27.44,18.56,34.72,29.03,48.84,19.1,30.58,-14.2,1.15,-3.16,18.56,29.03,34.72,0,16.16,0.3
rw_cut_5_p1_opt_disp_struct_1.xyz,Nucleus 26H :,-3.21827,-2.085788,1.364524,28.22,44.8,17.49,22.38,21.49,50.27,55.56,-33.3,1.45,-10.81,17.49,22.38,44.8,0,27.31,-0.64
rw_cut_5_p1_opt_disp_struct_1.xyz,Nucleus 28H :,-1.7188,-1.678678,2.85103,27.32,19.94,27.69,34.33,53.1,2.17,24.89,-19.02,17.83,2.99,19.94,27.69,34.33,0,14.39,0.08
rw_cut_5_p1_opt_disp_struct_1.xyz,Nucleus 29H :,-2.27419,-2.156438,3.652739,27.47,43.3,17.31,21.8,47.17,33.6,23.92,-16.28,-0.48,-5.52,17.31,21.8,43.3,0,25.99,-0.65
rw_cut_5_p1_opt_disp_struct_1.xyz,Nucleus 30H :,-0.48843,-1.081939,3.139926,28.44,35.71,23.59,26.02,-7.99,16.21,38.81,31.7,9.73,-3.13,23.59,26.02,35.71,0,12.12,-0.6
rw_cut_5_p1_opt_disp_struct_1.xyz,Nucleus 31H :,-0.0806,-1.102468,4.145334,27.99,20.44,34.59,28.93,48.92,36.23,31.66,-21.05,-9.05,-2.75,20.44,28.93,34.59,0,14.15,0.2
rw_cut_5_p1_opt_disp_struct_1.xyz,Nucleus 0C :,2.537869,1.29502,0.634339,173.19,160.7,170.48,188.39,259.92,235.08,239.9,-80.18,-67.35,-67.8,160.7,170.48,188.39,0,27.69,-0.29
rw_cut_5_p1_opt_disp_struct_1.xyz,Nucleus 3C :,-0.374688,1.404825,-1.599393,61.98,149.01,49.88,-12.94,242.78,278.79,264.62,-94.28,-228.8,-277.16,-12.94,49.88,149.01,0,161.95,-0.22
rw_cut_5_p1_opt_disp_struct_1.xyz,Nucleus 4C :,1.419182,-6.987185,1.143019,50.55,-37.28,59.94,128.99,276.08,261.56,254.47,-300.53,-211.2,-128.73,-37.28,59.94,128.99,0,166.27,0.17
rw_cut_5_p1_opt_disp_struct_1.xyz,Nucleus 7C :,1.609591,-6.88403,2.21612,41.27,144.09,-37.38,17.09,274.73,263.44,268.4,-121.52,-311.54,-249.73,-37.38,17.09,144.09,0,181.47,-0.4
rw_cut_5_p1_opt_disp_struct_1.xyz,Nucleus 8C :,0.423997,-7.418421,0.979977,51.02,172.04,1.93,-20.91,229.82,269.4,257.4,-57.91,-264.02,-281.62,-20.91,1.93,172.04,0,192.95,-0.76
rw_cut_5_p1_opt_disp_struct_1.xyz,Nucleus 9C :,1.575324,-5.701413,0.467804,54.14,178.33,33.66,-49.57,249.32,275.96,264.6,-71.61,-239.04,-316.82,-49.57,33.66,178.33,0,227.9,-0.27
rw_cut_5_p1_opt_disp_struct_1.xyz,Nucleus 11C :,2.065439,-5.699935,-0.411715,54.53,178.87,-57.52,42.23,230.74,262.8,271.78,-53.07,-320.15,-228.51,-57.52,42.23,178.87,0,236.39,-0.16
rw_cut_5_p1_opt_disp_struct_1.xyz,Nucleus 13C :,0.929366,-4.573271,0.79861,56.54,178.96,43.9,-53.25,223.04,274.91,255.42,-45.51,-230.96,-307.29,-53.25,43.9,178.96,0,232.21,-0.16
rw_cut_5_p1_opt_disp_struct_1.xyz,Nucleus 15C :,1.16032,-3.46471,0.094849,63.59,173.57,45.09,-27.89,237.73,272.71,265.1,-67.06,-227.27,-290.43,-27.89,45.09,173.57,0,201.46,-0.28
rw_cut_5_p1_opt_disp_struct_1.xyz,Nucleus 19C :,0.65503,-2.602986,0.280548,155.51,131.08,146.56,188.88,265.71,203.98,214.49,-57.09,-86.24,-74.35,131.08,146.56,188.88,0,57.8,-0.46
rw_cut_5_p1_opt_disp_struct_1.xyz,Nucleus 24C :,0.064777,-4.518443,1.811915,22.0,116.07,-18.17,-31.9,237.3,267.02,266.02,-121.23,-285.05,-298.05,-31.9,-18.17,116.07,0,147.97,-0.81
rw_cut_5_p1_opt_disp_struct_1.xyz,Nucleus 5N :,-0.250291,-5.362525,2.259231,112.63,46.33,121.11,170.46,300.26,336.94,332.31,-131.0,-285.97,-214.63,46.33,121.11,170.46,0,124.13,0.2
rw_cut_5_p1_opt_disp_struct_1.xyz,Nucleus 22N :,-0.366416,-3.638959,2.088823,171.78,106.99,179.72,228.64,297.49,345.61,330.98,-225.57,-111.18,-121.97,106.99,179.72,228.64,0,121.65,0.2
rw_cut_5_p1_opt_disp_struct_1.xyz,Nucleus 25N :,2.161289,-7.676134,0.739623,172.56,114.39,176.35,226.94,331.98,337.96,319.25,-211.59,-149.72,-110.21,114.39,176.35,226.94,0,112.55,0.1
rw_cut_5_p1_opt_disp_struct_1.xyz,Nucleus 27N :,1.938943,-3.415022,-0.540091,170.06,113.73,202.51,193.94,289.59,337.18,325.33,-94.21,-133.51,-214.2,113.73,193.94,202.51,0,88.78,0.81
rw_cut_5_p1_opt_disp_struct_10.xyz,Nucleus 1H :,0.481257,0.741436,-1.432009,28.96,34.94,28.64,23.31,39.7,30.71,26.15,-4.86,-1.91,-2.91,23.31,28.64,34.94,0,11.63,-0.08
rw_cut_5_p1_opt_disp_struct_10.xyz,Nucleus 2H :,1.376091,1.259999,-1.782431,29.1,24.36,27.59,35.35,45.88,26.7,29.65,0.62,-4.85,-10.69,24.36,27.59,35.35,0,10.99,-0.41
rw_cut_5_p1_opt_disp_struct_10.xyz,Nucleus 6H :,0.331331,-0.137431,-2.070295,23.77,16.02,24.73,30.57,50.74,29.52,16.47,-20.39,-4.75,-0.27,16.02,24.73,30.57,0,14.55,0.2
rw_cut_5_p1_opt_disp_struct_10.xyz,Nucleus 10H :,0.60421,0.375351,0.005136,23.41,28.42,22.89,18.91,49.07,33.44,30.62,-26.15,-3.68,-13.08,18.91,22.89,28.42,0,9.51,-0.16
rw_cut_5_p1_opt_disp_struct_10.xyz,Nucleus 12H :,1.648612,0.717142,0.840465,23.78,20.01,24.19,27.15,48.37,16.09,30.57,-24.2,4.07,-3.54,20.01,24.19,27.15,0,7.14,0.17
rw_cut_5_p1_opt_disp_struct_10.xyz,Nucleus 14H :,1.368036,0.259657,2.100358,23.79,20.06,26.97,24.33,7.97,33.17,44.07,12.09,-6.27,-19.68,20.06,24.33,26.97,0,6.91,0.23
rw_cut_5_p1_opt_disp_struct_10.xyz,Nucleus 16H :,1.964988,0.370322,2.902746,23.82,19.32,27.79,24.36,13.54,31.62,47.68,-23.35,-3.87,5.86,19.32,24.36,27.79,0,8.47,0.19
rw_cut_5_p1_opt_disp_struct_10.xyz,Nucleus 17H :,0.181036,-0.436577,2.092912,24.09,20.4,25.05,26.83,45.03,28.32,32.34,-19.87,-7.77,-5.76,20.4,25.05,26.83,0,6.43,0.45
rw_cut_5_p1_opt_disp_struct_10.xyz,Nucleus 18H :,-0.332094,-0.364522,0.796939,28.86,35.74,26.55,24.29,43.42,25.35,28.91,-8.45,1.1,-3.76,24.29,26.55,35.74,0,11.45,-0.61
rw_cut_5_p1_opt_disp_struct_10.xyz,Nucleus 20H :,-1.575214,-0.975831,0.532739,28.58,34.41,24.37,26.97,-6.34,18.53,39.22,33.04,7.09,-5.8,24.37,26.97,34.41,0,10.04,-0.48
rw_cut_5_p1_opt_disp_struct_10.xyz,Nucleus 21H :,-2.01054,-0.928082,-0.460486,28.61,35.21,26.45,24.16,-6.72,17.39,40.41,33.69,7.39,-6.34,24.16,26.45,35.21,0,11.05,-0.59
rw_cut_5_p1_opt_disp_struct_10.xyz,Nucleus 23H :,-2.255591,-1.629413,1.56716,26.99,18.66,34.05,28.26,7.06,50.18,28.54,-16.3,12.27,-0.79,18.66,28.26,34.05,0,15.39,0.25
rw_cut_5_p1_opt_disp_struct_10.xyz,Nucleus 26H :,-3.21827,-2.085788,1.364524,27.0,37.36,19.83,23.81,70.42,28.05,47.18,-50.51,-10.11,-4.03,19.83,23.81,37.36,0,17.53,-0.55
rw_cut_5_p1_opt_disp_struct_10.xyz,Nucleus 28H :,-1.7188,-1.678678,2.85103,26.78,33.86,19.85,26.63,56.32,0.29,25.18,-22.53,19.64,1.44,19.85,26.63,33.86,0,14.01,-0.03
rw_cut_5_p1_opt_disp_struct_10.xyz,Nucleus 29H :,-2.27419,-2.156438,3.652739,26.56,36.12,19.66,23.91,30.51,51.99,43.34,-32.21,-6.3,-7.65,19.66,23.91,36.12,0,16.46,-0.48
rw_cut_5_p1_opt_disp_struct_10.xyz,Nucleus 30H :,-0.48843,-1.081939,3.139926,28.22,35.15,23.56,25.96,-20.67,13.1,38.3,44.36,12.78,-3.21,23.56,25.96,35.15,0,11.59,-0.58
rw_cut_5_p1_opt_disp_struct_10.xyz,Nucleus 31H :,-0.0806,-1.102468,4.145334,27.22,34.62,20.68,26.35,51.05,37.77,28.18,-23.16,-10.68,-1.53,20.68,26.35,34.62,0,13.94,-0.19
rw_cut_5_p1_opt_disp_struct_10.xyz,Nucleus 0C :,2.537869,1.29502,0.634339,172.85,160.75,169.54,188.26,258.13,235.23,239.08,-78.22,-68.71,-66.97,160.75,169.54,188.26,0,27.51,-0.36
rw_cut_5_p1_opt_disp_struct_10.xyz,Nucleus 3C :,-0.374688,1.404825,-1.599393,62.3,149.03,51.47,-13.6,241.92,275.84,263.9,-93.03,-224.27,-277.47,-13.6,51.47,149.03,0,162.63,-0.2
rw_cut_5_p1_opt_disp_struct_10.xyz,Nucleus 4C :,2.471394,-8.905911,0.619723,54.39,-32.03,66.96,128.24,254.04,262.81,274.74,-296.0,-202.81,-129.61,-32.03,66.96,128.24,0,160.27,0.24
rw_cut_5_p1_opt_disp_struct_10.xyz,Nucleus 7C :,2.661803,-8.802757,1.692825,41.02,143.06,-39.23,19.22,272.94,263.09,267.97,-121.69,-311.96,-247.3,-39.23,19.22,143.06,0,182.29,-0.36
rw_cut_5_p1_opt_disp_struct_10.xyz,Nucleus 8C :,1.476209,-9.337147,0.456682,49.47,171.07,1.1,-23.77,230.12,267.9,259.79,-59.28,-265.87,-284.26,-23.77,1.1,171.07,0,194.84,-0.74
rw_cut_5_p1_opt_disp_struct_10.xyz,Nucleus 9C :,2.627536,-7.620139,-0.055491,55.06,176.78,38.18,-49.78,246.19,273.4,263.54,-70.12,-232.3,-315.53,-49.78,38.18,176.78,0,226.56,-0.22
rw_cut_5_p1_opt_disp_struct_10.xyz,Nucleus 11C :,3.117652,-7.618662,-0.93501,55.86,176.8,-56.76,47.55,229.62,262.02,271.45,-53.23,-319.46,-222.81,-56.76,47.55,176.8,0,233.56,-0.11
rw_cut_5_p1_opt_disp_struct_10.xyz,Nucleus 13C :,1.981579,-6.491997,0.275315,54.18,176.78,43.61,-57.84,223.53,274.79,255.61,-46.82,-231.14,-313.42,-57.84,43.61,176.78,0,234.62,-0.14
rw_cut_5_p1_opt_disp_struct_10.xyz,Nucleus 15C :,2.212532,-5.383437,-0.428447,65.66,171.82,51.36,-26.21,239.56,272.43,264.37,-69.05,-220.56,-289.78,-26.21,51.36,171.82,0,198.03,-0.22
rw_cut_5_p1_opt_disp_struct_10.xyz,Nucleus 19C :,1.707243,-4.521712,-0.242747,155.25,130.51,146.62,188.61,271.12,194.86,210.08,-48.06,-86.08,-76.17,130.51,146.62,188.61,0,58.1,-0.45
rw_cut_5_p1_opt_disp_struct_10.xyz,Nucleus 24C :,1.116989,-6.437169,1.28862,21.36,115.42,-16.76,-34.59,240.56,271.17,263.33,-125.14,-281.52,-304.32,-34.59,-16.76,115.42,0,150.01,-0.76
rw_cut_5_p1_opt_disp_struct_10.xyz,Nucleus 5N :,0.801922,-7.281252,1.735935,117.27,54.17,128.52,169.12,301.38,336.38,331.27,-132.93,-277.03,-207.25,54.17,128.52,169.12,0,114.95,0.29
rw_cut_5_p1_opt_disp_struct_10.xyz,Nucleus 22N :,0.685796,-5.557686,1.565528,167.88,100.42,180.92,222.29,281.91,347.72,330.37,-234.5,-98.82,-123.06,100.42,180.92,222.29,0,121.87,0.32
rw_cut_5_p1_opt_disp_struct_10.xyz,Nucleus 25N :,3.213501,-9.594861,0.216328,174.74,114.32,176.49,233.42,321.94,343.09,336.83,-212.89,-161.32,-103.42,114.32,176.49,233.42,0,119.1,0.04
rw_cut_5_p1_opt_disp_struct_10.xyz,Nucleus 27N :,2.991155,-5.333748,-1.063386,174.06,114.9,212.13,195.14,296.75,341.2,324.54,-100.21,-129.23,-210.88,114.9,195.14,212.13,0,97.23,0.65
rw_cut_5_p1_opt_disp_struct_11.xyz,Nucleus 1H :,0.481257,0.741436,-1.432009,28.97,34.94,28.66,23.31,39.68,30.65,26.18,-4.83,-1.84,-2.92,23.31,28.66,34.94,0,11.63,-0.08
rw_cut_5_p1_opt_disp_struct_11.xyz,Nucleus 2H :,1.376091,1.259999,-1.782431,29.1,24.35,27.57,35.37,45.74,26.67,29.62,0.63,-4.81,-10.55,24.35,27.57,35.37,0,11.02,-0.42
rw_cut_5_p1_opt_disp_struct_11.xyz,Nucleus 6H :,0.331331,-0.137431,-2.070295,23.79,16.03,24.74,30.6,50.61,29.57,16.46,-20.24,-4.76,-0.26,16.03,24.74,30.6,0,14.57,0.2
rw_cut_5_p1_opt_disp_struct_11.xyz,Nucleus 10H :,0.60421,0.375351,0.005136,23.42,28.46,22.9,18.9,48.95,33.3,30.72,-26.02,-3.64,-13.04,18.9,22.9,28.46,0,9.56,-0.16
rw_cut_5_p1_opt_disp_struct_11.xyz,Nucleus 12H :,1.648612,0.717142,0.840465,23.79,20.0,24.2,27.18,48.27,16.03,30.6,-24.08,4.1,-3.52,20.0,24.2,27.18,0,7.18,0.17
rw_cut_5_p1_opt_disp_struct_11.xyz,Nucleus 14H :,1.368036,0.259657,2.100358,23.79,20.04,27.0,24.34,7.88,33.21,44.05,12.16,-6.28,-19.64,20.04,24.34,27.0,0,6.96,0.24
rw_cut_5_p1_opt_disp_struct_11.xyz,Nucleus 16H :,1.964988,0.370322,2.902746,23.84,19.31,27.82,24.38,13.49,31.67,47.6,-23.25,-3.9,5.89,19.31,24.38,27.82,0,8.51,0.19
rw_cut_5_p1_opt_disp_struct_11.xyz,Nucleus 17H :,0.181036,-0.436577,2.092912,24.11,20.42,25.06,26.85,44.99,28.32,32.29,-19.82,-7.77,-5.68,20.42,25.06,26.85,0,6.43,0.44
rw_cut_5_p1_opt_disp_struct_11.xyz,Nucleus 18H :,-0.332094,-0.364522,0.796939,28.87,35.73,26.56,24.31,43.41,25.33,28.92,-8.48,1.13,-3.7,24.31,26.56,35.73,0,11.42,-0.61
rw_cut_5_p1_opt_disp_struct_11.xyz,Nucleus 20H :,-1.575214,-0.975831,0.532739,28.57,34.4,24.38,26.93,-7.16,18.47,39.26,33.91,7.13,-5.89,24.38,26.93,34.4,0,10.02,-0.49
rw_cut_5_p1_opt_disp_struct_11.xyz,Nucleus 21H :,-2.01054,-0.928082,-0.460486,28.59,35.19,26.43,24.16,-7.64,17.31,40.48,34.63,7.45,-6.45,24.16,26.43,35.19,0,11.03,-0.59
rw_cut_5_p1_opt_disp_struct_11.xyz,Nucleus 23H :,-2.255591,-1.629413,1.56716,26.97,18.67,34.02,28.21,5.75,50.35,28.37,-16.51,13.56,-0.62,18.67,28.21,34.02,0,15.35,0.24
rw_cut_5_p1_opt_disp_struct_11.xyz,Nucleus 26H :,-3.21827,-2.085788,1.364524,26.93,37.03,19.9,23.85,72.18,28.39,46.76,-52.2,-10.09,-4.27,19.9,23.85,37.03,0,17.13,-0.54
rw_cut_5_p1_opt_disp_struct_11.xyz,Nucleus 28H :,-1.7188,-1.678678,2.85103,26.75,33.84,19.86,26.56,56.72,0.22,25.2,-22.94,19.73,1.34,19.86,26.56,33.84,0,13.98,-0.04
rw_cut_5_p1_opt_disp_struct_11.xyz,Nucleus 29H :,-2.27419,-2.156438,3.652739,26.5,35.85,19.73,23.93,30.79,53.68,43.26,-33.83,-6.66,-7.72,19.73,23.93,35.85,0,16.12,-0.48
rw_cut_5_p1_opt_disp_struct_11.xyz,Nucleus 30H :,-0.48843,-1.081939,3.139926,28.2,35.11,23.55,25.95,-22.01,12.79,38.27,45.69,13.09,-3.21,23.55,25.95,35.11,0,11.56,-0.58
rw_cut_5_p1_opt_disp_struct_11.xyz,Nucleus 31H :,-0.0806,-1.102468,4.145334,27.18,34.62,20.7,26.21,51.29,37.89,27.95,-23.39,-10.78,-1.42,20.7,26.21,34.62,0,13.92,-0.21
rw_cut_5_p1_opt_disp_struct_11.xyz,Nucleus 0C :,2.537869,1.29502,0.634339,172.84,160.76,169.48,188.27,257.99,235.23,239.08,-78.06,-68.82,-66.91,160.76,169.48,188.27,0,27.51,-0.37
rw_cut_5_p1_opt_disp_struct_11.xyz,Nucleus 3C :,-0.374688,1.404825,-1.599393,62.31,149.0,51.56,-13.63,241.85,275.62,263.83,-92.98,-223.94,-277.45,-13.63,51.56,149.0,0,162.63,-0.2
rw_cut_5_p1_opt_disp_struct_11.xyz,Nucleus 4C :,2.588307,-9.119103,0.56158,54.55,-31.82,67.27,128.2,254.36,262.51,274.61,-295.81,-202.31,-129.71,-31.82,67.27,128.2,0,160.02,0.24
rw_cut_5_p1_opt_disp_struct_11.xyz,Nucleus 7C :,2.778715,-9.015949,1.634681,40.99,143.01,-39.31,19.27,272.77,263.24,267.76,-121.76,-311.85,-247.18,-39.31,19.27,143.01,0,182.32,-0.36
rw_cut_5_p1_opt_disp_struct_11.xyz,Nucleus 8C :,1.593122,-9.550339,0.398538,49.43,171.02,1.1,-23.82,230.04,267.54,259.75,-59.22,-265.65,-284.17,-23.82,1.1,171.02,0,194.84,-0.74
rw_cut_5_p1_opt_disp_struct_11.xyz,Nucleus 9C :,2.744448,-7.833331,-0.113635,55.05,176.69,38.28,-49.82,246.34,273.03,263.48,-70.23,-232.03,-315.44,-49.82,38.28,176.69,0,226.51,-0.22
rw_cut_5_p1_opt_disp_struct_11.xyz,Nucleus 11C :,3.234564,-7.831853,-0.993154,55.87,176.69,-56.75,47.66,229.64,261.92,271.35,-53.3,-319.36,-222.65,-56.75,47.66,176.69,0,233.44,-0.11
rw_cut_5_p1_opt_disp_struct_11.xyz,Nucleus 13C :,2.098491,-6.705189,0.217171,54.11,176.69,43.58,-57.94,223.4,274.62,255.61,-46.76,-231.0,-313.54,-57.94,43.58,176.69,0,234.63,-0.13
rw_cut_5_p1_opt_disp_struct_11.xyz,Nucleus 15C :,2.329445,-5.596629,-0.486591,65.68,171.73,51.5,-26.18,239.8,272.33,264.2,-69.22,-220.35,-289.71,-26.18,51.5,171.73,0,197.91,-0.21
rw_cut_5_p1_opt_disp_struct_11.xyz,Nucleus 19C :,1.824155,-4.734904,-0.300891,155.24,130.5,146.63,188.58,271.69,193.93,209.63,-47.14,-86.28,-76.13,130.5,146.63,188.58,0,58.08,-0.44
rw_cut_5_p1_opt_disp_struct_11.xyz,Nucleus 24C :,1.233902,-6.650361,1.230476,21.33,115.43,-16.78,-34.67,240.81,271.57,263.14,-125.39,-281.43,-304.73,-34.67,-16.78,115.43,0,150.1,-0.76
rw_cut_5_p1_opt_disp_struct_11.xyz,Nucleus 5N :,0.918834,-7.494443,1.677791,117.47,54.49,128.85,169.07,301.41,336.32,331.08,-132.93,-276.55,-206.91,54.49,128.85,169.07,0,114.58,0.3
rw_cut_5_p1_opt_disp_struct_11.xyz,Nucleus 22N :,0.802709,-5.770877,1.507384,167.72,100.17,180.97,222.01,280.36,348.08,330.32,-235.08,-97.3,-123.23,100.17,180.97,222.01,0,121.84,0.33
rw_cut_5_p1_opt_disp_struct_11.xyz,Nucleus 25N :,3.330414,-9.808053,0.158184,174.73,114.27,176.45,233.46,321.87,344.03,336.85,-213.0,-162.24,-103.33,114.27,176.45,233.46,0,119.19,0.04
rw_cut_5_p1_opt_disp_struct_11.xyz,Nucleus 27N :,3.108067,-5.54694,-1.12153,174.04,114.83,212.24,195.06,297.48,341.54,324.47,-101.04,-129.49,-210.85,114.83,195.06,212.24,0,97.41,0.65
rw_cut_5_p1_opt_disp_struct_12.xyz,Nucleus 1H :,0.481257,0.741436,-1.432009,28.98,34.94,28.68,23.32,39.66,30.59,26.2,-4.81,-1.78,-2.92,23.32,28.68,34.94,0,11.62,-0.08
rw_cut_5_p1_opt_disp_struct_12.xyz,Nucleus 2H :,1.376091,1.259999,-1.782431,29.09,24.34,27.56,35.38,45.61,26.64,29.6,0.65,-4.78,-10.43,24.34,27.56,35.38,0,11.04,-0.42
rw_cut_5_p1_opt_disp_struct_12.xyz,Nucleus 6H :,0.331331,-0.137431,-2.070295,23.81,16.03,24.77,30.62,50.5,29.6,16.45,-20.1,-4.76,-0.26,16.03,24.77,30.62,0,14.59,0.2
rw_cut_5_p1_opt_disp_struct_12.xyz,Nucleus 10H :,0.60421,0.375351,0.005136,23.43,28.48,22.91,18.89,48.83,33.17,30.79,-25.89,-3.6,-13.02,18.89,22.91,28.48,0,9.59,-0.16
rw_cut_5_p1_opt_disp_struct_12.xyz,Nucleus 12H :,1.648612,0.717142,0.840465,23.81,19.99,24.22,27.21,48.18,15.97,30.61,-23.97,4.13,-3.5,19.99,24.22,27.21,0,7.22,0.17
rw_cut_5_p1_opt_disp_struct_12.xyz,Nucleus 14H :,1.368036,0.259657,2.100358,23.8,20.02,27.03,24.35,7.81,33.23,44.02,12.22,-6.27,-19.61,20.02,24.35,27.03,0,7.01,0.24
rw_cut_5_p1_opt_disp_struct_12.xyz,Nucleus 16H :,1.964988,0.370322,2.902746,23.85,19.31,27.85,24.39,13.44,31.71,47.52,-23.15,-3.91,5.92,19.31,24.39,27.85,0,8.54,0.19
rw_cut_5_p1_opt_disp_struct_12.xyz,Nucleus 17H :,0.181036,-0.436577,2.092912,24.12,20.43,25.06,26.87,44.96,28.32,32.24,-19.77,-7.77,-5.61,20.43,25.06,26.87,0,6.44,0.44
rw_cut_5_p1_opt_disp_struct_12.xyz,Nucleus 18H :,-0.332094,-0.364522,0.796939,28.88,35.73,26.58,24.32,43.4,25.31,28.92,-8.51,1.15,-3.64,24.32,26.58,35.73,0,11.41,-0.6
rw_cut_5_p1_opt_disp_struct_12.xyz,Nucleus 20H :,-1.575214,-0.975831,0.532739,28.56,34.39,24.38,26.9,-7.98,18.4,39.3,34.77,7.17,-5.98,24.38,26.9,34.39,0,10.01,-0.5
rw_cut_5_p1_opt_disp_struct_12.xyz,Nucleus 21H :,-2.01054,-0.928082,-0.460486,28.58,35.18,26.41,24.16,-8.54,17.24,40.56,35.56,7.51,-6.57,24.16,26.41,35.18,0,11.02,-0.59
rw_cut_5_p1_opt_disp_struct_12.xyz,Nucleus 23H :,-2.255591,-1.629413,1.56716,26.94,18.67,33.99,28.17,4.46,50.52,28.2,-16.72,14.83,-0.46,18.67,28.17,33.99,0,15.32,0.24
rw_cut_5_p1_opt_disp_struct_12.xyz,Nucleus 26H :,-3.21827,-2.085788,1.364524,26.86,36.75,19.96,23.87,73.92,28.7,46.39,-53.87,-10.08,-4.47,19.96,23.87,36.75,0,16.79,-0.53
rw_cut_5_p1_opt_disp_struct_12.xyz,Nucleus 28H :,-1.7188,-1.678678,2.85103,26.73,33.82,19.87,26.49,57.12,0.11,25.22,-23.37,19.84,1.25,19.87,26.49,33.82,0,13.95,-0.05
rw_cut_5_p1_opt_disp_struct_12.xyz,Nucleus 29H :,-2.27419,-2.156438,3.652739,26.46,35.63,19.79,23.95,31.04,55.33,43.2,-35.43,-6.98,-7.79,19.79,23.95,35.63,0,15.84,-0.48
rw_cut_5_p1_opt_disp_struct_12.xyz,Nucleus 30H :,-0.48843,-1.081939,3.139926,28.19,35.08,23.55,25.95,-23.34,12.47,38.24,47.02,13.41,-3.21,23.55,25.95,35.08,0,11.53,-0.58
rw_cut_5_p1_opt_disp_struct_12.xyz,Nucleus 31H :,-0.0806,-1.102468,4.145334,27.14,34.63,20.71,26.08,51.52,37.99,27.73,-23.63,-10.88,-1.31,20.71,26.08,34.63,0,13.92,-0.23
rw_cut_5_p1_opt_disp_struct_12.xyz,Nucleus 0C :,2.537869,1.29502,0.634339,172.83,160.76,169.43,188.29,257.85,235.23,239.08,-77.91,-68.93,-66.84,160.76,169.43,188.29,0,27.53,-0.37
rw_cut_5_p1_opt_disp_struct_12.xyz,Nucleus 3C :,-0.374688,1.404825,-1.599393,62.33,148.99,51.63,-13.64,241.78,275.4,263.76,-92.92,-223.63,-277.42,-13.64,51.63,148.99,0,162.63,-0.2
rw_cut_5_p1_opt_disp_struct_12.xyz,Nucleus 4C :,2.705219,-9.332295,0.503436,54.69,-31.64,67.55,128.15,274.48,262.23,254.66,-295.65,-201.85,-129.81,-31.64,67.55,128.15,0,159.79,0.24
rw_cut_5_p1_opt_disp_struct_12.xyz,Nucleus 7C :,2.895628,-9.22914,1.576537,40.96,142.96,-39.38,19.31,272.62,263.36,267.56,-121.84,-311.75,-247.06,-39.38,19.31,142.96,0,182.34,-0.36
rw_cut_5_p1_opt_disp_struct_12.xyz,Nucleus 8C :,1.710034,-9.763531,0.340394,49.41,170.98,1.11,-23.85,229.97,267.23,259.7,-59.15,-265.43,-284.07,-23.85,1.11,170.98,0,194.83,-0.74
rw_cut_5_p1_opt_disp_struct_12.xyz,Nucleus 9C :,2.861361,-8.046523,-0.171779,55.05,176.61,38.37,-49.84,246.45,272.72,263.43,-70.33,-231.79,-315.35,-49.84,38.37,176.61,0,226.45,-0.22
rw_cut_5_p1_opt_disp_struct_12.xyz,Nucleus 11C :,3.351477,-8.045045,-1.051298,55.87,176.59,-56.74,47.76,229.66,261.83,271.25,-53.38,-319.25,-222.5,-56.74,47.76,176.59,0,233.33,-0.1
rw_cut_5_p1_opt_disp_struct_12.xyz,Nucleus 13C :,2.215404,-6.918381,0.159027,54.05,176.6,43.57,-58.01,223.26,274.46,255.62,-46.7,-230.85,-313.62,-58.01,43.57,176.6,0,234.61,-0.13
rw_cut_5_p1_opt_disp_struct_12.xyz,Nucleus 15C :,2.446357,-5.809821,-0.544735,65.7,171.64,51.61,-26.14,240.01,272.23,264.04,-69.37,-220.16,-289.63,-26.14,51.61,171.64,0,197.78,-0.21
rw_cut_5_p1_opt_disp_struct_12.xyz,Nucleus 19C :,1.941068,-4.948096,-0.359035,155.22,130.47,146.63,188.56,272.25,193.03,209.19,-46.24,-86.53,-76.04,130.47,146.63,188.56,0,58.09,-0.44
rw_cut_5_p1_opt_disp_struct_12.xyz,Nucleus 24C :,1.350814,-6.863553,1.172332,21.3,115.46,-16.81,-34.75,241.06,271.95,262.97,-125.61,-305.12,-281.35,-34.75,-16.81,115.46,0,150.21,-0.76
rw_cut_5_p1_opt_disp_struct_12.xyz,Nucleus 5N :,1.035747,-7.707635,1.619648,117.61,54.73,129.1,169.0,301.41,336.27,330.92,-132.95,-276.17,-206.65,54.73,129.1,169.0,0,114.27,0.3
rw_cut_5_p1_opt_disp_struct_12.xyz,Nucleus 22N :,0.919621,-5.984069,1.44924,167.58,99.97,181.01,221.77,278.84,348.45,330.27,-235.63,-95.79,-123.38,99.97,181.01,221.77,0,121.8,0.33
rw_cut_5_p1_opt_disp_struct_12.xyz,Nucleus 25N :,3.447326,-10.021244,0.10004,174.71,114.23,176.42,233.49,321.8,345.0,336.9,-213.12,-163.16,-103.28,114.23,176.42,233.49,0,119.26,0.04
rw_cut_5_p1_opt_disp_struct_12.xyz,Nucleus 27N :,3.22498,-5.760132,-1.179674,174.03,114.76,212.32,195.0,298.15,341.9,324.41,-101.78,-129.76,-210.84,114.76,195.0,212.32,0,97.56,0.64
rw_cut_5_p1_opt_disp_struct_13.xyz,Nucleus 1H :,0.481257,0.741436,-1.432009,28.99,34.94,28.7,23.32,39.65,30.53,26.22,-4.79,-1.72,-2.91,23.32,28.7,34.94,0,11.62,-0.07
rw_cut_5_p1_opt_disp_struct_13.xyz,Nucleus 2H :,1.376091,1.259999,-1.782431,29.09,24.33,27.54,35.39,45.48,26.6,29.58,0.66,-4.75,-10.32,24.33,27.54,35.39,0,11.06,-0.42
rw_cut_5_p1_opt_disp_struct_13.xyz,Nucleus 6H :,0.331331,-0.137431,-2.070295,23.82,16.04,24.79,30.64,50.39,29.62,16.44,-19.96,-4.76,-0.26,16.04,24.79,30.64,0,14.6,0.2
rw_cut_5_p1_opt_disp_struct_13.xyz,Nucleus 10H :,0.60421,0.375351,0.005136,23.44,28.51,22.92,18.89,48.72,33.05,30.87,-25.77,-3.55,-13.01,18.89,22.92,28.51,0,9.62,-0.16
rw_cut_5_p1_opt_disp_struct_13.xyz,Nucleus 12H :,1.648612,0.717142,0.840465,23.81,19.98,24.23,27.23,48.08,15.92,30.62,-23.85,4.16,-3.48,19.98,24.23,27.23,0,7.25,0.17
rw_cut_5_p1_opt_disp_struct_13.xyz,Nucleus 14H :,1.368036,0.259657,2.100358,23.81,20.0,27.05,24.37,7.74,33.24,44.0,12.27,-6.25,-19.57,20.0,24.37,27.05,0,7.05,0.24
rw_cut_5_p1_opt_disp_struct_13.xyz,Nucleus 16H :,1.964988,0.370322,2.902746,23.86,19.3,27.87,24.4,13.4,31.75,47.44,-23.05,-3.91,5.95,19.3,24.4,27.87,0,8.57,0.19
rw_cut_5_p1_opt_disp_struct_13.xyz,Nucleus 17H :,0.181036,-0.436577,2.092912,24.13,20.45,25.06,26.89,44.93,28.31,32.18,-19.73,-7.76,-5.53,20.45,25.06,26.89,0,6.44,0.43
rw_cut_5_p1_opt_disp_struct_13.xyz,Nucleus 18H :,-0.332094,-0.364522,0.796939,28.88,35.72,26.59,24.33,43.38,25.29,28.92,-8.53,1.17,-3.58,24.33,26.59,35.72,0,11.39,-0.6
rw_cut_5_p1_opt_disp_struct_13.xyz,Nucleus 20H :,-1.575214,-0.975831,0.532739,28.55,34.38,24.38,26.88,-8.8,18.34,39.35,35.62,7.21,-6.08,24.38,26.88,34.38,0,10.0,-0.5
rw_cut_5_p1_opt_disp_struct_13.xyz,Nucleus 21H :,-2.01054,-0.928082,-0.460486,28.58,35.17,26.4,24.16,-9.44,17.16,40.64,36.49,7.57,-6.7,24.16,26.4,35.17,0,11.01,-0.59
rw_cut_5_p1_opt_disp_struct_13.xyz,Nucleus 23H :,-2.255591,-1.629413,1.56716,26.93,18.68,33.97,28.13,3.17,50.7,28.04,-16.92,16.11,-0.31,18.68,28.13,33.97,0,15.29,0.24
rw_cut_5_p1_opt_disp_struct_13.xyz,Nucleus 26H :,-3.21827,-2.085788,1.364524,26.81,36.51,20.02,23.9,75.63,28.99,46.06,-55.52,-10.07,-4.65,20.02,23.9,36.51,0,16.49,-0.53
rw_cut_5_p1_opt_disp_struct_13.xyz,Nucleus 28H :,-1.7188,-1.678678,2.85103,26.7,33.8,19.88,26.43,57.54,-0.01,25.23,-23.8,19.97,1.18,19.88,26.43,33.8,0,13.92,-0.06
rw_cut_5_p1_opt_disp_struct_13.xyz,Nucleus 29H :,-2.27419,-2.156438,3.652739,26.41,35.44,19.84,23.96,56.96,43.15,31.27,-37.01,-7.27,-7.86,19.84,23.96,35.44,0,15.6,-0.47
rw_cut_5_p1_opt_disp_struct_13.xyz,Nucleus 30H :,-0.48843,-1.081939,3.139926,28.18,35.05,23.55,25.95,-24.66,12.16,38.21,48.34,13.73,-3.22,23.55,25.95,35.05,0,11.5,-0.58
rw_cut_5_p1_opt_disp_struct_13.xyz,Nucleus 31H :,-0.0806,-1.102468,4.145334,27.11,34.63,20.72,25.97,51.76,38.08,27.53,-23.86,-10.98,-1.21,20.72,25.97,34.63,0,13.91,-0.25
rw_cut_5_p1_opt_disp_struct_13.xyz,Nucleus 0C :,2.537869,1.29502,0.634339,172.82,160.77,169.38,188.31,257.73,235.23,239.09,-77.77,-69.04,-66.78,160.77,169.38,188.31,0,27.54,-0.37
rw_cut_5_p1_opt_disp_struct_13.xyz,Nucleus 3C :,-0.374688,1.404825,-1.599393,62.35,148.98,51.71,-13.64,241.73,275.21,263.71,-92.88,-223.34,-277.38,-13.64,51.71,148.98,0,162.62,-0.2
rw_cut_5_p1_opt_disp_struct_13.xyz,Nucleus 4C :,2.822132,-9.545487,0.445292,54.81,-31.48,67.8,128.11,274.36,261.97,254.92,-295.51,-201.44,-129.89,-31.48,67.8,128.11,0,159.59,0.24
rw_cut_5_p1_opt_disp_struct_13.xyz,Nucleus 7C :,3.01254,-9.442332,1.518393,40.94,142.91,-39.43,19.35,272.49,263.48,267.37,-121.92,-311.65,-246.95,-39.43,19.35,142.91,0,182.34,-0.36
rw_cut_5_p1_opt_disp_struct_13.xyz,Nucleus 8C :,1.826947,-9.976723,0.28225,49.4,170.95,1.13,-23.87,229.9,266.94,259.65,-59.08,-265.22,-283.97,-23.87,1.13,170.95,0,194.82,-0.74
rw_cut_5_p1_opt_disp_struct_13.xyz,Nucleus 9C :,2.978273,-8.259715,-0.229923,55.04,176.54,38.44,-49.86,246.56,272.44,263.39,-70.41,-231.59,-315.27,-49.86,38.44,176.54,0,226.4,-0.22
rw_cut_5_p1_opt_disp_struct_13.xyz,Nucleus 11C :,3.468389,-8.258237,-1.109442,55.87,176.5,-56.72,47.84,229.68,261.74,271.16,-53.45,-319.15,-222.37,-56.72,47.84,176.5,0,233.22,-0.1
rw_cut_5_p1_opt_disp_struct_13.xyz,Nucleus 13C :,2.332316,-7.131573,0.100883,54.01,176.52,43.57,-58.06,223.14,274.3,255.62,-46.65,-230.7,-313.68,-58.06,43.57,176.52,0,234.58,-0.13
rw_cut_5_p1_opt_disp_struct_13.xyz,Nucleus 15C :,2.56327,-6.023012,-0.602878,65.72,171.56,51.71,-26.11,240.19,272.14,263.89,-69.5,-219.99,-289.56,-26.11,51.71,171.56,0,197.67,-0.21
rw_cut_5_p1_opt_disp_struct_13.xyz,Nucleus 19C :,2.05798,-5.161288,-0.417179,155.21,130.45,146.63,188.54,272.82,192.14,208.74,-45.36,-75.9,-86.81,130.45,146.63,188.54,0,58.09,-0.44
rw_cut_5_p1_opt_disp_struct_13.xyz,Nucleus 24C :,1.467727,-7.076745,1.114188,21.28,115.48,-16.83,-34.81,241.3,272.32,262.82,-125.83,-305.5,-281.27,-34.81,-16.83,115.48,0,150.29,-0.76
rw_cut_5_p1_opt_disp_struct_13.xyz,Nucleus 5N :,1.152659,-7.920827,1.561504,117.73,54.94,129.31,168.93,301.4,336.22,330.78,-132.96,-275.83,-206.43,54.94,129.31,168.93,0,113.99,0.3
rw_cut_5_p1_opt_disp_struct_13.xyz,Nucleus 22N :,1.036533,-6.197261,1.391096,167.47,99.8,181.05,221.57,277.35,348.83,330.22,-236.16,-94.3,-123.51,99.8,181.05,221.57,0,121.77,0.33
rw_cut_5_p1_opt_disp_struct_13.xyz,Nucleus 25N :,3.564239,-10.234436,0.041896,174.7,114.19,176.39,233.52,321.75,345.99,336.97,-213.26,-164.09,-103.26,114.19,176.39,233.52,0,119.33,0.04
rw_cut_5_p1_opt_disp_struct_13.xyz,Nucleus 27N :,3.341892,-5.973324,-1.237818,174.02,114.7,212.39,194.96,298.76,342.25,324.36,-102.45,-130.05,-210.84,114.7,194.96,212.39,0,97.69,0.64
rw_cut_5_p1_opt_disp_struct_14.xyz,Nucleus 1H :,0.481257,0.741436,-1.432009,29.0,34.94,28.72,23.33,39.63,30.46,26.23,-4.77,-1.65,-2.91,23.33,28.72,34.94,0,11.61,-0.07
rw_cut_5_p1_opt_disp_struct_14.xyz,Nucleus 2H :,1.376091,1.259999,-1.782431,29.08,24.32,27.53,35.4,45.36,26.57,29.56,0.68,-4.71,-10.21,24.32,27.53,35.4,0,11.08,-0.42
rw_cut_5_p1_opt_disp_struct_14.xyz,Nucleus 6H :,0.331331,-0.137431,-2.070295,23.83,16.04,24.8,30.66,50.28,29.64,16.43,-19.84,-4.74,-0.26,16.04,24.8,30.66,0,14.62,0.2
rw_cut_5_p1_opt_disp_struct_14.xyz,Nucleus 10H :,0.60421,0.375351,0.005136,23.44,28.52,22.93,18.88,48.61,32.94,30.94,-25.65,-3.51,-13.0,18.88,22.93,28.52,0,9.64,-0.16
rw_cut_5_p1_opt_disp_struct_14.xyz,Nucleus 12H :,1.648612,0.717142,0.840465,23.82,19.97,24.25,27.25,47.99,15.87,30.62,-23.75,4.18,-3.45,19.97,24.25,27.25,0,7.28,0.18
rw_cut_5_p1_opt_disp_struct_14.xyz,Nucleus 14H :,1.368036,0.259657,2.100358,23.82,19.99,27.08,24.38,7.68,33.22,43.98,12.31,-6.22,-19.53,19.99,24.38,27.08,0,7.09,0.24
rw_cut_5_p1_opt_disp_struct_14.xyz,Nucleus 16H :,1.964988,0.370322,2.902746,23.87,19.3,27.89,24.41,13.36,31.77,47.36,-22.96,-3.91,5.98,19.3,24.41,27.89,0,8.59,0.19
rw_cut_5_p1_opt_disp_struct_14.xyz,Nucleus 17H :,0.181036,-0.436577,2.092912,24.14,20.46,25.07,26.9,44.89,28.3,32.13,-19.69,-7.76,-5.46,20.46,25.07,26.9,0,6.44,0.43
rw_cut_5_p1_opt_disp_struct_14.xyz,Nucleus 18H :,-0.332094,-0.364522,0.796939,28.89,35.72,26.6,24.35,43.37,25.26,28.91,-8.56,1.19,-3.51,24.35,26.6,35.72,0,11.37,-0.6
rw_cut_5_p1_opt_disp_struct_14.xyz,Nucleus 20H :,-1.575214,-0.975831,0.532739,28.54,34.38,24.38,26.86,-9.61,18.27,39.4,36.47,7.25,-6.17,24.38,26.86,34.38,0,10.0,-0.5
rw_cut_5_p1_opt_disp_struct_14.xyz,Nucleus 21H :,-2.01054,-0.928082,-0.460486,28.57,35.16,26.38,24.16,-10.34,17.09,40.72,37.42,7.64,-6.82,24.16,26.38,35.16,0,11.0,-0.6
rw_cut_5_p1_opt_disp_struct_14.xyz,Nucleus 23H :,-2.255591,-1.629413,1.56716,26.91,18.68,33.95,28.1,1.89,50.87,27.88,17.38,-17.12,-0.17,18.68,28.1,33.95,0,15.27,0.23
rw_cut_5_p1_opt_disp_struct_14.xyz,Nucleus 26H :,-3.21827,-2.085788,1.364524,26.76,36.3,20.07,23.92,77.32,29.25,45.77,-57.17,-10.08,-4.81,20.07,23.92,36.3,0,16.23,-0.52
rw_cut_5_p1_opt_disp_struct_14.xyz,Nucleus 28H :,-1.7188,-1.678678,2.85103,26.68,33.78,19.88,26.38,57.95,-0.14,25.24,-24.23,20.11,1.11,19.88,26.38,33.78,0,13.9,-0.06
rw_cut_5_p1_opt_disp_struct_14.xyz,Nucleus 29H :,-2.27419,-2.156438,3.652739,26.38,35.27,19.89,23.97,58.57,43.12,31.49,-38.58,-7.52,-7.94,19.89,23.97,35.27,0,15.38,-0.47
rw_cut_5_p1_opt_disp_struct_14.xyz,Nucleus 30H :,-0.48843,-1.081939,3.139926,28.18,35.02,23.56,25.96,-25.98,11.84,38.18,49.66,14.04,-3.22,23.56,25.96,35.02,0,11.46,-0.58
rw_cut_5_p1_opt_disp_struct_14.xyz,Nucleus 31H :,-0.0806,-1.102468,4.145334,27.08,34.64,20.74,25.87,51.99,38.17,27.35,-24.09,-11.08,-1.11,20.74,25.87,34.64,0,13.9,-0.26
rw_cut_5_p1_opt_disp_struct_14.xyz,Nucleus 0C :,2.537869,1.29502,0.634339,172.81,160.78,169.34,188.32,257.62,235.23,239.1,-77.64,-69.14,-66.73,160.78,169.34,188.32,0,27.54,-0.38
rw_cut_5_p1_opt_disp_struct_14.xyz,Nucleus 3C :,-0.374688,1.404825,-1.599393,62.36,148.97,51.77,-13.65,241.68,275.02,263.65,-92.83,-223.07,-277.36,-13.65,51.77,148.97,0,162.62,-0.2
rw_cut_5_p1_opt_disp_struct_14.xyz,Nucleus 4C :,2.939044,-9.758678,0.387148,54.91,-31.35,68.02,128.06,274.25,261.72,255.16,-295.38,-201.06,-129.95,-31.35,68.02,128.06,0,159.41,0.25
rw_cut_5_p1_opt_disp_struct_14.xyz,Nucleus 7C :,3.129453,-9.655524,1.460249,40.92,142.87,-39.48,19.38,272.38,263.6,267.18,-121.99,-311.55,-246.85,-39.48,19.38,142.87,0,182.35,-0.35
rw_cut_5_p1_opt_disp_struct_14.xyz,Nucleus 8C :,1.943859,-10.189915,0.224106,49.4,170.93,1.15,-23.88,229.83,266.7,259.6,-59.02,-265.04,-283.88,-23.88,1.15,170.93,0,194.81,-0.74
rw_cut_5_p1_opt_disp_struct_14.xyz,Nucleus 9C :,3.095186,-8.472906,-0.288067,55.04,176.49,38.51,-49.88,246.65,272.19,263.35,-70.49,-231.4,-315.19,-49.88,38.51,176.49,0,226.37,-0.22
rw_cut_5_p1_opt_disp_struct_14.xyz,Nucleus 11C :,3.585302,-8.471429,-1.167586,55.88,176.43,-56.71,47.91,229.7,261.65,271.07,-53.51,-319.04,-222.25,-56.71,47.91,176.43,0,233.14,-0.1
rw_cut_5_p1_opt_disp_struct_14.xyz,Nucleus 13C :,2.449229,-7.344764,0.042739,53.97,176.45,43.57,-58.11,223.03,274.15,255.62,-46.6,-230.55,-313.72,-58.11,43.57,176.45,0,234.56,-0.13
rw_cut_5_p1_opt_disp_struct_14.xyz,Nucleus 15C :,2.680182,-6.236204,-0.661022,65.73,171.49,51.79,-26.09,240.34,272.05,263.75,-69.62,-219.84,-289.49,-26.09,51.79,171.49,0,197.58,-0.21
rw_cut_5_p1_opt_disp_struct_14.xyz,Nucleus 19C :,2.174892,-5.37448,-0.475323,155.2,130.43,146.63,188.53,273.38,191.26,208.3,-44.49,-75.73,-87.14,130.43,146.63,188.53,0,58.1,-0.44
rw_cut_5_p1_opt_disp_struct_14.xyz,Nucleus 24C :,1.584639,-7.289936,1.056044,21.26,115.5,-16.85,-34.87,241.55,272.69,262.67,-126.06,-305.87,-281.21,-34.87,-16.85,115.5,0,150.37,-0.76
rw_cut_5_p1_opt_disp_struct_14.xyz,Nucleus 5N :,1.269572,-8.134019,1.50336,117.83,55.12,129.49,168.87,301.37,336.18,330.65,-132.97,-275.52,-206.23,55.12,129.49,168.87,0,113.75,0.31
rw_cut_5_p1_opt_disp_struct_14.xyz,Nucleus 22N :,1.153446,-6.410453,1.332952,167.38,99.65,181.08,221.4,275.87,349.22,330.17,-236.67,-92.83,-123.63,99.65,181.08,221.4,0,121.75,0.34
rw_cut_5_p1_opt_disp_struct_14.xyz,Nucleus 25N :,3.681151,-10.447628,-0.016247,174.69,114.15,176.37,233.54,321.69,346.97,337.05,-213.41,-165.0,-103.24,114.15,176.37,233.54,0,119.39,0.04
rw_cut_5_p1_opt_disp_struct_14.xyz,Nucleus 27N :,3.458805,-6.186516,-1.295962,174.0,114.64,212.45,194.92,299.33,342.6,324.32,-103.07,-130.32,-210.86,114.64,194.92,212.45,0,97.81,0.64
rw_cut_5_p1_opt_disp_struct_15.xyz,Nucleus 1H :,0.481257,0.741436,-1.432009,29.0,34.94,28.74,23.33,39.62,30.4,26.24,-4.75,-1.58,-2.91,23.33,28.74,34.94,0,11.61,-0.07
rw_cut_5_p1_opt_disp_struct_15.xyz,Nucleus 2H :,1.376091,1.259999,-1.782431,29.08,24.3,27.52,35.41,45.25,26.53,29.54,0.7,-4.68,-10.12,24.3,27.52,35.41,0,11.11,-0.42
rw_cut_5_p1_opt_disp_struct_15.xyz,Nucleus 6H :,0.331331,-0.137431,-2.070295,23.85,16.05,24.82,30.67,50.18,29.66,16.42,-19.72,-4.73,-0.26,16.05,24.82,30.67,0,14.62,0.2
rw_cut_5_p1_opt_disp_struct_15.xyz,Nucleus 10H :,0.60421,0.375351,0.005136,23.45,28.54,22.94,18.87,48.51,32.85,30.99,-25.54,-3.47,-12.99,18.87,22.94,28.54,0,9.67,-0.16
rw_cut_5_p1_opt_disp_struct_15.xyz,Nucleus 12H :,1.648612,0.717142,0.840465,23.83,19.96,24.26,27.27,47.91,15.83,30.62,-23.65,4.2,-3.42,19.96,24.26,27.27,0,7.31,0.18
rw_cut_5_p1_opt_disp_struct_15.xyz,Nucleus 14H :,1.368036,0.259657,2.100358,23.82,19.97,27.09,24.39,7.63,33.2,43.96,12.35,-6.18,-19.5,19.97,24.39,27.09,0,7.12,0.24
rw_cut_5_p1_opt_disp_struct_15.xyz,Nucleus 16H :,1.964988,0.370322,2.902746,23.88,19.29,27.91,24.43,13.32,31.78,47.29,-22.87,-3.9,6.0,19.29,24.43,27.91,0,8.62,0.19
rw_cut_5_p1_opt_disp_struct_15.xyz,Nucleus 17H :,0.181036,-0.436577,2.092912,24.15,20.47,25.07,26.92,44.86,28.3,32.08,-19.65,-7.75,-5.39,20.47,25.07,26.92,0,6.45,0.43
rw_cut_5_p1_opt_disp_struct_15.xyz,Nucleus 18H :,-0.332094,-0.364522,0.796939,28.9,35.71,26.62,24.36,43.37,25.24,28.9,-8.58,1.2,-3.45,24.36,26.62,35.71,0,11.35,-0.6
rw_cut_5_p1_opt_disp_struct_15.xyz,Nucleus 20H :,-1.575214,-0.975831,0.532739,28.53,34.37,24.39,26.83,-10.43,18.21,39.46,37.32,7.3,-6.27,24.39,26.83,34.37,0,9.98,-0.51
rw_cut_5_p1_opt_disp_struct_15.xyz,Nucleus 21H :,-2.01054,-0.928082,-0.460486,28.56,35.15,26.37,24.16,-11.24,17.01,40.81,38.34,7.71,-6.95,24.16,26.37,35.15,0,10.99,-0.6
rw_cut_5_p1_opt_disp_struct_15.xyz,Nucleus 23H :,-2.255591,-1.629413,1.56716,26.9,18.69,33.94,28.07,0.62,51.04,27.74,18.65,-17.31,-0.03,18.69,28.07,33.94,0,15.25,0.23
rw_cut_5_p1_opt_disp_struct_15.xyz,Nucleus 26H :,-3.21827,-2.085788,1.364524,26.72,36.11,20.11,23.94,79.0,29.5,45.52,-58.8,-10.09,-4.96,20.11,23.94,36.11,0,16.0,-0.52
rw_cut_5_p1_opt_disp_struct_15.xyz,Nucleus 28H :,-1.7188,-1.678678,2.85103,26.66,33.77,19.89,26.33,58.38,-0.28,25.25,-24.67,20.26,1.05,19.89,26.33,33.77,0,13.88,-0.07
rw_cut_5_p1_opt_disp_struct_15.xyz,Nucleus 29H :,-2.27419,-2.156438,3.652739,26.35,35.13,19.93,23.98,60.17,43.1,31.69,-40.14,-8.07,-7.71,19.93,23.98,35.13,0,15.2,-0.47
rw_cut_5_p1_opt_disp_struct_15.xyz,Nucleus 30H :,-0.48843,-1.081939,3.139926,28.17,35.0,23.56,25.96,-27.29,11.53,38.16,50.97,14.36,-3.22,23.56,25.96,35.0,0,11.44,-0.58
rw_cut_5_p1_opt_disp_struct_15.xyz,Nucleus 31H :,-0.0806,-1.102468,4.145334,27.05,34.64,20.74,25.78,52.22,38.26,27.18,-24.31,-11.17,-1.01,20.74,25.78,34.64,0,13.9,-0.27
rw_cut_5_p1_opt_disp_struct_15.xyz,Nucleus 0C :,2.537869,1.29502,0.634339,172.81,160.79,169.3,188.34,257.51,235.23,239.11,-77.52,-69.23,-66.67,160.79,169.3,188.34,0,27.55,-0.38
rw_cut_5_p1_opt_disp_struct_15.xyz,Nucleus 3C :,-0.374688,1.404825,-1.599393,62.38,148.96,51.83,-13.64,241.65,274.85,263.61,-92.8,-222.83,-277.33,-13.64,51.83,148.96,0,162.6,-0.19
rw_cut_5_p1_opt_disp_struct_15.xyz,Nucleus 4C :,3.055957,-9.97187,0.329004,55.0,-31.23,68.21,128.03,274.14,261.5,255.35,-295.27,-200.73,-130.0,-31.23,68.21,128.03,0,159.26,0.25
rw_cut_5_p1_opt_disp_struct_15.xyz,Nucleus 7C :,3.246365,-9.868716,1.402105,40.91,142.83,-39.52,19.41,272.27,263.71,267.0,-122.06,-311.45,-246.75,-39.52,19.41,142.83,0,182.35,-0.35
rw_cut_5_p1_opt_disp_struct_15.xyz,Nucleus 8C :,2.060772,-10.403107,0.165962,49.39,170.91,1.16,-23.89,229.77,266.47,259.55,-58.97,-264.86,-283.79,-23.89,1.16,170.91,0,194.8,-0.74
rw_cut_5_p1_opt_disp_struct_15.xyz,Nucleus 9C :,3.212098,-8.686098,-0.346211,55.03,176.43,38.56,-49.89,246.72,271.97,263.32,-70.56,-231.24,-315.11,-49.89,38.56,176.43,0,226.32,-0.22
rw_cut_5_p1_opt_disp_struct_15.xyz,Nucleus 11C :,3.702214,-8.684621,-1.22573,55.87,176.36,-56.7,47.96,229.71,261.57,270.98,-53.56,-318.95,-222.14,-56.7,47.96,176.36,0,233.06,-0.1
rw_cut_5_p1_opt_disp_struct_15.xyz,Nucleus 13C :,2.566141,-7.557956,-0.015405,53.94,176.39,43.58,-58.14,222.93,274.01,255.61,-46.56,-230.41,-313.76,-58.14,43.58,176.39,0,234.53,-0.13
rw_cut_5_p1_opt_disp_struct_15.xyz,Nucleus 15C :,2.797095,-6.449396,-0.719166,65.74,171.43,51.87,-26.07,240.47,271.97,263.62,-69.72,-219.69,-289.43,-26.07,51.87,171.43,0,197.5,-0.21
rw_cut_5_p1_opt_disp_struct_15.xyz,Nucleus 19C :,2.291805,-5.587671,-0.533467,155.18,130.41,146.63,188.51,273.95,190.4,207.86,-43.63,-75.53,-87.5,130.41,146.63,188.51,0,58.1,-0.44
rw_cut_5_p1_opt_disp_struct_15.xyz,Nucleus 24C :,1.701552,-7.503128,0.9979,21.24,115.52,-16.87,-34.92,241.81,273.06,262.54,-126.3,-306.23,-281.15,-34.92,-16.87,115.52,0,150.44,-0.76
rw_cut_5_p1_opt_disp_struct_15.xyz,Nucleus 5N :,1.386484,-8.347211,1.445216,117.91,55.27,129.64,168.81,301.35,336.13,330.54,-132.98,-275.25,-206.06,55.27,129.64,168.81,0,113.54,0.31
rw_cut_5_p1_opt_disp_struct_15.xyz,Nucleus 22N :,1.270358,-6.623645,1.274808,167.29,99.52,181.11,221.24,274.4,349.61,330.12,-237.15,-91.37,-123.73,99.52,181.11,221.24,0,121.72,0.34
rw_cut_5_p1_opt_disp_struct_15.xyz,Nucleus 25N :,3.798063,-10.66082,-0.074391,174.68,114.12,176.35,233.56,321.64,347.96,337.14,-213.57,-165.9,-103.24,114.12,176.35,233.56,0,119.44,0.04
rw_cut_5_p1_opt_disp_struct_15.xyz,Nucleus 27N :,3.575717,-6.399707,-1.354106,173.99,114.59,212.5,194.88,299.87,342.95,324.29,-103.66,-130.6,-210.89,114.59,194.88,212.5,0,97.91,0.64
rw_cut_5_p1_opt_disp_struct_16.xyz,Nucleus 1H :,0.481257,0.741436,-1.432009,29.01,34.95,28.76,23.33,39.61,30.33,26.25,-4.73,-1.51,-2.91,23.33,28.76,34.95,0,11.62,-0.06
rw_cut_5_p1_opt_disp_struct_16.xyz,Nucleus 2H :,1.376091,1.259999,-1.782431,29.07,24.29,27.51,35.42,45.14,26.49,29.52,0.72,-4.63,-10.03,24.29,27.51,35.42,0,11.13,-0.42
rw_cut_5_p1_opt_disp_struct_16.xyz,Nucleus 6H :,0.331331,-0.137431,-2.070295,23.86,16.05,24.83,30.69,50.08,29.67,16.42,-19.61,-4.72,-0.27,16.05,24.83,30.69,0,14.64,0.2
rw_cut_5_p1_opt_disp_struct_16.xyz,Nucleus 10H :,0.60421,0.375351,0.005136,23.46,28.56,22.95,18.86,48.41,32.77,31.03,-25.43,-3.43,-12.99,18.86,22.95,28.56,0,9.7,-0.16
rw_cut_5_p1_opt_disp_struct_16.xyz,Nucleus 12H :,1.648612,0.717142,0.840465,23.84,19.95,24.27,27.29,47.82,15.79,30.62,-23.55,4.22,-3.4,19.95,24.27,27.29,0,7.34,0.18
rw_cut_5_p1_opt_disp_struct_16.xyz,Nucleus 14H :,1.368036,0.259657,2.100358,23.82,19.96,27.11,24.4,7.58,33.17,43.93,12.39,-6.13,-19.47,19.96,24.4,27.11,0,7.15,0.24
rw_cut_5_p1_opt_disp_struct_16.xyz,Nucleus 16H :,1.964988,0.370322,2.902746,23.88,19.28,27.93,24.44,13.29,31.79,47.21,-22.78,-3.89,6.03,19.28,24.44,27.93,0,8.65,0.19
rw_cut_5_p1_opt_disp_struct_16.xyz,Nucleus 17H :,0.181036,-0.436577,2.092912,24.16,20.47,25.07,26.93,44.83,28.29,32.03,-19.62,-7.75,-5.32,20.47,25.07,26.93,0,6.46,0.42
rw_cut_5_p1_opt_disp_struct_16.xyz,Nucleus 18H :,-0.332094,-0.364522,0.796939,28.9,35.71,26.63,24.37,43.36,25.22,28.89,-8.6,1.22,-3.39,24.37,26.63,35.71,0,11.34,-0.6
rw_cut_5_p1_opt_disp_struct_16.xyz,Nucleus 20H :,-1.575214,-0.975831,0.532739,28.52,34.37,24.39,26.81,-11.24,18.14,39.52,38.17,7.35,-6.37,24.39,26.81,34.37,0,9.98,-0.51
rw_cut_5_p1_opt_disp_struct_16.xyz,Nucleus 21H :,-2.01054,-0.928082,-0.460486,28.55,35.14,26.36,24.16,-12.13,16.93,40.9,39.26,7.78,-7.07,24.16,26.36,35.14,0,10.98,-0.6
rw_cut_5_p1_opt_disp_struct_16.xyz,Nucleus 23H :,-2.255591,-1.629413,1.56716,26.88,18.69,33.92,28.04,-0.66,51.21,27.59,19.92,-17.5,0.1,18.69,28.04,33.92,0,15.23,0.23
rw_cut_5_p1_opt_disp_struct_16.xyz,Nucleus 26H :,-3.21827,-2.085788,1.364524,26.69,35.95,20.15,23.96,80.67,29.73,45.29,-60.43,-10.11,-5.09,20.15,23.96,35.95,0,15.8,-0.52
rw_cut_5_p1_opt_disp_struct_16.xyz,Nucleus 28H :,-1.7188,-1.678678,2.85103,26.65,33.76,19.9,26.28,58.8,-0.44,25.25,-25.1,20.42,1.0,19.9,26.28,33.76,0,13.86,-0.08
rw_cut_5_p1_opt_disp_struct_16.xyz,Nucleus 29H :,-2.27419,-2.156438,3.652739,26.32,35.0,19.97,23.98,61.75,43.09,31.88,-41.69,-8.25,-7.82,19.97,23.98,35.0,0,15.03,-0.47
rw_cut_5_p1_opt_disp_struct_16.xyz,Nucleus 30H :,-0.48843,-1.081939,3.139926,28.16,34.97,23.56,25.96,-28.6,11.21,38.14,52.29,14.67,-3.22,23.56,25.96,34.97,0,11.41,-0.58
rw_cut_5_p1_opt_disp_struct_16.xyz,Nucleus 31H :,-0.0806,-1.102468,4.145334,27.03,34.65,20.75,25.7,52.45,38.33,27.02,-24.53,-11.25,-0.92,20.75,25.7,34.65,0,13.9,-0.29
rw_cut_5_p1_opt_disp_struct_16.xyz,Nucleus 0C :,2.537869,1.29502,0.634339,172.81,160.8,169.27,188.35,257.41,235.23,239.13,-77.4,-69.32,-66.62,160.8,169.27,188.35,0,27.55,-0.39
rw_cut_5_p1_opt_disp_struct_16.xyz,Nucleus 3C :,-0.374688,1.404825,-1.599393,62.4,148.95,51.89,-13.64,241.62,274.69,263.57,-92.78,-222.6,-277.31,-13.64,51.89,148.95,0,162.59,-0.19
rw_cut_5_p1_opt_disp_struct_16.xyz,Nucleus 4C :,3.172869,-10.185062,0.27086,55.08,-31.13,68.38,127.99,274.04,261.3,255.51,-295.17,-200.42,-130.04,-31.13,68.38,127.99,0,159.12,0.25
rw_cut_5_p1_opt_disp_struct_16.xyz,Nucleus 7C :,3.363278,-10.081908,1.343962,40.89,142.79,-39.55,19.43,272.18,263.8,266.85,-122.13,-311.36,-246.67,-39.55,19.43,142.79,0,182.34,-0.35
rw_cut_5_p1_opt_disp_struct_16.xyz,Nucleus 8C :,2.177684,-10.616298,0.107818,49.39,170.89,1.18,-23.9,229.72,266.27,259.51,-58.93,-264.7,-283.71,-23.9,1.18,170.89,0,194.79,-0.74
rw_cut_5_p1_opt_disp_struct_16.xyz,Nucleus 9C :,3.329011,-8.89929,-0.404355,55.03,176.39,38.62,-49.91,246.77,271.78,263.28,-70.62,-231.1,-315.03,-49.91,38.62,176.39,0,226.3,-0.22
rw_cut_5_p1_opt_disp_struct_16.xyz,Nucleus 11C :,3.819127,-8.897812,-1.283873,55.87,176.3,-56.69,48.01,229.72,261.49,270.9,-53.6,-318.85,-222.04,-56.69,48.01,176.3,0,232.99,-0.1
rw_cut_5_p1_opt_disp_struct_16.xyz,Nucleus 13C :,2.683054,-7.771148,-0.073548,53.92,176.34,43.58,-58.17,222.83,273.87,255.61,-46.51,-230.27,-313.78,-58.17,43.58,176.34,0,234.51,-0.13
rw_cut_5_p1_opt_disp_struct_16.xyz,Nucleus 15C :,2.914007,-6.662588,-0.77731,65.75,171.38,51.93,-26.05,240.59,271.9,263.51,-69.81,-219.56,-289.37,-26.05,51.93,171.38,0,197.43,-0.21
rw_cut_5_p1_opt_disp_struct_16.xyz,Nucleus 19C :,2.408717,-5.800863,-0.591611,155.17,130.39,146.63,188.5,274.52,189.54,207.43,-42.78,-75.29,-87.89,130.39,146.63,188.5,0,58.11,-0.44
rw_cut_5_p1_opt_disp_struct_16.xyz,Nucleus 24C :,1.818464,-7.71632,0.939757,21.23,115.53,-16.89,-34.96,242.07,273.41,262.42,-126.55,-306.58,-281.09,-34.96,-16.89,115.53,0,150.49,-0.76
rw_cut_5_p1_opt_disp_struct_16.xyz,Nucleus 5N :,1.503396,-8.560403,1.387072,117.98,55.41,129.77,168.76,301.33,336.09,330.43,-132.99,-275.01,-205.9,55.41,129.77,168.76,0,113.35,0.31
rw_cut_5_p1_opt_disp_struct_16.xyz,Nucleus 22N :,1.387271,-6.836836,1.216664,167.22,99.41,181.14,221.11,272.93,350.01,330.07,-237.62,-89.91,-123.82,99.41,181.14,221.11,0,121.7,0.34
rw_cut_5_p1_opt_disp_struct_16.xyz,Nucleus 25N :,3.914976,-10.874012,-0.132535,174.67,114.09,176.34,233.58,321.59,348.93,337.25,-213.74,-166.77,-103.25,114.09,176.34,233.58,0,119.49,0.04
rw_cut_5_p1_opt_disp_struct_16.xyz,Nucleus 27N :,3.69263,-6.612899,-1.41225,173.98,114.54,212.54,194.86,300.38,343.3,324.26,-104.21,-130.88,-210.92,114.54,194.86,212.54,0,98.0,0.64
rw_cut_5_p1_opt_disp_struct_17.xyz,Nucleus 1H :,0.481257,0.741436,-1.432009,29.02,34.95,28.77,23.34,39.6,30.27,26.25,-4.72,-1.44,-2.91,23.34,28.77,34.95,0,11.61,-0.06
rw_cut_5_p1_opt_disp_struct_17.xyz,Nucleus 2H :,1.376091,1.259999,-1.782431,29.07,24.28,27.5,35.42,45.04,26.45,29.5,0.74,-4.59,-9.95,24.28,27.5,35.42,0,11.14,-0.42
rw_cut_5_p1_opt_disp_struct_17.xyz,Nucleus 6H :,0.331331,-0.137431,-2.070295,23.87,16.05,24.85,30.7,49.99,29.68,16.41,-19.5,-4.71,-0.27,16.05,24.85,30.7,0,14.65,0.2
rw_cut_5_p1_opt_disp_struct_17.xyz,Nucleus 10H :,0.60421,0.375351,0.005136,23.46,28.57,22.96,18.85,48.32,32.69,31.08,-25.33,-3.38,-12.98,18.85,22.96,28.57,0,9.72,-0.15
rw_cut_5_p1_opt_disp_struct_17.xyz,Nucleus 12H :,1.648612,0.717142,0.840465,23.84,19.95,24.28,27.3,47.74,15.76,30.61,-23.45,4.24,-3.37,19.95,24.28,27.3,0,7.35,0.18
rw_cut_5_p1_opt_disp_struct_17.xyz,Nucleus 14H :,1.368036,0.259657,2.100358,23.83,19.95,27.13,24.41,7.53,33.13,43.91,12.42,-6.07,-19.43,19.95,24.41,27.13,0,7.18,0.24
rw_cut_5_p1_opt_disp_struct_17.xyz,Nucleus 16H :,1.964988,0.370322,2.902746,23.89,19.28,27.94,24.45,13.25,31.79,47.14,-22.7,-3.88,6.05,19.28,24.45,27.94,0,8.66,0.19
rw_cut_5_p1_opt_disp_struct_17.xyz,Nucleus 17H :,0.181036,-0.436577,2.092912,24.16,20.48,25.07,26.94,44.8,28.29,31.98,-19.58,-7.74,-5.25,20.48,25.07,26.94,0,6.46,0.42
rw_cut_5_p1_opt_disp_struct_17.xyz,Nucleus 18H :,-0.332094,-0.364522,0.796939,28.91,35.71,26.64,24.38,43.35,25.2,28.87,-8.61,1.24,-3.33,24.38,26.64,35.71,0,11.33,-0.6
rw_cut_5_p1_opt_disp_struct_17.xyz,Nucleus 20H :,-1.575214,-0.975831,0.532739,28.52,34.36,24.39,26.8,-12.06,18.08,39.58,39.02,7.4,-6.48,24.39,26.8,34.36,0,9.97,-0.52
rw_cut_5_p1_opt_disp_struct_17.xyz,Nucleus 21H :,-2.01054,-0.928082,-0.460486,28.55,35.14,26.35,24.16,-13.03,16.85,41.0,40.18,7.85,-7.2,24.16,26.35,35.14,0,10.98,-0.6
rw_cut_5_p1_opt_disp_struct_17.xyz,Nucleus 23H :,-2.255591,-1.629413,1.56716,26.88,18.7,33.91,28.02,-1.93,51.37,27.45,21.19,-17.69,0.23,18.7,28.02,33.91,0,15.21,0.22
rw_cut_5_p1_opt_disp_struct_17.xyz,Nucleus 26H :,-3.21827,-2.085788,1.364524,26.66,35.82,20.19,23.98,82.33,29.95,45.09,-62.06,-10.13,-5.2,20.19,23.98,35.82,0,15.63,-0.51
rw_cut_5_p1_opt_disp_struct_17.xyz,Nucleus 28H :,-1.7188,-1.678678,2.85103,26.63,33.75,19.9,26.24,59.23,-0.6,25.25,-25.54,20.59,0.96,19.9,26.24,33.75,0,13.85,-0.08
rw_cut_5_p1_opt_disp_struct_17.xyz,Nucleus 29H :,-2.27419,-2.156438,3.652739,26.29,34.89,20.0,23.99,63.33,43.08,32.06,-43.24,-8.46,-7.88,20.0,23.99,34.89,0,14.89,-0.46
rw_cut_5_p1_opt_disp_struct_17.xyz,Nucleus 30H :,-0.48843,-1.081939,3.139926,28.16,34.95,23.56,25.96,-29.91,10.9,38.12,53.6,14.99,-3.23,23.56,25.96,34.95,0,11.39,-0.58
rw_cut_5_p1_opt_disp_struct_17.xyz,Nucleus 31H :,-0.0806,-1.102468,4.145334,27.01,34.65,20.76,25.63,52.68,26.87,38.4,-24.74,-11.33,-0.84,20.76,25.63,34.65,0,13.89,-0.3
rw_cut_5_p1_opt_disp_struct_17.xyz,Nucleus 0C :,2.537869,1.29502,0.634339,172.8,160.81,169.24,188.36,257.32,235.22,239.14,-77.29,-69.41,-66.57,160.81,169.24,188.36,0,27.55,-0.39
rw_cut_5_p1_opt_disp_struct_17.xyz,Nucleus 3C :,-0.374688,1.404825,-1.599393,62.42,148.94,51.94,-13.63,241.6,274.55,263.53,-92.76,-222.39,-277.28,-13.63,51.94,148.94,0,162.57,-0.19
rw_cut_5_p1_opt_disp_struct_17.xyz,Nucleus 4C :,3.289781,-10.398254,0.212716,55.15,-31.04,68.52,127.96,273.95,261.12,255.66,-295.08,-200.14,-130.07,-31.04,68.52,127.96,0,159.0,0.25
rw_cut_5_p1_opt_disp_struct_17.xyz,Nucleus 7C :,3.48019,-10.2951,1.285818,40.88,142.76,-39.58,19.46,272.09,263.89,266.71,-122.2,-311.27,-246.59,-39.58,19.46,142.76,0,182.34,-0.35
rw_cut_5_p1_opt_disp_struct_17.xyz,Nucleus 8C :,2.294597,-10.82949,0.049674,49.38,170.87,1.19,-23.91,229.67,266.08,259.47,-58.88,-264.55,-283.63,-23.91,1.19,170.87,0,194.78,-0.74
rw_cut_5_p1_opt_disp_struct_17.xyz,Nucleus 9C :,3.445923,-9.112482,-0.462499,55.03,176.34,38.66,-49.92,246.83,271.61,263.25,-70.68,-230.96,-314.95,-49.92,38.66,176.34,0,226.26,-0.22
rw_cut_5_p1_opt_disp_struct_17.xyz,Nucleus 11C :,3.936039,-9.111004,-1.342017,55.87,176.25,-56.69,48.05,229.72,261.42,270.82,-53.64,-318.76,-221.94,-56.69,48.05,176.25,0,232.94,-0.1
rw_cut_5_p1_opt_disp_struct_17.xyz,Nucleus 13C :,2.799966,-7.98434,-0.131692,53.9,176.29,43.59,-58.19,222.74,273.74,255.6,-46.47,-230.13,-313.8,-58.19,43.59,176.29,0,234.48,-0.13
rw_cut_5_p1_opt_disp_struct_17.xyz,Nucleus 15C :,3.03092,-6.87578,-0.835454,65.76,171.33,51.98,-26.03,240.69,271.83,263.4,-69.89,-219.44,-289.31,-26.03,51.98,171.33,0,197.36,-0.21
rw_cut_5_p1_opt_disp_struct_17.xyz,Nucleus 19C :,2.52563,-6.014055,-0.649755,155.17,130.38,146.64,188.48,275.09,188.68,206.99,-41.93,-75.03,-88.3,130.38,146.64,188.48,0,58.1,-0.44
rw_cut_5_p1_opt_disp_struct_17.xyz,Nucleus 24C :,1.935377,-7.929512,0.881613,21.22,115.55,-16.91,-34.99,242.34,273.77,262.31,-126.81,-306.92,-281.04,-34.99,-16.91,115.55,0,150.54,-0.76
rw_cut_5_p1_opt_disp_struct_17.xyz,Nucleus 5N :,1.620309,-8.773594,1.328928,118.04,55.52,129.89,168.72,301.31,336.05,330.33,-133.01,-274.79,-205.76,55.52,129.89,168.72,0,113.2,0.31
rw_cut_5_p1_opt_disp_struct_17.xyz,Nucleus 22N :,1.504183,-7.050028,1.15852,167.15,99.31,181.16,220.98,271.48,350.41,330.01,-238.08,-88.46,-123.91,99.31,181.16,220.98,0,121.67,0.35
rw_cut_5_p1_opt_disp_struct_17.xyz,Nucleus 25N :,4.031888,-11.087204,-0.190679,174.66,114.06,176.33,233.6,321.55,349.9,337.36,-213.92,-167.63,-103.27,114.06,176.33,233.6,0,119.54,0.04
rw_cut_5_p1_opt_disp_struct_17.xyz,Nucleus 27N :,3.809542,-6.826091,-1.470394,173.97,114.5,212.58,194.83,300.88,343.64,324.25,-104.74,-131.15,-210.97,114.5,194.83,212.58,0,98.08,0.64
rw_cut_5_p1_opt_disp_struct_18.xyz,Nucleus 1H :,0.481257,0.741436,-1.432009,29.02,34.95,28.78,23.34,39.59,30.2,26.26,-4.7,-1.37,-2.91,23.34,28.78,34.95,0,11.61,-0.06
rw_cut_5_p1_opt_disp_struct_18.xyz,Nucleus 2H :,1.376091,1.259999,-1.782431,29.06,24.27,27.49,35.43,44.94,26.42,29.48,0.77,-4.54,-9.87,24.27,27.49,35.43,0,11.16,-0.42
rw_cut_5_p1_opt_disp_struct_18.xyz,Nucleus 6H :,0.331331,-0.137431,-2.070295,23.87,16.05,24.86,30.71,49.89,29.68,16.4,-19.4,-4.69,-0.27,16.05,24.86,30.71,0,14.66,0.2
rw_cut_5_p1_opt_disp_struct_18.xyz,Nucleus 10H :,0.60421,0.375351,0.005136,23.47,28.59,22.97,18.84,48.23,32.61,31.11,-25.23,-3.34,-12.98,18.84,22.97,28.59,0,9.75,-0.15
rw_cut_5_p1_opt_disp_struct_18.xyz,Nucleus 12H :,1.648612,0.717142,0.840465,23.85,19.94,24.29,27.31,47.66,15.73,30.6,-23.36,4.26,-3.34,19.94,24.29,27.31,0,7.37,0.18
rw_cut_5_p1_opt_disp_struct_18.xyz,Nucleus 14H :,1.368036,0.259657,2.100358,23.83,19.94,27.14,24.42,7.49,33.09,43.89,12.45,-6.02,-19.41,19.94,24.42,27.14,0,7.2,0.25
rw_cut_5_p1_opt_disp_struct_18.xyz,Nucleus 16H :,1.964988,0.370322,2.902746,23.89,19.27,27.95,24.45,13.22,31.79,47.07,-22.62,-3.86,6.07,19.27,24.45,27.95,0,8.68,0.19
rw_cut_5_p1_opt_disp_struct_18.xyz,Nucleus 17H :,0.181036,-0.436577,2.092912,24.17,20.49,25.08,26.95,44.77,28.28,31.93,-19.55,-7.74,-5.18,20.49,25.08,26.95,0,6.46,0.42
rw_cut_5_p1_opt_disp_struct_18.xyz,Nucleus 18H :,-0.332094,-0.364522,0.796939,28.91,35.7,26.65,24.39,43.34,25.18,28.86,-8.63,1.26,-3.27,24.39,26.65,35.7,0,11.31,-0.6
rw_cut_5_p1_opt_disp_struct_18.xyz,Nucleus 20H :,-1.575214,-0.975831,0.532739,28.51,34.36,24.39,26.78,-12.88,18.01,39.65,39.88,7.46,-6.58,24.39,26.78,34.36,0,9.97,-0.52
rw_cut_5_p1_opt_disp_struct_18.xyz,Nucleus 21H :,-2.01054,-0.928082,-0.460486,28.54,35.13,26.34,24.16,-13.93,16.77,41.09,41.1,7.93,-7.33,24.16,26.34,35.13,0,10.97,-0.6
rw_cut_5_p1_opt_disp_struct_18.xyz,Nucleus 23H :,-2.255591,-1.629413,1.56716,26.86,18.7,33.9,27.99,-3.21,51.54,27.31,22.46,-17.88,0.36,18.7,27.99,33.9,0,15.2,0.22
rw_cut_5_p1_opt_disp_struct_18.xyz,Nucleus 26H :,-3.21827,-2.085788,1.364524,26.63,35.69,20.22,23.99,83.98,30.15,44.91,-63.68,-10.16,-5.31,20.22,23.99,35.69,0,15.47,-0.51
rw_cut_5_p1_opt_disp_struct_18.xyz,Nucleus 28H :,-1.7188,-1.678678,2.85103,26.62,33.74,19.91,26.2,59.66,-0.77,25.25,-25.97,20.76,0.92,19.91,26.2,33.74,0,13.83,-0.09
rw_cut_5_p1_opt_disp_struct_18.xyz,Nucleus 29H :,-2.27419,-2.156438,3.652739,26.27,34.8,20.03,23.99,64.9,43.08,32.23,-44.78,-8.68,-7.93,20.03,23.99,34.8,0,14.77,-0.46
rw_cut_5_p1_opt_disp_struct_18.xyz,Nucleus 30H :,-0.48843,-1.081939,3.139926,28.15,34.93,23.56,25.96,-31.21,10.58,38.1,54.9,15.31,-3.23,23.56,25.96,34.93,0,11.37,-0.58
rw_cut_5_p1_opt_disp_struct_18.xyz,Nucleus 31H :,-0.0806,-1.102468,4.145334,27.0,34.66,20.77,25.57,52.91,26.73,38.47,-24.95,-11.41,-0.75,20.77,25.57,34.66,0,13.89,-0.31
rw_cut_5_p1_opt_disp_struct_18.xyz,Nucleus 0C :,2.537869,1.29502,0.634339,172.8,160.82,169.21,188.37,257.23,235.21,239.15,-77.18,-69.48,-66.53,160.82,169.21,188.37,0,27.55,-0.39
rw_cut_5_p1_opt_disp_struct_18.xyz,Nucleus 3C :,-0.374688,1.404825,-1.599393,62.43,148.93,51.99,-13.63,241.57,274.41,263.49,-92.74,-222.19,-277.26,-13.63,51.99,148.93,0,162.56,-0.19
rw_cut_5_p1_opt_disp_struct_18.xyz,Nucleus 4C :,3.406694,-10.611446,0.154572,55.21,-30.96,68.66,127.93,273.86,260.94,255.79,-295.0,-199.89,-130.09,-30.96,68.66,127.93,0,158.89,0.25
rw_cut_5_p1_opt_disp_struct_18.xyz,Nucleus 7C :,3.597103,-10.508291,1.227674,40.87,142.73,-39.61,19.48,272.02,266.58,263.98,-122.26,-311.19,-246.51,-39.61,19.48,142.73,0,182.34,-0.35
rw_cut_5_p1_opt_disp_struct_18.xyz,Nucleus 8C :,2.411509,-11.042682,-0.00847,49.38,170.85,1.21,-23.91,229.63,265.91,259.42,-58.85,-264.4,-283.56,-23.91,1.21,170.85,0,194.76,-0.74
rw_cut_5_p1_opt_disp_struct_18.xyz,Nucleus 9C :,3.562836,-9.325674,-0.520642,55.03,176.31,38.7,-49.92,246.87,271.45,263.22,-70.73,-230.84,-314.88,-49.92,38.7,176.31,0,226.23,-0.22
rw_cut_5_p1_opt_disp_struct_18.xyz,Nucleus 11C :,4.052952,-9.324196,-1.400161,55.87,176.2,-56.68,48.09,229.72,261.35,270.74,-53.67,-318.67,-221.86,-56.68,48.09,176.2,0,232.88,-0.1
rw_cut_5_p1_opt_disp_struct_18.xyz,Nucleus 13C :,2.916879,-8.197532,-0.189836,53.87,176.25,43.59,-58.22,222.66,273.61,255.59,-46.43,-230.0,-313.81,-58.22,43.59,176.25,0,234.47,-0.13
rw_cut_5_p1_opt_disp_struct_18.xyz,Nucleus 15C :,3.147832,-7.088972,-0.893598,65.77,171.29,52.03,-26.02,240.78,271.76,263.3,-69.95,-219.33,-289.26,-26.02,52.03,171.29,0,197.31,-0.21
rw_cut_5_p1_opt_disp_struct_18.xyz,Nucleus 19C :,2.642542,-6.227247,-0.707899,155.16,130.37,146.64,188.47,275.66,187.83,206.56,-41.08,-74.75,-88.74,130.37,146.64,188.47,0,58.1,-0.44
rw_cut_5_p1_opt_disp_struct_18.xyz,Nucleus 24C :,2.052289,-8.142704,0.823469,21.2,115.56,-16.93,-35.02,242.61,274.12,262.2,-127.06,-307.26,-281.0,-35.02,-16.93,115.56,0,150.58,-0.76
rw_cut_5_p1_opt_disp_struct_18.xyz,Nucleus 5N :,1.737221,-8.986786,1.270784,118.09,55.62,129.99,168.67,301.3,336.01,330.23,-133.02,-274.59,-205.64,55.62,129.99,168.67,0,113.05,0.32
rw_cut_5_p1_opt_disp_struct_18.xyz,Nucleus 22N :,1.621096,-7.26322,1.100376,167.09,99.22,181.18,220.88,270.02,350.83,329.95,-238.53,-87.01,-123.98,99.22,181.18,220.88,0,121.66,0.35
rw_cut_5_p1_opt_disp_struct_18.xyz,Nucleus 25N :,4.148801,-11.300395,-0.248823,174.66,114.04,176.32,233.61,321.5,350.87,337.47,-214.12,-168.47,-103.29,114.04,176.32,233.61,0,119.57,0.04
rw_cut_5_p1_opt_disp_struct_18.xyz,Nucleus 27N :,3.926455,-7.039283,-1.528537,173.96,114.46,212.61,194.82,301.36,343.97,324.24,-105.26,-131.41,-211.02,114.46,194.82,212.61,0,98.15,0.64
rw_cut_5_p1_opt_disp_struct_19.xyz,Nucleus 1H :,0.481257,0.741436,-1.432009,29.03,34.95,28.8,23.34,39.58,30.14,26.26,-4.69,-1.3,-2.9,23.34,28.8,34.95,0,11.61,-0.06
rw_cut_5_p1_opt_disp_struct_19.xyz,Nucleus 2H :,1.376091,1.259999,-1.782431,29.05,24.25,27.48,35.43,44.85,26.38,29.46,0.79,-4.5,-9.81,24.25,27.48,35.43,0,11.18,-0.42
rw_cut_5_p1_opt_disp_struct_19.xyz,Nucleus 6H :,0.331331,-0.137431,-2.070295,23.88,16.05,24.87,30.72,49.81,29.69,16.4,-19.3,-4.68,-0.28,16.05,24.87,30.72,0,14.67,0.2
rw_cut_5_p1_opt_disp_struct_19.xyz,Nucleus 10H :,0.60421,0.375351,0.005136,23.47,28.6,22.98,18.83,48.14,32.54,31.15,-25.14,-3.3,-12.98,18.83,22.98,28.6,0,9.77,-0.15
rw_cut_5_p1_opt_disp_struct_19.xyz,Nucleus 12H :,1.648612,0.717142,0.840465,23.85,19.93,24.29,27.33,47.58,15.7,30.59,-23.28,4.27,-3.31,19.93,24.29,27.33,0,7.4,0.18
rw_cut_5_p1_opt_disp_struct_19.xyz,Nucleus 14H :,1.368036,0.259657,2.100358,23.84,19.93,27.16,24.42,7.46,33.05,43.87,12.47,-5.96,-19.38,19.93,24.42,27.16,0,7.23,0.24
rw_cut_5_p1_opt_disp_struct_19.xyz,Nucleus 16H :,1.964988,0.370322,2.902746,23.9,19.26,27.97,24.46,13.2,31.79,47.0,-22.54,-3.84,6.09,19.26,24.46,27.97,0,8.71,0.19
rw_cut_5_p1_opt_disp_struct_19.xyz,Nucleus 17H :,0.181036,-0.436577,2.092912,24.18,20.49,25.08,26.96,44.75,28.28,31.88,-19.51,-7.73,-5.12,20.49,25.08,26.96,0,6.47,0.42
rw_cut_5_p1_opt_disp_struct_19.xyz,Nucleus 18H :,-0.332094,-0.364522,0.796939,28.92,35.7,26.66,24.39,43.33,25.16,28.84,-8.64,1.28,-3.22,24.39,26.66,35.7,0,11.31,-0.6
rw_cut_5_p1_opt_disp_struct_19.xyz,Nucleus 20H :,-1.575214,-0.975831,0.532739,28.5,34.36,24.39,26.76,-13.7,17.94,39.72,40.73,7.52,-6.69,24.39,26.76,34.36,0,9.97,-0.52
rw_cut_5_p1_opt_disp_struct_19.xyz,Nucleus 21H :,-2.01054,-0.928082,-0.460486,28.54,35.13,26.33,24.16,-14.82,16.69,41.19,42.01,8.0,-7.46,24.16,26.33,35.13,0,10.97,-0.6
rw_cut_5_p1_opt_disp_struct_19.xyz,Nucleus 23H :,-2.255591,-1.629413,1.56716,26.85,18.7,33.89,27.97,-4.48,51.71,27.18,23.73,-18.06,0.49,18.7,27.97,33.89,0,15.19,0.22
rw_cut_5_p1_opt_disp_struct_19.xyz,Nucleus 26H :,-3.21827,-2.085788,1.364524,26.61,35.58,20.24,24.0,85.63,30.35,44.75,-65.3,-10.19,-5.41,20.24,24.0,35.58,0,15.34,-0.51
rw_cut_5_p1_opt_disp_struct_19.xyz,Nucleus 28H :,-1.7188,-1.678678,2.85103,26.6,33.73,19.92,26.16,60.09,-0.94,25.25,-26.41,20.94,0.89,19.92,26.16,33.73,0,13.81,-0.1
rw_cut_5_p1_opt_disp_struct_19.xyz,Nucleus 29H :,-2.27419,-2.156438,3.652739,26.25,34.71,20.05,24.0,66.47,43.08,32.4,-46.33,-8.89,-7.97,20.05,24.0,34.71,0,14.66,-0.46
rw_cut_5_p1_opt_disp_struct_19.xyz,Nucleus 30H :,-0.48843,-1.081939,3.139926,28.14,34.91,23.56,25.96,-32.52,10.27,38.08,56.21,15.62,-3.23,23.56,25.96,34.91,0,11.35,-0.58
rw_cut_5_p1_opt_disp_struct_19.xyz,Nucleus 31H :,-0.0806,-1.102468,4.145334,26.98,34.66,20.78,25.51,53.13,26.59,38.53,-25.16,-11.48,-0.67,20.78,25.51,34.66,0,13.88,-0.32
rw_cut_5_p1_opt_disp_struct_19.xyz,Nucleus 0C :,2.537869,1.29502,0.634339,172.79,160.82,169.18,188.38,257.14,235.2,239.17,-77.07,-69.55,-66.49,160.82,169.18,188.38,0,27.56,-0.39
rw_cut_5_p1_opt_disp_struct_19.xyz,Nucleus 3C :,-0.374688,1.404825,-1.599393,62.44,148.92,52.03,-13.62,241.56,274.28,263.46,-92.72,-222.0,-277.24,-13.62,52.03,148.92,0,162.54,-0.19
rw_cut_5_p1_opt_disp_struct_19.xyz,Nucleus 4C :,3.523606,-10.824638,0.096428,55.26,-30.89,68.77,127.9,273.78,260.78,255.92,-294.93,-199.65,-130.11,-30.89,68.77,127.9,0,158.79,0.26
rw_cut_5_p1_opt_disp_struct_19.xyz,Nucleus 7C :,3.714015,-10.721483,1.16953,40.86,142.71,-39.64,19.5,271.94,266.45,264.05,-122.32,-311.11,-246.44,-39.64,19.5,142.71,0,182.35,-0.35
rw_cut_5_p1_opt_disp_struct_19.xyz,Nucleus 8C :,2.528422,-11.255874,-0.066614,49.38,170.84,1.22,-23.92,229.59,265.75,259.38,-58.82,-264.26,-283.49,-23.92,1.22,170.84,0,194.76,-0.74
rw_cut_5_p1_opt_disp_struct_19.xyz,Nucleus 9C :,3.679748,-9.538866,-0.578786,55.03,176.27,38.74,-49.93,246.91,271.3,263.18,-70.78,-230.73,-314.8,-49.93,38.74,176.27,0,226.2,-0.22
rw_cut_5_p1_opt_disp_struct_19.xyz,Nucleus 11C :,4.169864,-9.537388,-1.458305,55.87,176.16,-56.68,48.12,229.72,261.28,270.66,-53.69,-318.59,-221.78,-56.68,48.12,176.16,0,232.84,-0.1
rw_cut_5_p1_opt_disp_struct_19.xyz,Nucleus 13C :,3.033791,-8.410724,-0.24798,53.86,176.21,43.6,-58.24,222.58,273.49,255.58,-46.39,-229.88,-313.82,-58.24,43.6,176.21,0,234.45,-0.13
rw_cut_5_p1_opt_disp_struct_19.xyz,Nucleus 15C :,3.264744,-7.302163,-0.951742,65.77,171.25,52.06,-26.01,240.85,271.69,263.2,-70.01,-219.23,-289.2,-26.01,52.06,171.25,0,197.26,-0.21
rw_cut_5_p1_opt_disp_struct_19.xyz,Nucleus 19C :,2.759455,-6.440439,-0.766042,155.15,130.35,146.64,188.46,276.23,186.98,206.12,-40.23,-74.45,-89.19,130.35,146.64,188.46,0,58.11,-0.44
rw_cut_5_p1_opt_disp_struct_19.xyz,Nucleus 24C :,2.169202,-8.355896,0.765325,21.19,115.57,-16.95,-35.05,242.88,274.46,262.11,-127.32,-307.6,-280.96,-35.05,-16.95,115.57,0,150.62,-0.76
rw_cut_5_p1_opt_disp_struct_19.xyz,Nucleus 5N :,1.854134,-9.199978,1.21264,118.14,55.71,130.08,168.64,301.29,335.97,330.14,-133.03,-274.4,-205.53,55.71,130.08,168.64,0,112.93,0.32
rw_cut_5_p1_opt_disp_struct_19.xyz,Nucleus 22N :,1.738008,-7.476412,1.042232,167.04,99.15,181.2,220.78,268.57,351.24,329.89,-238.97,-85.56,-124.05,99.15,181.2,220.78,0,121.63,0.35
rw_cut_5_p1_opt_disp_struct_19.xyz,Nucleus 25N :,4.265713,-11.513587,-0.306967,174.65,114.01,176.31,233.62,321.46,351.83,337.59,-214.31,-169.3,-103.32,114.01,176.31,233.62,0,119.61,0.04
rw_cut_5_p1_opt_disp_struct_19.xyz,Nucleus 27N :,4.043367,-7.252475,-1.586681,173.95,114.42,212.64,194.8,301.84,344.3,324.25,-105.77,-131.68,-211.07,114.42,194.8,212.64,0,98.22,0.64
rw_cut_5_p1_opt_disp_struct_2.xyz,Nucleus 1H :,0.481257,0.741436,-1.432009,28.85,35.09,28.3,23.16,39.96,30.93,25.63,-4.97,-1.94,-3.07,23.16,28.3,35.09,0,11.93,-0.14
rw_cut_5_p1_opt_disp_struct_2.xyz,Nucleus 2H :,1.376091,1.259999,-1.782431,29.13,24.29,27.98,35.12,46.96,26.95,29.71,0.49,-4.73,-11.99,24.29,27.98,35.12,0,10.83,-0.32
rw_cut_5_p1_opt_disp_struct_2.xyz,Nucleus 6H :,0.331331,-0.137431,-2.070295,23.49,15.75,24.42,30.31,51.49,28.91,16.13,-21.4,-4.59,-0.05,15.75,24.42,30.31,0,14.56,0.19
rw_cut_5_p1_opt_disp_struct_2.xyz,Nucleus 10H :,0.60421,0.375351,0.005136,23.23,27.85,23.01,18.84,50.11,33.63,30.9,-27.17,-4.48,-13.29,18.84,23.01,27.85,0,9.01,-0.07
rw_cut_5_p1_opt_disp_struct_2.xyz,Nucleus 12H :,1.648612,0.717142,0.840465,23.6,19.94,24.24,26.61,48.85,16.93,29.68,-24.78,3.42,-3.31,19.94,24.24,26.61,0,6.67,0.29
rw_cut_5_p1_opt_disp_struct_2.xyz,Nucleus 14H :,1.368036,0.259657,2.100358,23.69,20.23,26.32,24.51,10.28,31.67,44.02,10.15,-5.43,-19.63,20.23,24.51,26.32,0,6.09,0.4
rw_cut_5_p1_opt_disp_struct_2.xyz,Nucleus 16H :,1.964988,0.370322,2.902746,23.59,19.19,27.21,24.38,48.0,30.56,14.18,-23.82,-3.5,5.37,19.19,24.38,27.21,0,8.02,0.3
rw_cut_5_p1_opt_disp_struct_2.xyz,Nucleus 17H :,0.181036,-0.436577,2.092912,23.87,20.08,25.01,26.53,45.06,27.71,32.42,-19.91,-7.41,-6.25,20.08,25.01,26.53,0,6.45,0.53
rw_cut_5_p1_opt_disp_struct_2.xyz,Nucleus 18H :,-0.332094,-0.364522,0.796939,28.81,35.92,26.41,24.1,43.57,25.51,28.95,0.99,-8.19,-4.4,24.1,26.41,35.92,0,11.82,-0.61
rw_cut_5_p1_opt_disp_struct_2.xyz,Nucleus 20H :,-1.575214,-0.975831,0.532739,28.76,34.59,24.36,27.34,0.59,19.22,39.08,25.71,6.8,-5.11,24.36,27.34,34.59,0,10.23,-0.42
rw_cut_5_p1_opt_disp_struct_2.xyz,Nucleus 21H :,-2.01054,-0.928082,-0.460486,28.77,35.43,26.68,24.19,40.04,18.12,0.89,25.75,6.93,-5.41,24.19,26.68,35.43,0,11.24,-0.56
rw_cut_5_p1_opt_disp_struct_2.xyz,Nucleus 23H :,-2.255591,-1.629413,1.56716,27.36,18.59,34.58,28.9,48.94,17.73,30.28,-14.45,2.22,-2.66,18.59,28.9,34.58,0,15.99,0.29
rw_cut_5_p1_opt_disp_struct_2.xyz,Nucleus 26H :,-3.21827,-2.085788,1.364524,28.17,43.29,18.25,22.98,23.1,54.92,52.41,-35.46,0.15,-10.59,18.25,22.98,43.29,0,25.04,-0.62
rw_cut_5_p1_opt_disp_struct_2.xyz,Nucleus 28H :,-1.7188,-1.678678,2.85103,27.24,19.89,27.53,34.3,53.34,1.79,24.9,-19.22,18.16,2.75,19.89,27.53,34.3,0,14.41,0.06
rw_cut_5_p1_opt_disp_struct_2.xyz,Nucleus 29H :,-2.27419,-2.156438,3.652739,27.46,41.64,18.09,22.64,25.72,36.16,46.12,-18.05,-1.6,-5.98,18.09,22.64,41.64,0,23.55,-0.61
rw_cut_5_p1_opt_disp_struct_2.xyz,Nucleus 30H :,-0.48843,-1.081939,3.139926,28.41,35.63,23.58,26.01,-9.47,15.83,38.72,33.17,10.09,-3.14,23.58,26.01,35.63,0,12.05,-0.6
rw_cut_5_p1_opt_disp_struct_2.xyz,Nucleus 31H :,-0.0806,-1.102468,4.145334,27.87,20.49,34.64,28.47,49.14,36.48,31.05,-21.27,-9.25,-2.54,20.49,28.47,34.64,0,14.15,0.13
rw_cut_5_p1_opt_disp_struct_2.xyz,Nucleus 0C :,2.537869,1.29502,0.634339,173.12,160.72,170.33,188.32,259.67,234.95,239.71,-79.89,-67.36,-67.73,160.72,170.33,188.32,0,27.6,-0.3
rw_cut_5_p1_opt_disp_struct_2.xyz,Nucleus 3C :,-0.374688,1.404825,-1.599393,62.14,149.05,50.38,-13.0,242.22,278.22,264.52,-93.6,-227.79,-277.15,-13.0,50.38,149.05,0,162.05,-0.22
rw_cut_5_p1_opt_disp_struct_2.xyz,Nucleus 4C :,1.536094,-7.200377,1.084875,51.33,-36.18,61.28,128.9,275.94,262.34,253.73,-299.58,-209.76,-128.67,-36.18,61.28,128.9,0,165.08,0.18
rw_cut_5_p1_opt_disp_struct_2.xyz,Nucleus 7C :,1.726503,-7.097222,2.157976,41.34,143.93,-37.62,17.7,274.55,263.07,268.0,-121.0,-311.6,-249.0,-37.62,17.7,143.93,0,181.55,-0.39
rw_cut_5_p1_opt_disp_struct_2.xyz,Nucleus 8C :,0.540909,-7.631613,0.921833,50.66,171.78,1.76,-21.57,230.28,269.84,258.39,-58.64,-265.05,-282.84,-21.57,1.76,171.78,0,193.35,-0.76
rw_cut_5_p1_opt_disp_struct_2.xyz,Nucleus 9C :,1.692236,-5.914604,0.40966,54.6,178.11,35.08,-49.38,247.78,276.04,264.26,-70.57,-237.34,-316.37,-49.38,35.08,178.11,0,227.49,-0.26
rw_cut_5_p1_opt_disp_struct_2.xyz,Nucleus 11C :,2.182352,-5.913127,-0.469859,55.07,178.54,-57.2,43.87,230.15,262.66,271.77,-52.7,-319.92,-226.76,-57.2,43.87,178.54,0,235.74,-0.14
rw_cut_5_p1_opt_disp_struct_2.xyz,Nucleus 13C :,1.046279,-4.786462,0.740466,56.19,178.54,44.25,-54.22,223.22,275.3,256.03,-46.37,-231.0,-308.6,-54.22,44.25,178.54,0,232.76,-0.15
rw_cut_5_p1_opt_disp_struct_2.xyz,Nucleus 15C :,1.277232,-3.677902,0.036705,64.32,173.32,46.98,-27.35,237.58,272.92,265.18,-67.18,-225.43,-290.12,-27.35,46.98,173.32,0,200.67,-0.26
rw_cut_5_p1_opt_disp_struct_2.xyz,Nucleus 19C :,0.771943,-2.816178,0.222404,155.49,130.99,146.61,188.86,266.34,202.93,213.99,-56.01,-86.1,-74.7,130.99,146.61,188.86,0,57.87,-0.46
rw_cut_5_p1_opt_disp_struct_2.xyz,Nucleus 24C :,0.181689,-4.731634,1.753771,21.84,115.64,-17.57,-32.54,237.61,267.33,265.77,-121.97,-284.13,-299.08,-32.54,-17.57,115.64,0,148.18,-0.8
rw_cut_5_p1_opt_disp_struct_2.xyz,Nucleus 5N :,-0.133378,-5.575717,2.201087,113.65,48.01,122.67,170.28,300.2,336.99,332.36,-131.2,-284.23,-213.17,48.01,122.67,170.28,0,122.27,0.22
rw_cut_5_p1_opt_disp_struct_2.xyz,Nucleus 22N :,-0.249504,-3.852151,2.030679,170.9,105.4,179.97,227.32,295.64,345.67,330.84,-227.33,-110.63,-121.52,105.4,179.97,227.32,0,121.92,0.22
rw_cut_5_p1_opt_disp_struct_2.xyz,Nucleus 25N :,2.278201,-7.889326,0.68148,173.84,114.7,176.83,230.0,320.3,333.17,337.66,-211.47,-151.16,-106.97,114.7,176.83,230.0,0,115.3,0.08
rw_cut_5_p1_opt_disp_struct_2.xyz,Nucleus 27N :,2.055855,-3.628214,-0.598235,172.06,114.66,206.47,195.04,290.19,337.48,325.15,-93.76,-130.38,-212.52,114.66,195.04,206.47,0,91.81,0.75
rw_cut_5_p1_opt_disp_struct_3.xyz,Nucleus 1H :,0.481257,0.741436,-1.432009,28.87,35.05,28.36,23.19,39.92,30.97,25.76,-4.98,-2.04,-3.04,23.19,28.36,35.05,0,11.86,-0.13
rw_cut_5_p1_opt_disp_struct_3.xyz,Nucleus 2H :,1.376091,1.259999,-1.782431,29.13,24.33,27.9,35.15,46.86,26.94,29.7,0.5,-4.79,-11.83,24.33,27.9,35.15,0,10.82,-0.34
rw_cut_5_p1_opt_disp_struct_3.xyz,Nucleus 6H :,0.331331,-0.137431,-2.070295,23.54,15.81,24.48,30.34,51.48,29.01,16.23,-21.38,-4.6,-0.11,15.81,24.48,30.34,0,14.53,0.19
rw_cut_5_p1_opt_disp_struct_3.xyz,Nucleus 10H :,0.60421,0.375351,0.005136,23.26,27.96,22.94,18.88,50.01,33.87,30.56,-27.1,-13.28,-4.3,18.88,22.94,27.96,0,9.08,-0.11
rw_cut_5_p1_opt_disp_struct_3.xyz,Nucleus 12H :,1.648612,0.717142,0.840465,23.63,19.98,24.2,26.71,48.86,16.84,29.88,-24.8,3.54,-3.44,19.98,24.2,26.71,0,6.73,0.25
rw_cut_5_p1_opt_disp_struct_3.xyz,Nucleus 14H :,1.368036,0.259657,2.100358,23.7,20.22,26.45,24.43,9.84,31.89,44.08,10.52,-5.52,-19.72,20.22,24.43,26.45,0,6.23,0.35
rw_cut_5_p1_opt_disp_struct_3.xyz,Nucleus 16H :,1.964988,0.370322,2.902746,23.64,19.25,27.32,24.34,48.04,30.71,14.15,-23.86,-3.53,5.41,19.25,24.34,27.32,0,8.07,0.26
rw_cut_5_p1_opt_disp_struct_3.xyz,Nucleus 17H :,0.181036,-0.436577,2.092912,23.92,20.14,25.02,26.59,45.12,27.86,32.48,-19.99,-7.49,-6.23,20.14,25.02,26.59,0,6.45,0.51
rw_cut_5_p1_opt_disp_struct_3.xyz,Nucleus 18H :,-0.332094,-0.364522,0.796939,28.81,35.87,26.43,24.13,43.56,25.54,28.91,0.96,-8.22,-4.31,24.13,26.43,35.87,0,11.74,-0.61
rw_cut_5_p1_opt_disp_struct_3.xyz,Nucleus 20H :,-1.575214,-0.975831,0.532739,28.73,34.55,24.36,27.27,-0.34,19.1,39.08,26.69,6.84,-5.19,24.36,27.27,34.55,0,10.19,-0.43
rw_cut_5_p1_opt_disp_struct_3.xyz,Nucleus 21H :,-2.01054,-0.928082,-0.460486,28.73,35.38,26.64,24.18,40.06,18.0,-0.12,26.8,6.99,-5.52,24.18,26.64,35.38,0,11.2,-0.56
rw_cut_5_p1_opt_disp_struct_3.xyz,Nucleus 23H :,-2.255591,-1.629413,1.56716,27.28,18.61,34.46,28.77,49.06,16.37,30.01,-14.69,3.39,-2.29,18.61,28.77,34.46,0,15.85,0.28
rw_cut_5_p1_opt_disp_struct_3.xyz,Nucleus 26H :,-3.21827,-2.085788,1.364524,28.02,42.03,18.72,23.31,24.3,56.55,52.11,-37.53,-0.89,-10.48,18.72,23.31,42.03,0,23.31,-0.61
rw_cut_5_p1_opt_disp_struct_3.xyz,Nucleus 28H :,-1.7188,-1.678678,2.85103,27.16,19.85,27.38,34.24,53.66,1.48,24.91,-19.56,18.44,2.54,19.85,27.38,34.24,0,14.39,0.05
rw_cut_5_p1_opt_disp_struct_3.xyz,Nucleus 29H :,-2.27419,-2.156438,3.652739,27.35,40.33,18.58,23.14,26.96,38.37,45.4,-19.78,-2.49,-6.41,18.58,23.14,40.33,0,21.75,-0.58
rw_cut_5_p1_opt_disp_struct_3.xyz,Nucleus 30H :,-0.48843,-1.081939,3.139926,28.37,35.54,23.57,25.99,-10.92,15.46,38.65,34.62,10.45,-3.15,23.57,25.99,35.54,0,11.97,-0.6
rw_cut_5_p1_opt_disp_struct_3.xyz,Nucleus 31H :,-0.0806,-1.102468,4.145334,27.75,20.53,34.65,28.07,49.38,36.72,30.55,-21.51,-9.49,-2.4,20.53,28.07,34.65,0,14.12,0.07
rw_cut_5_p1_opt_disp_struct_3.xyz,Nucleus 0C :,2.537869,1.29502,0.634339,173.06,160.72,170.19,188.26,259.42,234.97,239.54,-79.6,-67.51,-67.65,160.72,170.19,188.26,0,27.54,-0.31
rw_cut_5_p1_opt_disp_struct_3.xyz,Nucleus 3C :,-0.374688,1.404825,-1.599393,62.2,149.07,50.65,-13.12,242.11,277.81,264.46,-93.36,-227.14,-277.28,-13.12,50.65,149.07,0,162.19,-0.21
rw_cut_5_p1_opt_disp_struct_3.xyz,Nucleus 4C :,1.653007,-7.413568,1.026731,51.98,-35.26,62.44,128.77,275.79,262.98,253.25,-298.8,-208.5,-128.76,-35.26,62.44,128.77,0,164.03,0.19
rw_cut_5_p1_opt_disp_struct_3.xyz,Nucleus 7C :,1.843416,-7.310414,2.099833,41.34,143.77,-37.91,18.15,274.42,263.07,267.71,-120.85,-311.77,-248.56,-37.91,18.15,143.77,0,181.68,-0.38
rw_cut_5_p1_opt_disp_struct_3.xyz,Nucleus 8C :,0.657822,-7.844805,0.863689,50.35,171.65,1.58,-22.18,230.66,270.11,259.15,-59.22,-265.88,-283.78,-22.18,1.58,171.65,0,193.83,-0.75
rw_cut_5_p1_opt_disp_struct_3.xyz,Nucleus 9C :,1.809149,-6.127796,0.351516,54.86,177.87,36.06,-49.36,246.57,276.04,263.95,-69.83,-236.08,-316.08,-49.36,36.06,177.87,0,227.23,-0.25
rw_cut_5_p1_opt_disp_struct_3.xyz,Nucleus 11C :,2.299264,-6.126319,-0.528003,55.4,178.21,-57.02,45.0,229.95,262.61,271.77,-52.7,-319.89,-225.55,-57.02,45.0,178.21,0,235.23,-0.13
rw_cut_5_p1_opt_disp_struct_3.xyz,Nucleus 13C :,1.163191,-4.999654,0.682322,55.76,178.17,44.26,-55.15,223.52,275.43,256.12,-46.83,-231.11,-309.85,-55.15,44.26,178.17,0,233.32,-0.15
rw_cut_5_p1_opt_disp_struct_3.xyz,Nucleus 15C :,1.394145,-3.891094,-0.021439,64.79,173.03,48.32,-26.99,237.74,273.03,265.16,-67.47,-224.04,-290.06,-26.99,48.32,173.03,0,200.02,-0.25
rw_cut_5_p1_opt_disp_struct_3.xyz,Nucleus 19C :,0.888855,-3.029369,0.16426,155.43,130.88,146.6,188.82,266.97,201.89,213.48,-54.99,-85.98,-75.05,130.88,146.6,188.82,0,57.94,-0.46
rw_cut_5_p1_opt_disp_struct_3.xyz,Nucleus 24C :,0.298602,-4.944826,1.695627,21.73,115.43,-17.19,-33.06,237.96,267.82,265.39,-122.54,-283.44,-300.02,-33.06,-17.19,115.43,0,148.49,-0.79
rw_cut_5_p1_opt_disp_struct_3.xyz,Nucleus 5N :,-0.016466,-5.788909,2.142943,114.48,49.42,123.95,170.07,300.23,337.0,332.36,-131.46,-282.76,-211.93,49.42,123.95,170.07,0,120.65,0.24
rw_cut_5_p1_opt_disp_struct_3.xyz,Nucleus 22N :,-0.132591,-4.065343,1.972535,170.17,104.15,180.17,226.2,293.79,345.81,330.75,-228.79,-109.57,-121.47,104.15,180.17,226.2,0,122.05,0.25
rw_cut_5_p1_opt_disp_struct_3.xyz,Nucleus 25N :,2.395114,-8.102518,0.623336,174.44,114.77,176.95,231.6,321.09,334.45,337.71,-211.63,-152.87,-105.43,114.77,176.95,231.6,0,116.83,0.06
rw_cut_5_p1_opt_disp_struct_3.xyz,Nucleus 27N :,2.172768,-3.841405,-0.656379,173.1,115.04,208.75,195.5,291.16,338.03,325.02,-94.24,-128.94,-211.72,115.04,195.5,208.75,0,93.71,0.72
rw_cut_5_p1_opt_disp_struct_4.xyz,Nucleus 1H :,0.481257,0.741436,-1.432009,28.88,35.02,28.41,23.21,39.88,30.98,25.87,-4.98,-2.11,-3.0,23.21,28.41,35.02,0,11.81,-0.12
rw_cut_5_p1_opt_disp_struct_4.xyz,Nucleus 2H :,1.376091,1.259999,-1.782431,29.12,24.35,27.83,35.19,46.74,26.91,29.71,0.52,-4.85,-11.66,24.35,27.83,35.19,0,10.84,-0.36
rw_cut_5_p1_opt_disp_struct_4.xyz,Nucleus 6H :,0.331331,-0.137431,-2.070295,23.59,15.86,24.52,30.39,51.44,29.09,16.31,-21.3,-4.61,-0.16,15.86,24.52,30.39,0,14.53,0.19
rw_cut_5_p1_opt_disp_struct_4.xyz,Nucleus 10H :,0.60421,0.375351,0.005136,23.29,28.07,22.88,18.91,49.88,34.0,30.37,-27.0,-13.26,-4.13,18.91,22.88,28.07,0,9.16,-0.13
rw_cut_5_p1_opt_disp_struct_4.xyz,Nucleus 12H :,1.648612,0.717142,0.840465,23.66,20.0,24.16,26.81,48.84,16.71,30.05,-24.79,3.65,-3.49,20.0,24.16,26.81,0,6.81,0.22
rw_cut_5_p1_opt_disp_struct_4.xyz,Nucleus 14H :,1.368036,0.259657,2.100358,23.71,20.2,26.57,24.36,9.36,32.12,44.11,10.95,-5.62,-19.78,20.2,24.36,26.57,0,6.37,0.31
rw_cut_5_p1_opt_disp_struct_4.xyz,Nucleus 16H :,1.964988,0.370322,2.902746,23.67,19.28,27.42,24.32,48.05,30.85,14.05,-23.86,-3.55,5.48,19.28,24.32,27.42,0,8.14,0.24
rw_cut_5_p1_opt_disp_struct_4.xyz,Nucleus 17H :,0.181036,-0.436577,2.092912,23.95,20.2,25.03,26.63,45.15,28.0,32.51,-20.03,-7.57,-6.2,20.2,25.03,26.63,0,6.43,0.5
rw_cut_5_p1_opt_disp_struct_4.xyz,Nucleus 18H :,-0.332094,-0.364522,0.796939,28.81,35.84,26.44,24.16,43.55,25.54,28.89,0.95,-8.27,-4.21,24.16,26.44,35.84,0,11.68,-0.61
rw_cut_5_p1_opt_disp_struct_4.xyz,Nucleus 20H :,-1.575214,-0.975831,0.532739,28.7,34.52,24.36,27.22,-1.24,18.99,39.08,27.65,6.89,-5.27,24.36,27.22,34.52,0,10.16,-0.44
rw_cut_5_p1_opt_disp_struct_4.xyz,Nucleus 21H :,-2.01054,-0.928082,-0.460486,28.71,35.35,26.6,24.18,40.09,17.89,-1.1,27.83,7.05,-5.64,24.18,26.6,35.35,0,11.17,-0.57
rw_cut_5_p1_opt_disp_struct_4.xyz,Nucleus 23H :,-2.255591,-1.629413,1.56716,27.22,18.63,34.36,28.67,49.2,15.03,29.77,-14.93,4.61,-2.0,18.63,28.67,34.36,0,15.73,0.28
rw_cut_5_p1_opt_disp_struct_4.xyz,Nucleus 26H :,-3.21827,-2.085788,1.364524,27.82,40.97,19.02,23.48,25.17,58.74,51.2,-39.58,-1.66,-10.4,19.02,23.48,40.97,0,21.95,-0.59
rw_cut_5_p1_opt_disp_struct_4.xyz,Nucleus 28H :,-1.7188,-1.678678,2.85103,27.09,19.84,27.24,34.18,54.03,1.16,24.94,-19.98,18.76,2.35,19.84,27.24,34.18,0,14.34,0.03
rw_cut_5_p1_opt_disp_struct_4.xyz,Nucleus 29H :,-2.27419,-2.156438,3.652739,27.2,39.29,18.88,23.43,27.82,40.43,44.9,-21.58,-3.23,-6.74,18.88,23.43,39.29,0,20.41,-0.55
rw_cut_5_p1_opt_disp_struct_4.xyz,Nucleus 30H :,-0.48843,-1.081939,3.139926,28.33,35.47,23.55,25.97,-12.36,15.09,38.58,36.04,10.8,-3.16,23.55,25.97,35.47,0,11.92,-0.59
rw_cut_5_p1_opt_disp_struct_4.xyz,Nucleus 31H :,-0.0806,-1.102468,4.145334,27.64,20.57,34.65,27.71,49.64,36.96,30.12,-21.77,-9.74,-2.28,20.57,27.71,34.65,0,14.08,0.01
rw_cut_5_p1_opt_disp_struct_4.xyz,Nucleus 0C :,2.537869,1.29502,0.634339,173.0,160.72,170.06,188.22,259.2,235.06,239.4,-79.36,-67.73,-67.58,160.72,170.06,188.22,0,27.5,-0.32
rw_cut_5_p1_opt_disp_struct_4.xyz,Nucleus 3C :,-0.374688,1.404825,-1.599393,62.22,149.06,50.85,-13.26,242.16,277.48,264.39,-93.32,-226.63,-277.43,-13.26,50.85,149.06,0,162.32,-0.21
rw_cut_5_p1_opt_disp_struct_4.xyz,Nucleus 4C :,1.769919,-7.62676,0.968587,52.55,-34.48,63.44,128.7,252.97,263.42,275.64,-298.13,-207.4,-128.84,-34.48,63.44,128.7,0,163.18,0.2
rw_cut_5_p1_opt_disp_struct_4.xyz,Nucleus 7C :,1.960328,-7.523606,2.041689,41.3,143.65,-38.2,18.45,274.26,263.09,267.68,-120.88,-311.94,-248.3,-38.2,18.45,143.65,0,181.85,-0.38
rw_cut_5_p1_opt_disp_struct_4.xyz,Nucleus 8C :,0.774734,-8.057996,0.805545,50.05,171.48,1.36,-22.69,230.81,270.15,259.63,-59.62,-266.46,-284.36,-22.69,1.36,171.48,0,194.17,-0.75
rw_cut_5_p1_opt_disp_struct_4.xyz,Nucleus 9C :,1.926061,-6.340988,0.293372,54.98,177.65,36.71,-49.42,245.88,275.87,263.78,-69.49,-235.17,-315.94,-49.42,36.71,177.65,0,227.07,-0.24
rw_cut_5_p1_opt_disp_struct_4.xyz,Nucleus 11C :,2.416177,-6.339511,-0.586146,55.59,177.92,-56.93,45.77,229.89,262.6,271.77,-52.83,-319.93,-224.75,-56.93,45.77,177.92,0,234.85,-0.13
rw_cut_5_p1_opt_disp_struct_4.xyz,Nucleus 13C :,1.280104,-5.212846,0.624179,55.36,177.85,44.15,-55.93,223.85,275.45,255.88,-46.97,-231.23,-310.9,-55.93,44.15,177.85,0,233.78,-0.14
rw_cut_5_p1_opt_disp_struct_4.xyz,Nucleus 15C :,1.511057,-4.104286,-0.079583,65.1,172.8,49.25,-26.76,237.95,273.03,265.15,-67.72,-223.03,-290.09,-26.76,49.25,172.8,0,199.56,-0.24
rw_cut_5_p1_opt_disp_struct_4.xyz,Nucleus 19C :,1.005768,-3.242561,0.106116,155.4,130.8,146.61,188.78,267.59,200.84,212.96,-53.96,-85.87,-75.36,130.8,146.61,188.78,0,57.98,-0.45
rw_cut_5_p1_opt_disp_struct_4.xyz,Nucleus 24C :,0.415514,-5.158018,1.637484,21.64,115.32,-16.98,-33.43,238.38,268.33,265.0,-123.06,-282.92,-300.83,-33.43,-16.98,115.32,0,148.75,-0.78
rw_cut_5_p1_opt_disp_struct_4.xyz,Nucleus 5N :,0.100447,-6.002101,2.084799,115.21,50.66,125.05,169.93,300.33,336.96,332.32,-131.7,-281.46,-210.82,50.66,125.05,169.93,0,119.27,0.25
rw_cut_5_p1_opt_disp_struct_4.xyz,Nucleus 22N :,-0.015679,-4.278535,1.914391,169.59,103.18,180.33,225.26,291.97,346.0,330.69,-230.0,-108.23,-121.66,103.18,180.33,225.26,0,122.08,0.26
rw_cut_5_p1_opt_disp_struct_4.xyz,Nucleus 25N :,2.512026,-8.31571,0.565192,174.73,114.77,176.96,232.47,321.63,335.63,338.07,-211.87,-154.59,-104.67,114.77,176.96,232.47,0,117.7,0.06
rw_cut_5_p1_opt_disp_struct_4.xyz,Nucleus 27N :,2.28968,-4.054597,-0.714523,173.67,115.23,210.11,195.66,292.1,338.69,324.94,-95.0,-128.38,-211.35,115.23,195.66,210.11,0,94.88,0.7
rw_cut_5_p1_opt_disp_struct_5.xyz,Nucleus 1H :,0.481257,0.741436,-1.432009,28.89,34.99,28.46,23.23,39.85,30.96,25.95,-4.98,-2.14,-2.96,23.23,28.46,34.99,0,11.76,-0.11
rw_cut_5_p1_opt_disp_struct_5.xyz,Nucleus 2H :,1.376091,1.259999,-1.782431,29.12,24.37,27.77,35.22,46.6,26.88,29.73,0.55,-4.9,-11.49,24.37,27.77,35.22,0,10.85,-0.37
rw_cut_5_p1_opt_disp_struct_5.xyz,Nucleus 6H :,0.331331,-0.137431,-2.070295,23.63,15.9,24.56,30.42,51.36,29.17,16.38,-21.19,-4.63,-0.21,15.9,24.56,30.42,0,14.52,0.19
rw_cut_5_p1_opt_disp_struct_5.xyz,Nucleus 10H :,0.60421,0.375351,0.005136,23.31,28.16,22.86,18.92,49.75,34.02,30.31,-26.87,-13.25,-4.01,18.92,22.86,28.16,0,9.24,-0.15
rw_cut_5_p1_opt_disp_struct_5.xyz,Nucleus 12H :,1.648612,0.717142,0.840465,23.69,20.02,24.14,26.9,48.8,16.58,30.19,-24.74,3.75,-3.52,20.02,24.14,26.9,0,6.88,0.2
rw_cut_5_p1_opt_disp_struct_5.xyz,Nucleus 14H :,1.368036,0.259657,2.100358,23.73,20.18,26.68,24.32,8.95,32.37,44.13,11.3,-5.77,-19.8,20.18,24.32,26.68,0,6.5,0.27
rw_cut_5_p1_opt_disp_struct_5.xyz,Nucleus 16H :,1.964988,0.370322,2.902746,23.71,19.3,27.51,24.31,48.02,31.01,13.93,-23.82,-3.6,5.57,19.3,24.31,27.51,0,8.21,0.22
rw_cut_5_p1_opt_disp_struct_5.xyz,Nucleus 17H :,0.181036,-0.436577,2.092912,23.99,20.25,25.03,26.68,45.16,28.11,32.52,-20.05,-7.63,-6.15,20.25,25.03,26.68,0,6.43,0.49
rw_cut_5_p1_opt_disp_struct_5.xyz,Nucleus 18H :,-0.332094,-0.364522,0.796939,28.82,35.81,26.46,24.19,43.54,25.52,28.87,0.96,-8.31,-4.12,24.19,26.46,35.81,0,11.62,-0.61
rw_cut_5_p1_opt_disp_struct_5.xyz,Nucleus 20H :,-1.575214,-0.975831,0.532739,28.67,34.49,24.36,27.16,-2.11,18.9,39.09,28.58,6.93,-5.36,24.36,27.16,34.49,0,10.13,-0.45
rw_cut_5_p1_opt_disp_struct_5.xyz,Nucleus 21H :,-2.01054,-0.928082,-0.460486,28.69,35.32,26.57,24.18,-2.05,17.8,40.14,28.83,7.12,-5.76,24.18,26.57,35.32,0,11.14,-0.57
rw_cut_5_p1_opt_disp_struct_5.xyz,Nucleus 23H :,-2.255591,-1.629413,1.56716,27.17,18.64,34.29,28.58,49.34,13.7,29.55,-15.17,5.85,-1.76,18.64,28.58,34.29,0,15.65,0.27
rw_cut_5_p1_opt_disp_struct_5.xyz,Nucleus 26H :,-3.21827,-2.085788,1.364524,27.63,40.09,19.23,23.58,25.81,60.88,50.32,-41.54,-2.23,-10.34,19.23,23.58,40.09,0,20.86,-0.58
rw_cut_5_p1_opt_disp_struct_5.xyz,Nucleus 28H :,-1.7188,-1.678678,2.85103,27.01,19.83,27.11,34.1,54.42,0.87,24.98,-20.42,19.04,2.16,19.83,27.11,34.1,0,14.27,0.02
rw_cut_5_p1_opt_disp_struct_5.xyz,Nucleus 29H :,-2.27419,-2.156438,3.652739,27.05,38.46,19.09,23.6,28.46,42.36,44.6,-23.41,-3.88,-6.99,19.09,23.6,38.46,0,19.37,-0.53
rw_cut_5_p1_opt_disp_struct_5.xyz,Nucleus 30H :,-0.48843,-1.081939,3.139926,28.31,35.4,23.55,25.97,-13.78,14.74,38.52,37.45,11.15,-3.17,23.55,25.97,35.4,0,11.85,-0.59
rw_cut_5_p1_opt_disp_struct_5.xyz,Nucleus 31H :,-0.0806,-1.102468,4.145334,27.55,20.6,34.64,27.4,49.9,37.16,29.72,-22.01,-9.97,-2.15,20.6,27.4,34.64,0,14.04,-0.03
rw_cut_5_p1_opt_disp_struct_5.xyz,Nucleus 0C :,2.537869,1.29502,0.634339,172.95,160.72,169.94,188.2,258.99,235.15,239.29,-79.14,-67.95,-67.47,160.72,169.94,188.2,0,27.48,-0.33
rw_cut_5_p1_opt_disp_struct_5.xyz,Nucleus 3C :,-0.374688,1.404825,-1.599393,62.22,149.06,50.98,-13.37,242.19,277.18,264.31,-93.31,-226.19,-277.52,-13.37,50.98,149.06,0,162.43,-0.21
rw_cut_5_p1_opt_disp_struct_5.xyz,Nucleus 4C :,1.886832,-7.839952,0.910443,53.01,-33.86,64.29,128.61,252.88,263.65,275.49,-297.6,-206.42,-128.96,-33.86,64.29,128.61,0,162.47,0.21
rw_cut_5_p1_opt_disp_struct_5.xyz,Nucleus 7C :,2.077241,-7.736798,1.983545,41.25,143.52,-38.46,18.69,274.06,263.06,267.8,-121.02,-312.06,-248.1,-38.46,18.69,143.52,0,181.98,-0.37
rw_cut_5_p1_opt_disp_struct_5.xyz,Nucleus 8C :,0.891647,-8.271188,0.747401,49.85,171.37,1.23,-23.06,230.74,269.96,259.86,-59.72,-266.71,-284.59,-23.06,1.23,171.37,0,194.43,-0.75
rw_cut_5_p1_opt_disp_struct_5.xyz,Nucleus 9C :,2.042974,-6.55418,0.235229,55.04,177.45,37.17,-49.49,245.63,275.55,263.73,-69.45,-234.47,-315.86,-49.49,37.17,177.45,0,226.94,-0.24
rw_cut_5_p1_opt_disp_struct_5.xyz,Nucleus 11C :,2.533089,-6.552702,-0.64429,55.7,177.66,-56.88,46.31,229.82,262.57,271.77,-52.94,-319.93,-224.21,-56.88,46.31,177.66,0,234.54,-0.12
rw_cut_5_p1_opt_disp_struct_5.xyz,Nucleus 13C :,1.397016,-5.426038,0.566035,55.02,177.59,44.01,-56.53,224.03,275.42,255.67,-46.99,-231.34,-311.71,-56.53,44.01,177.59,0,234.12,-0.14
rw_cut_5_p1_opt_disp_struct_5.xyz,Nucleus 15C :,1.62797,-4.317478,-0.137727,65.29,172.58,49.9,-26.6,238.15,272.98,265.11,-67.95,-222.32,-290.09,-26.6,49.9,172.58,0,199.18,-0.23
rw_cut_5_p1_opt_disp_struct_5.xyz,Nucleus 19C :,1.12268,-3.455753,0.047972,155.37,130.74,146.62,188.75,268.21,199.8,212.45,-52.94,-85.79,-75.63,130.74,146.62,188.75,0,58.01,-0.45
rw_cut_5_p1_opt_disp_struct_5.xyz,Nucleus 24C :,0.532427,-5.37121,1.57934,21.57,115.29,-16.85,-33.74,238.82,268.86,264.63,-123.53,-282.5,-301.58,-33.74,-16.85,115.29,0,149.03,-0.77
rw_cut_5_p1_opt_disp_struct_5.xyz,Nucleus 5N :,0.217359,-6.215292,2.026655,115.76,51.59,125.92,169.76,300.51,336.89,332.23,-131.99,-280.44,-209.92,51.59,125.92,169.76,0,118.17,0.26
rw_cut_5_p1_opt_disp_struct_5.xyz,Nucleus 22N :,0.101234,-4.491726,1.856247,169.14,102.45,180.47,224.51,290.2,346.24,330.64,-230.99,-106.72,-121.92,102.45,180.47,224.51,0,122.06,0.28
rw_cut_5_p1_opt_disp_struct_5.xyz,Nucleus 25N :,2.628939,-8.528902,0.507048,174.82,114.69,176.87,232.9,321.95,336.4,338.73,-212.16,-156.17,-104.3,114.69,176.87,232.9,0,118.21,0.05
rw_cut_5_p1_opt_disp_struct_5.xyz,Nucleus 27N :,2.406593,-4.267789,-0.772667,173.92,115.25,210.89,195.63,292.92,339.31,324.88,-95.84,-128.3,-211.21,115.25,195.63,210.89,0,95.64,0.68
rw_cut_5_p1_opt_disp_struct_6.xyz,Nucleus 1H :,0.481257,0.741436,-1.432009,28.91,34.97,28.5,23.25,39.81,30.92,26.02,-4.96,-2.12,-2.93,23.25,28.5,34.97,0,11.72,-0.1
rw_cut_5_p1_opt_disp_struct_6.xyz,Nucleus 2H :,1.376091,1.259999,-1.782431,29.12,24.38,27.72,35.26,46.46,26.84,29.73,0.57,-4.92,-11.32,24.38,27.72,35.26,0,10.88,-0.39
rw_cut_5_p1_opt_disp_struct_6.xyz,Nucleus 6H :,0.331331,-0.137431,-2.070295,23.67,15.94,24.6,30.46,51.25,29.26,16.42,-21.04,-4.65,-0.24,15.94,24.6,30.46,0,14.52,0.19
rw_cut_5_p1_opt_disp_struct_6.xyz,Nucleus 10H :,0.60421,0.375351,0.005136,23.34,28.23,22.85,18.93,49.61,33.97,30.31,-26.74,-13.22,-3.92,18.93,22.85,28.23,0,9.3,-0.16
rw_cut_5_p1_opt_disp_struct_6.xyz,Nucleus 12H :,1.648612,0.717142,0.840465,23.71,20.03,24.14,26.97,48.73,16.46,30.31,-24.66,3.83,-3.55,20.03,24.14,26.97,0,6.94,0.19
rw_cut_5_p1_opt_disp_struct_6.xyz,Nucleus 14H :,1.368036,0.259657,2.100358,23.74,20.15,26.76,24.3,8.64,32.62,44.13,11.55,-5.93,-19.8,20.15,24.3,26.76,0,6.61,0.25
rw_cut_5_p1_opt_disp_struct_6.xyz,Nucleus 16H :,1.964988,0.370322,2.902746,23.73,19.31,27.58,24.31,47.97,31.17,13.82,-23.75,-3.67,5.65,19.31,24.31,27.58,0,8.27,0.21
rw_cut_5_p1_opt_disp_struct_6.xyz,Nucleus 17H :,0.181036,-0.436577,2.092912,24.02,20.29,25.04,26.72,45.15,28.19,32.5,-20.04,-7.68,-6.08,20.29,25.04,26.72,0,6.43,0.48
rw_cut_5_p1_opt_disp_struct_6.xyz,Nucleus 18H :,-0.332094,-0.364522,0.796939,28.83,35.79,26.48,24.21,43.52,25.49,28.86,0.98,-8.34,-4.03,24.21,26.48,35.79,0,11.58,-0.61
rw_cut_5_p1_opt_disp_struct_6.xyz,Nucleus 20H :,-1.575214,-0.975831,0.532739,28.65,34.47,24.36,27.12,-2.97,18.81,39.11,29.49,6.96,-5.45,24.36,27.12,34.47,0,10.11,-0.45
rw_cut_5_p1_opt_disp_struct_6.xyz,Nucleus 21H :,-2.01054,-0.928082,-0.460486,28.67,35.29,26.54,24.17,-3.0,17.7,40.18,29.82,7.17,-5.87,24.17,26.54,35.29,0,11.12,-0.57
rw_cut_5_p1_opt_disp_struct_6.xyz,Nucleus 23H :,-2.255591,-1.629413,1.56716,27.12,18.64,34.22,28.5,49.5,12.36,29.33,-15.41,7.12,-1.54,18.64,28.5,34.22,0,15.58,0.27
rw_cut_5_p1_opt_disp_struct_6.xyz,Nucleus 26H :,-3.21827,-2.085788,1.364524,27.46,39.35,19.4,23.64,26.35,62.93,49.52,-43.44,-2.7,-10.28,19.4,23.64,39.35,0,19.95,-0.57
rw_cut_5_p1_opt_disp_struct_6.xyz,Nucleus 28H :,-1.7188,-1.678678,2.85103,26.96,19.83,27.0,34.04,54.8,0.65,25.02,-20.85,19.26,1.99,19.83,27.0,34.04,0,14.21,0.01
rw_cut_5_p1_opt_disp_struct_6.xyz,Nucleus 29H :,-2.27419,-2.156438,3.652739,26.92,37.79,19.25,23.71,28.99,43.62,45.04,-25.27,-4.46,-7.18,19.25,23.71,37.79,0,18.54,-0.52
rw_cut_5_p1_opt_disp_struct_6.xyz,Nucleus 30H :,-0.48843,-1.081939,3.139926,28.28,35.34,23.55,25.96,-15.18,14.4,38.47,38.86,11.48,-3.18,23.55,25.96,35.34,0,11.79,-0.59
rw_cut_5_p1_opt_disp_struct_6.xyz,Nucleus 31H :,-0.0806,-1.102468,4.145334,27.46,20.62,34.63,27.13,50.14,37.31,29.36,-22.24,-10.16,-2.02,20.62,27.13,34.63,0,14.01,-0.07
rw_cut_5_p1_opt_disp_struct_6.xyz,Nucleus 0C :,2.537869,1.29502,0.634339,172.92,160.73,169.84,188.2,258.8,235.21,239.21,-78.95,-68.15,-67.36,160.73,169.84,188.2,0,27.47,-0.34
rw_cut_5_p1_opt_disp_struct_6.xyz,Nucleus 3C :,-0.374688,1.404825,-1.599393,62.23,149.05,51.1,-13.45,242.18,276.89,264.23,-93.27,-225.76,-277.56,-13.45,51.1,149.05,0,162.5,-0.21
rw_cut_5_p1_opt_disp_struct_6.xyz,Nucleus 4C :,2.003744,-8.053144,0.852299,53.39,-33.35,65.0,128.53,252.95,263.68,275.33,-297.16,-205.54,-129.08,-33.35,65.0,128.53,0,161.88,0.22
rw_cut_5_p1_opt_disp_struct_6.xyz,Nucleus 7C :,2.194153,-7.949989,1.925401,41.2,143.41,-38.68,18.86,273.82,263.0,267.97,-121.17,-312.12,-247.91,-38.68,18.86,143.41,0,182.09,-0.37
rw_cut_5_p1_opt_disp_struct_6.xyz,Nucleus 8C :,1.008559,-8.48438,0.689257,49.7,171.28,1.15,-23.33,230.59,269.61,259.93,-59.69,-266.72,-284.62,-23.33,1.15,171.28,0,194.61,-0.75
rw_cut_5_p1_opt_disp_struct_6.xyz,Nucleus 9C :,2.159886,-6.767372,0.177085,55.07,177.28,37.49,-49.57,245.61,275.13,263.72,-69.56,-233.9,-315.82,-49.57,37.49,177.28,0,226.85,-0.23
rw_cut_5_p1_opt_disp_struct_6.xyz,Nucleus 11C :,2.650002,-6.765894,-0.702434,55.76,177.44,-56.85,46.7,229.75,262.48,271.75,-53.0,-319.88,-223.82,-56.85,46.7,177.44,0,234.29,-0.12
rw_cut_5_p1_opt_disp_struct_6.xyz,Nucleus 13C :,1.513929,-5.63923,0.507891,54.76,177.38,43.88,-56.97,224.03,275.35,255.59,-46.97,-231.41,-312.31,-56.97,43.88,177.38,0,234.35,-0.14
rw_cut_5_p1_opt_disp_struct_6.xyz,Nucleus 15C :,1.744882,-4.53067,-0.195871,65.43,172.39,50.37,-26.48,238.4,272.89,265.02,-68.17,-221.81,-290.05,-26.48,50.37,172.39,0,198.87,-0.23
rw_cut_5_p1_opt_disp_struct_6.xyz,Nucleus 19C :,1.239593,-3.668945,-0.010171,155.34,130.68,146.62,188.72,268.81,198.78,211.95,-51.93,-85.75,-75.84,130.68,146.62,188.72,0,58.04,-0.45
rw_cut_5_p1_opt_disp_struct_6.xyz,Nucleus 24C :,0.649339,-5.584402,1.521196,21.51,115.3,-16.78,-33.98,239.25,269.37,264.3,-123.96,-282.19,-302.24,-33.98,-16.78,115.3,0,149.28,-0.77
rw_cut_5_p1_opt_disp_struct_6.xyz,Nucleus 5N :,0.334272,-6.428484,1.968511,116.2,52.34,126.64,169.62,300.72,336.78,332.1,-132.27,-279.55,-209.17,52.34,126.64,169.62,0,117.28,0.27
rw_cut_5_p1_opt_disp_struct_6.xyz,Nucleus 22N :,0.218146,-4.704918,1.798103,168.78,101.87,180.59,223.89,288.47,346.49,330.58,-231.85,-105.15,-122.19,101.87,180.59,223.89,0,122.02,0.29
rw_cut_5_p1_opt_disp_struct_6.xyz,Nucleus 25N :,2.745851,-8.742093,0.448904,174.84,114.6,176.78,233.13,322.1,339.59,336.72,-212.39,-157.47,-104.04,114.6,176.78,233.13,0,118.53,0.05
rw_cut_5_p1_opt_disp_struct_6.xyz,Nucleus 27N :,2.523505,-4.480981,-0.83081,174.04,115.21,211.36,195.54,293.66,339.8,324.83,-96.67,-128.38,-211.13,115.21,195.54,211.36,0,96.15,0.67
rw_cut_5_p1_opt_disp_struct_7.xyz,Nucleus 1H :,0.481257,0.741436,-1.432009,28.92,34.96,28.54,23.27,39.78,30.87,26.06,-4.94,-2.08,-2.92,23.27,28.54,34.96,0,11.69,-0.1
rw_cut_5_p1_opt_disp_struct_7.xyz,Nucleus 2H :,1.376091,1.259999,-1.782431,29.12,24.38,27.68,35.29,46.31,26.8,29.72,0.59,-4.92,-11.14,24.38,27.68,35.29,0,10.91,-0.4
rw_cut_5_p1_opt_disp_struct_7.xyz,Nucleus 6H :,0.331331,-0.137431,-2.070295,23.7,15.96,24.64,30.49,51.13,29.34,16.45,-20.88,-4.69,-0.26,15.96,24.64,30.49,0,14.53,0.19
rw_cut_5_p1_opt_disp_struct_7.xyz,Nucleus 10H :,0.60421,0.375351,0.005136,23.36,28.3,22.85,18.93,49.47,33.87,30.36,-26.59,-3.84,-13.19,18.93,22.85,28.3,0,9.37,-0.16
rw_cut_5_p1_opt_disp_struct_7.xyz,Nucleus 12H :,1.648612,0.717142,0.840465,23.74,20.03,24.15,27.03,48.65,16.35,30.41,-24.55,3.91,-3.56,20.03,24.15,27.03,0,7.0,0.18
rw_cut_5_p1_opt_disp_struct_7.xyz,Nucleus 14H :,1.368036,0.259657,2.100358,23.75,20.13,26.83,24.3,8.41,32.83,44.13,11.75,-6.07,-19.78,20.13,24.3,26.83,0,6.7,0.25
rw_cut_5_p1_opt_disp_struct_7.xyz,Nucleus 16H :,1.964988,0.370322,2.902746,23.76,19.32,27.65,24.32,13.73,31.32,47.91,-23.66,-3.74,5.72,19.32,24.32,27.65,0,8.33,0.2
rw_cut_5_p1_opt_disp_struct_7.xyz,Nucleus 17H :,0.181036,-0.436577,2.092912,24.04,20.33,25.04,26.75,45.13,28.25,32.47,-20.01,-7.72,-6.0,20.33,25.04,26.75,0,6.42,0.47
rw_cut_5_p1_opt_disp_struct_7.xyz,Nucleus 18H :,-0.332094,-0.364522,0.796939,28.84,35.77,26.5,24.24,43.49,25.45,28.87,1.01,-8.37,-3.95,24.24,26.5,35.77,0,11.53,-0.61
rw_cut_5_p1_opt_disp_struct_7.xyz,Nucleus 20H :,-1.575214,-0.975831,0.532739,28.63,34.45,24.37,27.07,-3.82,18.74,39.13,30.39,6.99,-5.53,24.37,27.07,34.45,0,10.08,-0.46
rw_cut_5_p1_opt_disp_struct_7.xyz,Nucleus 21H :,-2.01054,-0.928082,-0.460486,28.65,35.26,26.52,24.17,-3.94,17.62,40.23,30.8,7.23,-5.98,24.17,26.52,35.26,0,11.09,-0.58
rw_cut_5_p1_opt_disp_struct_7.xyz,Nucleus 23H :,-2.255591,-1.629413,1.56716,27.08,18.65,34.17,28.43,49.67,11.03,29.12,-15.64,8.4,-1.34,18.65,28.43,34.17,0,15.52,0.26
rw_cut_5_p1_opt_disp_struct_7.xyz,Nucleus 26H :,-3.21827,-2.085788,1.364524,27.32,38.72,19.53,23.7,26.83,64.89,48.82,-45.27,-3.1,-10.22,19.53,23.7,38.72,0,19.19,-0.57
rw_cut_5_p1_opt_disp_struct_7.xyz,Nucleus 28H :,-1.7188,-1.678678,2.85103,26.9,19.83,26.89,33.98,55.18,0.51,25.07,-21.28,19.4,1.83,19.83,26.89,33.98,0,14.15,-0.0
rw_cut_5_p1_opt_disp_struct_7.xyz,Nucleus 29H :,-2.27419,-2.156438,3.652739,26.8,37.24,19.38,23.79,29.44,43.68,46.69,-27.08,-4.99,-7.33,19.38,23.79,37.24,0,17.86,-0.51
rw_cut_5_p1_opt_disp_struct_7.xyz,Nucleus 30H :,-0.48843,-1.081939,3.139926,28.26,35.28,23.55,25.96,-16.58,14.07,38.42,40.25,11.81,-3.19,23.55,25.96,35.28,0,11.73,-0.59
rw_cut_5_p1_opt_disp_struct_7.xyz,Nucleus 31H :,-0.0806,-1.102468,4.145334,27.39,34.62,20.64,26.9,50.37,37.43,29.03,-22.46,-10.31,-1.9,20.64,26.9,34.62,0,13.98,-0.11
rw_cut_5_p1_opt_disp_struct_7.xyz,Nucleus 0C :,2.537869,1.29502,0.634339,172.9,160.73,169.75,188.21,258.62,235.24,239.16,-78.75,-68.32,-67.25,160.73,169.75,188.21,0,27.48,-0.34
rw_cut_5_p1_opt_disp_struct_7.xyz,Nucleus 3C :,-0.374688,1.404825,-1.599393,62.24,149.04,51.2,-13.52,242.13,276.6,264.14,-93.23,-225.36,-277.57,-13.52,51.2,149.04,0,162.56,-0.2
rw_cut_5_p1_opt_disp_struct_7.xyz,Nucleus 4C :,2.120657,-8.266336,0.794155,53.72,-32.92,65.61,128.46,253.13,263.57,275.18,-296.79,-204.75,-129.21,-32.92,65.61,128.46,0,161.38,0.22
rw_cut_5_p1_opt_disp_struct_7.xyz,Nucleus 7C :,2.311066,-8.163181,1.867257,41.14,143.31,-38.86,18.98,273.58,262.95,268.11,-121.33,-312.13,-247.74,-38.86,18.98,143.31,0,182.17,-0.36
rw_cut_5_p1_opt_disp_struct_7.xyz,Nucleus 8C :,1.125472,-8.697572,0.631114,49.6,171.21,1.11,-23.51,230.43,269.19,259.93,-59.59,-266.58,-284.56,-23.51,1.11,171.21,0,194.72,-0.75
rw_cut_5_p1_opt_disp_struct_7.xyz,Nucleus 9C :,2.276798,-6.980564,0.118941,55.07,177.13,37.73,-49.64,245.7,274.68,263.7,-69.7,-233.41,-315.76,-49.64,37.73,177.13,0,226.77,-0.23
rw_cut_5_p1_opt_disp_struct_7.xyz,Nucleus 11C :,2.766914,-6.979086,-0.760578,55.8,177.25,-56.83,46.99,229.68,262.37,271.71,-53.05,-319.79,-223.5,-56.83,46.99,177.25,0,234.08,-0.11
rw_cut_5_p1_opt_disp_struct_7.xyz,Nucleus 13C :,1.630841,-5.852422,0.449747,54.55,177.19,43.77,-57.3,223.95,275.26,255.57,-46.95,-231.43,-312.74,-57.3,43.77,177.19,0,234.49,-0.14
rw_cut_5_p1_opt_disp_struct_7.xyz,Nucleus 15C :,1.861795,-4.743861,-0.254015,65.51,172.22,50.71,-26.39,238.69,272.78,264.88,-68.41,-221.41,-289.99,-26.39,50.71,172.22,0,198.61,-0.22
rw_cut_5_p1_opt_disp_struct_7.xyz,Nucleus 19C :,1.356505,-3.882137,-0.068315,155.31,130.63,146.62,188.69,269.4,197.77,211.47,-50.93,-85.76,-76.0,130.63,146.62,188.69,0,58.06,-0.45
rw_cut_5_p1_opt_disp_struct_7.xyz,Nucleus 24C :,0.766252,-5.797594,1.463052,21.46,115.32,-16.75,-34.18,239.65,269.86,264.01,-124.33,-281.96,-302.84,-34.18,-16.75,115.32,0,149.5,-0.77
rw_cut_5_p1_opt_disp_struct_7.xyz,Nucleus 5N :,0.451184,-6.641676,1.910367,116.56,52.96,127.25,169.48,300.95,336.66,331.91,-132.51,-278.77,-208.55,52.96,127.25,169.48,0,116.52,0.28
rw_cut_5_p1_opt_disp_struct_7.xyz,Nucleus 22N :,0.335059,-4.91811,1.739959,168.49,101.4,180.69,223.38,286.77,346.77,330.53,-232.6,-103.55,-122.45,101.4,180.69,223.38,0,121.98,0.3
rw_cut_5_p1_opt_disp_struct_7.xyz,Nucleus 25N :,2.862764,-8.955285,0.39076,174.82,114.52,176.69,233.25,322.13,340.47,336.81,-212.56,-158.55,-103.83,114.52,176.69,233.25,0,118.73,0.05
rw_cut_5_p1_opt_disp_struct_7.xyz,Nucleus 27N :,2.640417,-4.694173,-0.888954,174.08,115.14,211.66,195.43,294.42,340.19,324.77,-97.54,-128.55,-211.06,115.14,195.43,211.66,0,96.52,0.66
rw_cut_5_p1_opt_disp_struct_8.xyz,Nucleus 1H :,0.481257,0.741436,-1.432009,28.94,34.95,28.58,23.28,39.75,30.82,26.1,-4.91,-2.03,-2.92,23.28,28.58,34.95,0,11.67,-0.09
rw_cut_5_p1_opt_disp_struct_8.xyz,Nucleus 2H :,1.376091,1.259999,-1.782431,29.11,24.38,27.65,35.31,46.16,26.77,29.7,0.6,-4.9,-10.98,24.38,27.65,35.31,0,10.93,-0.4
rw_cut_5_p1_opt_disp_struct_8.xyz,Nucleus 6H :,0.331331,-0.137431,-2.070295,23.73,15.99,24.67,30.53,51.0,29.41,16.47,-20.71,-4.72,-0.27,15.99,24.67,30.53,0,14.54,0.19
rw_cut_5_p1_opt_disp_struct_8.xyz,Nucleus 10H :,0.60421,0.375351,0.005136,23.38,28.35,22.86,18.93,49.33,33.74,30.43,-26.44,-3.78,-13.15,18.93,22.86,28.35,0,9.42,-0.17
rw_cut_5_p1_opt_disp_struct_8.xyz,Nucleus 12H :,1.648612,0.717142,0.840465,23.75,20.02,24.16,27.08,48.56,16.25,30.48,-24.44,3.97,-3.57,20.02,24.16,27.08,0,7.06,0.17
rw_cut_5_p1_opt_disp_struct_8.xyz,Nucleus 14H :,1.368036,0.259657,2.100358,23.76,20.1,26.88,24.3,8.22,32.99,44.11,11.9,-6.17,-19.76,20.1,24.3,26.88,0,6.78,0.24
rw_cut_5_p1_opt_disp_struct_8.xyz,Nucleus 16H :,1.964988,0.370322,2.902746,23.78,19.32,27.7,24.33,13.66,31.44,47.84,-23.56,-3.8,5.77,19.32,24.33,27.7,0,8.38,0.2
rw_cut_5_p1_opt_disp_struct_8.xyz,Nucleus 17H :,0.181036,-0.436577,2.092912,24.06,20.36,25.05,26.78,45.1,28.28,32.43,-19.96,-7.75,-5.92,20.36,25.05,26.78,0,6.42,0.46
rw_cut_5_p1_opt_disp_struct_8.xyz,Nucleus 18H :,-0.332094,-0.364522,0.796939,28.84,35.76,26.51,24.26,43.47,25.42,28.88,1.05,-8.4,-3.88,24.26,26.51,35.76,0,11.5,-0.61
rw_cut_5_p1_opt_disp_struct_8.xyz,Nucleus 20H :,-1.575214,-0.975831,0.532739,28.61,34.44,24.37,27.03,-4.67,18.66,39.15,31.29,7.02,-5.62,24.37,27.03,34.44,0,10.07,-0.47
rw_cut_5_p1_opt_disp_struct_8.xyz,Nucleus 21H :,-2.01054,-0.928082,-0.460486,28.63,35.24,26.49,24.17,-4.88,17.54,40.29,31.77,7.28,-6.1,24.17,26.49,35.24,0,11.07,-0.58
rw_cut_5_p1_opt_disp_struct_8.xyz,Nucleus 23H :,-2.255591,-1.629413,1.56716,27.04,18.65,34.12,28.36,49.83,9.69,28.92,-15.86,9.69,-1.14,18.65,28.36,34.12,0,15.47,0.26
rw_cut_5_p1_opt_disp_struct_8.xyz,Nucleus 26H :,-3.21827,-2.085788,1.364524,27.19,38.19,19.64,23.74,27.28,66.78,48.21,-47.06,-3.45,-10.18,19.64,23.74,38.19,0,18.55,-0.56
rw_cut_5_p1_opt_disp_struct_8.xyz,Nucleus 28H :,-1.7188,-1.678678,2.85103,26.86,19.84,26.8,33.94,55.55,0.43,25.11,-21.69,19.49,1.68,19.84,26.8,33.94,0,14.1,-0.01
rw_cut_5_p1_opt_disp_struct_8.xyz,Nucleus 29H :,-2.27419,-2.156438,3.652739,26.71,36.8,19.49,23.84,29.84,48.5,43.56,-28.84,-5.47,-7.46,19.49,23.84,36.8,0,17.31,-0.5
rw_cut_5_p1_opt_disp_struct_8.xyz,Nucleus 30H :,-0.48843,-1.081939,3.139926,28.25,35.23,23.55,25.96,-17.95,13.74,38.38,41.63,12.14,-3.19,23.55,25.96,35.23,0,11.68,-0.59
rw_cut_5_p1_opt_disp_struct_8.xyz,Nucleus 31H :,-0.0806,-1.102468,4.145334,27.32,34.62,20.65,26.69,50.59,37.55,28.72,-22.68,-10.44,-1.77,20.65,26.69,34.62,0,13.97,-0.14
rw_cut_5_p1_opt_disp_struct_8.xyz,Nucleus 0C :,2.537869,1.29502,0.634339,172.87,160.73,169.67,188.22,258.44,235.24,239.12,-78.57,-68.46,-67.15,160.73,169.67,188.22,0,27.49,-0.35
rw_cut_5_p1_opt_disp_struct_8.xyz,Nucleus 3C :,-0.374688,1.404825,-1.599393,62.26,149.04,51.29,-13.56,242.07,276.33,264.06,-93.17,-224.97,-277.55,-13.56,51.29,149.04,0,162.6,-0.2
rw_cut_5_p1_opt_disp_struct_8.xyz,Nucleus 4C :,2.237569,-8.479528,0.736011,53.98,-32.57,66.13,128.38,253.4,263.36,275.03,-296.48,-204.03,-129.34,-32.57,66.13,128.38,0,160.95,0.23
rw_cut_5_p1_opt_disp_struct_8.xyz,Nucleus 7C :,2.427978,-8.376373,1.809113,41.1,143.22,-39.01,19.08,273.35,262.97,268.13,-121.47,-312.1,-247.58,-39.01,19.08,143.22,0,182.23,-0.36
rw_cut_5_p1_opt_disp_struct_8.xyz,Nucleus 8C :,1.242384,-8.910764,0.57297,49.53,171.15,1.08,-23.63,230.31,268.74,259.89,-59.49,-266.37,-284.47,-23.63,1.08,171.15,0,194.78,-0.75
rw_cut_5_p1_opt_disp_struct_8.xyz,Nucleus 9C :,2.393711,-7.193755,0.060797,55.07,177.0,37.91,-49.7,245.86,274.23,263.67,-69.87,-232.98,-315.7,-49.7,37.91,177.0,0,226.7,-0.23
rw_cut_5_p1_opt_disp_struct_8.xyz,Nucleus 11C :,2.883827,-7.192278,-0.818722,55.83,177.08,-56.81,47.22,229.64,262.25,271.63,-53.1,-319.69,-223.24,-56.81,47.22,177.08,0,233.89,-0.11
rw_cut_5_p1_opt_disp_struct_8.xyz,Nucleus 13C :,1.747754,-6.065613,0.391603,54.4,177.04,43.69,-57.54,223.82,275.12,255.58,-46.91,-231.37,-313.05,-57.54,43.69,177.04,0,234.58,-0.14
rw_cut_5_p1_opt_disp_struct_8.xyz,Nucleus 15C :,1.978707,-4.957053,-0.312159,65.58,172.07,50.98,-26.32,238.99,272.66,264.72,-68.63,-221.09,-289.92,-26.32,50.98,172.07,0,198.39,-0.22
rw_cut_5_p1_opt_disp_struct_8.xyz,Nucleus 19C :,1.473418,-4.095329,-0.126459,155.29,130.59,146.62,188.66,269.98,196.78,211.0,-49.95,-85.82,-76.11,130.59,146.62,188.66,0,58.07,-0.45
rw_cut_5_p1_opt_disp_struct_8.xyz,Nucleus 24C :,0.883164,-6.010785,1.404908,21.42,115.35,-16.74,-34.34,239.99,270.32,263.76,-124.65,-281.78,-303.38,-34.34,-16.74,115.35,0,149.69,-0.76
rw_cut_5_p1_opt_disp_struct_8.xyz,Nucleus 5N :,0.568097,-6.854868,1.852223,116.86,53.46,127.77,169.36,301.15,336.55,331.69,-132.69,-278.08,-208.02,53.46,127.77,169.36,0,115.9,0.28
rw_cut_5_p1_opt_disp_struct_8.xyz,Nucleus 22N :,0.451971,-5.131302,1.681815,168.25,101.01,180.78,222.95,285.11,347.07,330.47,-233.28,-101.96,-122.68,101.01,180.78,222.95,0,121.94,0.31
rw_cut_5_p1_opt_disp_struct_8.xyz,Nucleus 25N :,2.979676,-9.168477,0.332616,174.79,114.44,176.6,233.33,322.08,341.31,336.82,-212.68,-159.49,-103.65,114.44,176.6,233.33,0,118.89,0.05
rw_cut_5_p1_opt_disp_struct_8.xyz,Nucleus 27N :,2.75733,-4.907365,-0.947098,174.08,115.06,211.87,195.31,295.19,340.53,324.69,-98.44,-128.74,-210.99,115.06,195.31,211.87,0,96.81,0.66
rw_cut_5_p1_opt_disp_struct_9.xyz,Nucleus 1H :,0.481257,0.741436,-1.432009,28.95,34.95,28.61,23.29,39.73,30.76,26.13,-4.88,-1.97,-2.91,23.29,28.61,34.95,0,11.66,-0.09
rw_cut_5_p1_opt_disp_struct_9.xyz,Nucleus 2H :,1.376091,1.259999,-1.782431,29.11,24.37,27.62,35.33,46.02,26.74,29.67,0.61,-4.88,-10.83,24.37,27.62,35.33,0,10.96,-0.41
rw_cut_5_p1_opt_disp_struct_9.xyz,Nucleus 6H :,0.331331,-0.137431,-2.070295,23.75,16.0,24.69,30.55,50.87,29.47,16.47,-20.55,-4.74,-0.27,16.0,24.69,30.55,0,14.55,0.19
rw_cut_5_p1_opt_disp_struct_9.xyz,Nucleus 10H :,0.60421,0.375351,0.005136,23.39,28.39,22.87,18.92,49.2,33.6,30.51,-26.3,-3.72,-13.11,18.92,22.87,28.39,0,9.47,-0.16
rw_cut_5_p1_opt_disp_struct_9.xyz,Nucleus 12H :,1.648612,0.717142,0.840465,23.77,20.02,24.17,27.12,48.46,16.16,30.54,-24.32,4.02,-3.56,20.02,24.17,27.12,0,7.1,0.17
rw_cut_5_p1_opt_disp_struct_9.xyz,Nucleus 14H :,1.368036,0.259657,2.100358,23.77,20.08,26.93,24.31,8.08,33.1,44.09,12.01,-6.24,-19.72,20.08,24.31,26.93,0,6.85,0.24
rw_cut_5_p1_opt_disp_struct_9.xyz,Nucleus 16H :,1.964988,0.370322,2.902746,23.8,19.32,27.75,24.34,13.59,31.54,47.76,-23.46,-3.84,5.82,19.32,24.34,27.75,0,8.43,0.19
rw_cut_5_p1_opt_disp_struct_9.xyz,Nucleus 17H :,0.181036,-0.436577,2.092912,24.08,20.38,25.05,26.8,45.07,28.31,32.39,-19.92,-7.76,-5.84,20.38,25.05,26.8,0,6.42,0.45
rw_cut_5_p1_opt_disp_struct_9.xyz,Nucleus 18H :,-0.332094,-0.364522,0.796939,28.85,35.75,26.53,24.27,43.44,25.38,28.9,1.08,-8.42,-3.82,24.27,26.53,35.75,0,11.48,-0.61
rw_cut_5_p1_opt_disp_struct_9.xyz,Nucleus 20H :,-1.575214,-0.975831,0.532739,28.6,34.42,24.37,27.0,-5.51,18.6,39.18,32.17,7.05,-5.71,24.37,27.0,34.42,0,10.05,-0.48
rw_cut_5_p1_opt_disp_struct_9.xyz,Nucleus 21H :,-2.01054,-0.928082,-0.460486,28.62,35.22,26.47,24.17,-5.81,17.46,40.35,32.73,7.34,-6.22,24.17,26.47,35.22,0,11.05,-0.58
rw_cut_5_p1_opt_disp_struct_9.xyz,Nucleus 23H :,-2.255591,-1.629413,1.56716,27.02,18.66,34.08,28.31,8.37,50.01,28.73,-16.08,10.99,-0.96,18.66,28.31,34.08,0,15.42,0.25
rw_cut_5_p1_opt_disp_struct_9.xyz,Nucleus 26H :,-3.21827,-2.085788,1.364524,27.09,37.75,19.74,23.78,27.68,68.62,47.66,-48.8,-3.76,-10.14,19.74,23.78,37.75,0,18.01,-0.55
rw_cut_5_p1_opt_disp_struct_9.xyz,Nucleus 28H :,-1.7188,-1.678678,2.85103,26.82,33.9,19.84,26.71,55.93,0.36,25.14,-22.11,19.57,1.55,19.84,26.71,33.9,0,14.06,-0.02
rw_cut_5_p1_opt_disp_struct_9.xyz,Nucleus 29H :,-2.27419,-2.156438,3.652739,26.63,36.43,19.58,23.88,30.19,50.27,43.44,-30.55,-5.9,-7.56,19.58,23.88,36.43,0,16.85,-0.49
rw_cut_5_p1_opt_disp_struct_9.xyz,Nucleus 30H :,-0.48843,-1.081939,3.139926,28.23,35.19,23.55,25.95,-19.32,13.42,38.34,42.99,12.46,-3.2,23.55,25.95,35.19,0,11.64,-0.59
rw_cut_5_p1_opt_disp_struct_9.xyz,Nucleus 31H :,-0.0806,-1.102468,4.145334,27.27,34.62,20.67,26.51,50.82,37.66,28.44,-22.91,-10.56,-1.65,20.67,26.51,34.62,0,13.95,-0.16
rw_cut_5_p1_opt_disp_struct_9.xyz,Nucleus 0C :,2.537869,1.29502,0.634339,172.86,160.74,169.6,188.24,258.28,235.24,239.09,-78.39,-68.59,-67.06,160.74,169.6,188.24,0,27.5,-0.36
rw_cut_5_p1_opt_disp_struct_9.xyz,Nucleus 3C :,-0.374688,1.404825,-1.599393,62.27,149.02,51.39,-13.6,242.0,276.08,263.98,-93.11,-224.61,-277.52,-13.6,51.39,149.02,0,162.62,-0.2
rw_cut_5_p1_opt_disp_struct_9.xyz,Nucleus 4C :,2.354482,-8.692719,0.677867,54.2,-32.28,66.57,128.32,253.7,263.11,274.88,-296.22,-203.39,-129.47,-32.28,66.57,128.32,0,160.6,0.23
rw_cut_5_p1_opt_disp_struct_9.xyz,Nucleus 7C :,2.54489,-8.589565,1.750969,41.06,143.14,-39.13,19.16,273.13,263.01,268.1,-121.58,-312.04,-247.44,-39.13,19.16,143.14,0,182.27,-0.36
rw_cut_5_p1_opt_disp_struct_9.xyz,Nucleus 8C :,1.359297,-9.123956,0.514826,49.49,171.1,1.08,-23.72,230.21,268.31,259.85,-59.4,-266.13,-284.37,-23.72,1.08,171.1,0,194.82,-0.75
rw_cut_5_p1_opt_disp_struct_9.xyz,Nucleus 9C :,2.510623,-7.406947,0.002653,55.07,176.88,38.06,-49.74,246.01,273.81,263.61,-70.0,-232.62,-315.61,-49.74,38.06,176.88,0,226.62,-0.23
rw_cut_5_p1_opt_disp_struct_9.xyz,Nucleus 11C :,3.000739,-7.40547,-0.876866,55.85,176.93,-56.79,47.4,229.62,262.13,271.54,-53.16,-319.58,-223.01,-56.79,47.4,176.93,0,233.72,-0.11
rw_cut_5_p1_opt_disp_struct_9.xyz,Nucleus 13C :,1.864666,-6.278805,0.333459,54.28,176.9,43.64,-57.71,223.68,274.96,255.59,-46.86,-231.27,-313.27,-57.71,43.64,176.9,0,234.61,-0.14
rw_cut_5_p1_opt_disp_struct_9.xyz,Nucleus 15C :,2.09562,-5.170245,-0.370303,65.62,171.94,51.19,-26.26,239.29,272.55,264.54,-68.85,-220.81,-289.86,-26.26,51.19,171.94,0,198.2,-0.22
rw_cut_5_p1_opt_disp_struct_9.xyz,Nucleus 19C :,1.59033,-4.30852,-0.184603,155.27,130.56,146.62,188.63,270.55,195.81,210.54,-49.0,-85.92,-76.17,130.56,146.62,188.63,0,58.07,-0.45
rw_cut_5_p1_opt_disp_struct_9.xyz,Nucleus 24C :,1.000077,-6.223977,1.346764,21.39,115.38,-16.75,-34.47,240.29,270.75,263.53,-124.92,-281.64,-303.86,-34.47,-16.75,115.38,0,149.85,-0.76
rw_cut_5_p1_opt_disp_struct_9.xyz,Nucleus 5N :,0.685009,-7.06806,1.794079,117.11,53.87,128.19,169.26,301.29,336.45,331.48,-132.82,-277.49,-207.59,53.87,128.19,169.26,0,115.39,0.29
rw_cut_5_p1_opt_disp_struct_9.xyz,Nucleus 22N :,0.568884,-5.344494,1.623672,168.04,100.68,180.85,222.58,283.49,347.38,330.42,-233.91,-100.38,-122.88,100.68,180.85,222.58,0,121.9,0.32
rw_cut_5_p1_opt_disp_struct_9.xyz,Nucleus 25N :,3.096589,-9.381669,0.274472,174.77,114.38,176.54,233.39,322.02,342.19,336.82,-212.79,-160.41,-103.52,114.38,176.54,233.39,0,119.01,0.04
rw_cut_5_p1_opt_disp_struct_9.xyz,Nucleus 27N :,2.874242,-5.120556,-1.005242,174.07,114.98,212.02,195.22,295.99,340.87,324.62,-99.36,-128.97,-210.93,114.98,195.22,212.02,0,97.04,0.65
ry_cut_5_p1_opt.xyz,Nucleus 1H :,1.193846,0.297437,0.18398,29.26,34.42,28.36,25.01,44.97,29.03,30.44,-11.62,-0.14,-4.89,25.01,28.36,34.42,0,9.41,-0.29
ry_cut_5_p1_opt.xyz,Nucleus 2H :,1.689576,0.189735,1.152646,29.12,34.29,27.94,25.12,45.99,30.09,28.29,-12.67,-0.06,-4.3,25.12,27.94,34.29,0,9.17,-0.39
ry_cut_5_p1_opt.xyz,Nucleus 5H :,1.740076,1.037401,-0.408976,23.49,27.39,22.56,20.51,49.79,31.67,29.54,-27.69,-4.37,-8.47,20.51,22.56,27.39,0,6.88,-0.41
ry_cut_5_p1_opt.xyz,Nucleus 7H :,-0.254159,0.663823,0.33625,23.87,26.59,24.13,20.88,48.37,30.32,16.38,-24.73,-3.92,5.18,20.88,24.13,26.59,0,5.71,0.14
ry_cut_5_p1_opt.xyz,Nucleus 10H :,-0.946704,1.260714,-0.725917,24.31,27.17,24.4,21.37,49.86,30.23,24.15,-26.27,-3.12,-1.92,21.37,24.4,27.17,0,5.8,0.05
ry_cut_5_p1_opt.xyz,Nucleus 12H :,-0.428341,1.486864,-1.65213,23.67,27.4,22.96,20.66,49.33,32.02,29.49,-26.95,-4.29,-8.59,20.66,22.96,27.4,0,6.74,-0.32
ry_cut_5_p1_opt.xyz,Nucleus 14H :,-2.301213,1.574533,-0.599257,26.66,36.07,24.78,19.12,47.12,28.57,9.55,10.33,-3.9,-11.69,19.12,24.78,36.07,0,16.95,-0.33
ry_cut_5_p1_opt.xyz,Nucleus 15H :,-2.851624,2.032776,-1.414033,28.4,35.2,24.68,25.31,41.71,30.61,27.89,-8.83,-3.57,-2.62,24.68,25.31,35.2,0,10.52,-0.88
ry_cut_5_p1_opt.xyz,Nucleus 17H :,-2.967148,1.272311,0.581726,28.75,35.28,24.26,26.72,39.78,18.28,3.23,-5.3,6.96,23.31,24.26,26.72,35.28,0,11.02,-0.55
ry_cut_5_p1_opt.xyz,Nucleus 18H :,-2.304713,0.657188,1.63869,28.73,34.56,24.43,27.21,38.61,18.79,2.26,-4.67,7.34,23.86,24.43,27.21,34.56,0,10.13,-0.45
ry_cut_5_p1_opt.xyz,Nucleus 20H :,-2.837305,0.412789,2.554049,27.32,34.71,28.81,18.45,48.32,30.09,14.85,-13.71,-2.01,4.43,18.45,28.81,34.71,0,16.26,0.27
ry_cut_5_p1_opt.xyz,Nucleus 23H :,-0.947477,0.352313,1.513532,26.42,45.43,19.34,14.48,14.28,56.83,43.37,5.78,-28.93,-12.08,14.48,19.34,45.43,0,30.95,-0.69
ry_cut_5_p1_opt.xyz,Nucleus 25H :,-0.427031,-0.130226,2.334956,26.87,33.1,28.1,19.41,52.38,25.16,5.7,-19.49,2.92,13.94,19.41,28.1,33.1,0,13.69,0.27
ry_cut_5_p1_opt.xyz,Nucleus 26H :,-4.289813,1.592061,0.67793,26.41,44.4,19.26,15.58,15.81,53.19,31.31,3.86,-15.79,-9.15,15.58,19.26,44.4,0,28.82,-0.74
ry_cut_5_p1_opt.xyz,Nucleus 27H :,-4.677072,1.168253,1.453516,28.38,35.53,26.07,23.55,39.02,15.39,-8.53,10.62,-3.51,32.16,23.55,26.07,35.53,0,11.98,-0.58
ry_cut_5_p1_opt.xyz,Nucleus 28H :,1.293615,-0.661931,-0.335858,27.41,33.75,20.48,27.99,47.63,32.18,30.95,-17.15,-8.45,-2.94,20.48,27.99,33.75,0,13.27,0.13
ry_cut_5_p1_opt.xyz,Nucleus 0C :,-1.295751,6.510546,2.730404,162.83,190.09,141.55,156.86,261.01,237.37,243.13,-68.8,-98.09,-86.13,141.55,156.86,190.09,0,48.54,-0.37
ry_cut_5_p1_opt.xyz,Nucleus 3C :,-1.849793,6.916213,1.875599,43.54,177.71,-55.67,8.57,242.89,256.54,275.95,-65.18,-312.34,-267.24,-55.67,8.57,177.71,0,233.38,-0.45
ry_cut_5_p1_opt.xyz,Nucleus 4C :,-1.994482,6.136821,3.485692,37.61,163.75,20.53,-71.44,273.28,261.68,245.9,-82.18,-250.64,-335.21,-71.44,20.53,163.75,0,235.19,-0.22
ry_cut_5_p1_opt.xyz,Nucleus 6C :,-0.364475,5.458676,2.324643,56.53,169.16,33.2,-32.78,231.79,260.81,274.66,-63.55,-239.0,-295.12,-32.78,33.2,169.16,0,201.94,-0.35
ry_cut_5_p1_opt.xyz,Nucleus 8C :,0.611163,5.701189,2.269543,20.55,-68.23,120.8,9.07,236.33,260.79,269.77,-116.46,-328.19,-260.59,-68.23,9.07,120.8,0,189.03,-0.18
ry_cut_5_p1_opt.xyz,Nucleus 9C :,-0.713383,4.246412,1.872415,58.55,-30.47,48.78,157.33,239.0,263.72,274.08,-82.57,-222.83,-295.76,-30.47,48.78,157.33,0,187.8,-0.16
ry_cut_5_p1_opt.xyz,Nucleus 11C :,0.240764,3.370631,1.541766,40.16,-67.44,27.48,160.43,274.52,259.07,248.03,-87.79,-245.41,-327.95,-67.44,27.48,160.43,0,227.87,-0.17
ry_cut_5_p1_opt.xyz,Nucleus 16C :,-0.006152,2.445476,1.200131,155.02,188.59,130.91,145.55,265.98,215.3,206.78,-85.66,-76.35,-60.98,130.91,145.55,188.59,0,57.68,-0.49
ry_cut_5_p1_opt.xyz,Nucleus 21C :,-1.990839,3.879264,1.733426,21.34,-32.5,-21.64,118.17,264.63,268.16,233.1,-297.18,-289.71,-114.98,-32.5,-21.64,118.17,0,150.67,-0.86
ry_cut_5_p1_opt.xyz,Nucleus 19N :,-2.731917,4.55785,1.783777,172.22,108.79,228.24,179.64,345.12,330.71,292.93,-223.6,-118.18,-110.3,108.79,179.64,228.24,0,119.45,0.19
ry_cut_5_p1_opt.xyz,Nucleus 22N :,-2.212276,2.950645,1.395949,160.25,107.21,203.01,170.54,318.89,330.64,337.21,-218.64,-134.02,-153.32,107.21,170.54,203.01,0,95.8,0.32
ry_cut_5_p1_opt.xyz,Nucleus 24N :,-0.7196,7.319217,3.17976,161.46,107.71,181.92,194.75,295.8,337.5,326.51,-221.65,-152.25,-101.54,107.71,181.92,194.75,0,87.04,0.71
ry_cut_5_p1_opt.xyz,Nucleus 13O :,1.195008,3.529459,1.818474,206.08,247.82,216.98,153.44,330.84,407.67,387.29,-115.93,-155.97,-235.65,153.44,216.98,247.82,0,94.38,0.35
ry_cut_5_p1_opt_disp_struct_0.xyz,Nucleus 1H :,1.193846,0.297437,0.18398,29.28,34.36,28.46,25.02,44.96,30.54,29.02,-11.59,-0.16,-4.92,25.02,28.46,34.36,0,9.34,-0.26
ry_cut_5_p1_opt_disp_struct_0.xyz,Nucleus 2H :,1.689576,0.189735,1.152646,29.14,34.25,28.05,25.12,45.86,30.3,28.31,-12.51,-0.11,-4.43,25.12,28.05,34.25,0,9.13,-0.36
ry_cut_5_p1_opt_disp_struct_0.xyz,Nucleus 5H :,1.740076,1.037401,-0.408976,23.5,27.42,22.47,20.62,49.67,31.98,29.5,-27.56,-4.66,-8.42,20.62,22.47,27.42,0,6.8,-0.45
ry_cut_5_p1_opt_disp_struct_0.xyz,Nucleus 7H :,-0.254159,0.663823,0.33625,23.9,26.64,24.08,20.97,48.27,30.64,16.45,-24.65,-4.18,5.13,20.97,24.08,26.64,0,5.67,0.1
ry_cut_5_p1_opt_disp_struct_0.xyz,Nucleus 10H :,-0.946704,1.260714,-0.725917,24.32,27.21,24.29,21.46,49.73,30.44,24.42,-26.17,-3.35,-2.11,21.46,24.29,27.21,0,5.75,-0.02
ry_cut_5_p1_opt_disp_struct_0.xyz,Nucleus 12H :,-0.428341,1.486864,-1.65213,23.69,27.44,22.88,20.76,49.28,32.16,29.62,-26.88,-4.5,-8.59,20.76,22.88,27.44,0,6.68,-0.36
ry_cut_5_p1_opt_disp_struct_0.xyz,Nucleus 14H :,-2.301213,1.574533,-0.599257,26.77,36.09,25.03,19.2,47.22,28.85,10.21,9.71,-3.94,-11.72,19.2,25.03,36.09,0,16.89,-0.31
ry_cut_5_p1_opt_disp_struct_0.xyz,Nucleus 15H :,-2.851624,2.032776,-1.414033,28.45,35.21,24.75,25.39,41.58,30.59,28.07,-8.75,-3.46,-2.68,24.75,25.39,35.21,0,10.46,-0.88
ry_cut_5_p1_opt_disp_struct_0.xyz,Nucleus 17H :,-2.967148,1.272311,0.581726,28.72,35.24,24.22,26.69,39.8,18.2,2.2,-5.41,6.95,24.4,24.22,26.69,35.24,0,11.02,-0.55
ry_cut_5_p1_opt_disp_struct_0.xyz,Nucleus 18H :,-2.304713,0.657188,1.63869,28.7,34.52,24.4,27.17,38.57,18.7,1.29,-4.72,7.33,24.92,24.4,27.17,34.52,0,10.12,-0.45
ry_cut_5_p1_opt_disp_struct_0.xyz,Nucleus 20H :,-2.837305,0.412789,2.554049,27.24,34.55,28.64,18.53,48.4,29.81,13.56,-13.96,-1.84,5.75,18.53,28.64,34.55,0,16.02,0.26
ry_cut_5_p1_opt_disp_struct_0.xyz,Nucleus 23H :,-0.947477,0.352313,1.513532,27.17,43.5,21.43,16.57,17.94,54.99,48.21,3.78,-11.73,-31.71,16.57,21.43,43.5,0,26.93,-0.64
ry_cut_5_p1_opt_disp_struct_0.xyz,Nucleus 25H :,-0.427031,-0.130226,2.334956,26.96,33.47,27.84,19.56,52.53,25.08,4.9,-19.17,2.65,14.88,19.56,27.84,33.47,0,13.91,0.19
ry_cut_5_p1_opt_disp_struct_0.xyz,Nucleus 26H :,-4.289813,1.592061,0.67793,27.12,42.75,21.33,17.27,19.53,50.95,35.0,2.34,-17.78,-8.69,17.27,21.33,42.75,0,25.48,-0.68
ry_cut_5_p1_opt_disp_struct_0.xyz,Nucleus 27H :,-4.677072,1.168253,1.453516,28.36,35.46,26.03,23.58,38.91,15.04,-9.97,10.93,-3.47,33.63,23.58,26.03,35.46,0,11.88,-0.59
ry_cut_5_p1_opt_disp_struct_0.xyz,Nucleus 28H :,1.293615,-0.661931,-0.335858,27.44,34.2,20.55,27.58,47.6,32.59,30.4,-17.34,-8.34,-2.58,20.55,27.58,34.2,0,13.65,0.03
ry_cut_5_p1_opt_disp_struct_0.xyz,Nucleus 0C :,-1.236985,6.736737,2.819197,162.84,190.02,141.44,157.07,260.28,237.31,243.18,-68.65,-97.63,-85.97,141.44,157.07,190.02,0,48.58,-0.36
ry_cut_5_p1_opt_disp_struct_0.xyz,Nucleus 3C :,-1.791027,7.142404,1.964393,44.05,177.08,-55.52,10.6,242.04,256.83,275.77,-64.96,-312.43,-265.08,-55.52,10.6,177.08,0,232.6,-0.43
ry_cut_5_p1_opt_disp_struct_0.xyz,Nucleus 4C :,-1.935716,6.363012,3.574486,39.19,163.53,24.01,-69.97,273.13,261.28,244.46,-80.95,-247.09,-333.26,-69.97,24.01,163.53,0,233.5,-0.2
ry_cut_5_p1_opt_disp_struct_0.xyz,Nucleus 6C :,-0.305709,5.684867,2.413436,58.36,169.01,36.9,-30.83,230.61,260.68,274.16,-62.31,-235.25,-292.81,-30.83,36.9,169.01,0,199.84,-0.32
ry_cut_5_p1_opt_disp_struct_0.xyz,Nucleus 8C :,0.669929,5.92738,2.358337,20.61,-68.17,120.21,9.79,235.23,260.78,268.69,-115.89,-328.21,-258.78,-68.17,9.79,120.21,0,188.38,-0.17
ry_cut_5_p1_opt_disp_struct_0.xyz,Nucleus 9C :,-0.654617,4.472602,1.961209,60.08,-28.89,52.07,157.07,237.47,263.31,273.66,-81.48,-219.38,-293.34,-28.89,52.07,157.07,0,185.96,-0.13
ry_cut_5_p1_opt_disp_struct_0.xyz,Nucleus 11C :,0.29953,3.596821,1.63056,41.65,-66.02,30.82,160.15,273.89,258.65,246.35,-86.34,-241.38,-326.21,-66.02,30.82,160.15,0,226.17,-0.14
ry_cut_5_p1_opt_disp_struct_0.xyz,Nucleus 16C :,0.052613,2.671667,1.288924,155.03,188.64,130.73,145.73,266.67,214.83,205.85,-85.68,-76.67,-59.89,130.73,145.73,188.64,0,57.91,-0.48
ry_cut_5_p1_opt_disp_struct_0.xyz,Nucleus 21C :,-1.932073,4.105455,1.822219,20.97,-33.86,-19.94,116.71,264.9,267.45,234.35,-298.74,-287.38,-117.68,-33.86,-19.94,116.71,0,150.57,-0.82
ry_cut_5_p1_opt_disp_struct_0.xyz,Nucleus 19N :,-2.673151,4.784041,1.87257,170.87,105.65,226.91,180.05,345.01,330.57,291.39,-226.85,-118.26,-109.26,105.65,180.05,226.91,0,121.26,0.23
ry_cut_5_p1_opt_disp_struct_0.xyz,Nucleus 22N :,-2.153511,3.176836,1.484742,166.75,110.79,216.24,173.22,319.06,330.25,336.47,-214.8,-119.8,-150.94,110.79,173.22,216.24,0,105.45,0.18
ry_cut_5_p1_opt_disp_struct_0.xyz,Nucleus 24N :,-0.660834,7.545407,3.268553,167.5,111.51,192.12,198.87,294.56,336.68,326.27,-216.39,-140.01,-98.63,111.51,192.12,198.87,0,87.36,0.85
ry_cut_5_p1_opt_disp_struct_0.xyz,Nucleus 13O :,1.253774,3.75565,1.907268,207.59,249.92,216.64,156.2,332.16,407.82,387.81,-117.7,-153.79,-233.55,156.2,216.64,249.92,0,93.72,0.29
ry_cut_5_p1_opt_disp_struct_1.xyz,Nucleus 1H :,1.193846,0.297437,0.18398,29.29,34.31,28.54,25.02,44.87,30.56,28.94,-11.47,-0.17,-4.86,25.02,28.54,34.31,0,9.29,-0.24
ry_cut_5_p1_opt_disp_struct_1.xyz,Nucleus 2H :,1.689576,0.189735,1.152646,29.16,34.22,28.14,25.11,45.72,30.35,28.27,-12.34,-0.14,-4.4,25.11,28.14,34.22,0,9.11,-0.34
ry_cut_5_p1_opt_disp_struct_1.xyz,Nucleus 5H :,1.740076,1.037401,-0.408976,23.53,27.49,22.37,20.72,49.52,32.24,29.48,-27.42,-4.82,-8.41,20.72,22.37,27.49,0,6.77,-0.51
ry_cut_5_p1_opt_disp_struct_1.xyz,Nucleus 7H :,-0.254159,0.663823,0.33625,23.92,26.72,24.0,21.05,48.16,30.97,16.59,-24.55,-4.41,5.01,21.05,24.0,26.72,0,5.67,0.04
ry_cut_5_p1_opt_disp_struct_1.xyz,Nucleus 10H :,-0.946704,1.260714,-0.725917,24.34,27.31,24.16,21.55,49.58,30.79,24.53,-26.06,-3.74,-2.08,21.55,24.16,27.31,0,5.76,-0.09
ry_cut_5_p1_opt_disp_struct_1.xyz,Nucleus 12H :,-0.428341,1.486864,-1.65213,23.71,27.52,22.76,20.86,49.18,32.32,29.74,-26.78,-4.71,-8.6,20.86,22.76,27.52,0,6.66,-0.43
ry_cut_5_p1_opt_disp_struct_1.xyz,Nucleus 14H :,-2.301213,1.574533,-0.599257,26.86,36.08,25.21,19.28,47.34,29.14,10.69,9.23,-4.03,-11.79,19.28,25.21,36.08,0,16.8,-0.29
ry_cut_5_p1_opt_disp_struct_1.xyz,Nucleus 15H :,-2.851624,2.032776,-1.414033,28.49,35.17,24.81,25.48,41.47,30.59,28.19,-8.69,-3.4,-2.68,24.81,25.48,35.17,0,10.36,-0.87
ry_cut_5_p1_opt_disp_struct_1.xyz,Nucleus 17H :,-2.967148,1.272311,0.581726,28.69,35.21,24.2,26.65,39.83,18.13,1.23,-5.52,6.97,25.42,24.2,26.65,35.21,0,11.01,-0.56
ry_cut_5_p1_opt_disp_struct_1.xyz,Nucleus 18H :,-2.304713,0.657188,1.63869,28.66,34.49,24.38,27.12,38.54,18.59,0.38,-4.78,7.35,25.9,24.38,27.12,34.49,0,10.11,-0.46
ry_cut_5_p1_opt_disp_struct_1.xyz,Nucleus 20H :,-2.837305,0.412789,2.554049,27.17,34.41,28.52,18.58,48.49,29.56,12.2,-14.21,-1.66,7.12,18.58,28.52,34.41,0,15.83,0.26
ry_cut_5_p1_opt_disp_struct_1.xyz,Nucleus 23H :,-0.947477,0.352313,1.513532,27.45,41.94,22.61,17.81,20.49,53.61,51.82,2.21,-11.59,-34.19,17.81,22.61,41.94,0,24.13,-0.6
ry_cut_5_p1_opt_disp_struct_1.xyz,Nucleus 25H :,-0.427031,-0.130226,2.334956,26.97,33.67,27.59,19.65,52.8,25.0,4.4,-19.23,2.47,15.47,19.65,27.59,33.67,0,14.02,0.13
ry_cut_5_p1_opt_disp_struct_1.xyz,Nucleus 26H :,-4.289813,1.592061,0.67793,27.36,41.35,22.51,18.23,22.09,49.39,38.04,1.03,-19.84,-8.62,18.23,22.51,41.35,0,23.12,-0.63
ry_cut_5_p1_opt_disp_struct_1.xyz,Nucleus 27H :,-4.677072,1.168253,1.453516,28.32,35.39,26.0,23.58,38.82,14.7,-11.41,11.25,-3.45,35.07,23.58,26.0,35.39,0,11.81,-0.59
ry_cut_5_p1_opt_disp_struct_1.xyz,Nucleus 28H :,1.293615,-0.661931,-0.335858,27.43,34.45,20.6,27.23,47.66,32.89,29.89,-17.59,-8.31,-2.26,20.6,27.23,34.45,0,13.85,-0.04
ry_cut_5_p1_opt_disp_struct_1.xyz,Nucleus 0C :,-1.17822,6.962927,2.907991,162.72,189.87,141.24,157.06,259.59,237.29,243.1,-68.47,-97.44,-85.89,141.24,157.06,189.87,0,48.63,-0.35
ry_cut_5_p1_opt_disp_struct_1.xyz,Nucleus 3C :,-1.732261,7.368595,2.053186,44.13,176.61,-56.01,11.8,241.49,257.13,275.67,-64.9,-313.2,-263.8,-56.01,11.8,176.61,0,232.62,-0.42
ry_cut_5_p1_opt_disp_struct_1.xyz,Nucleus 4C :,-1.876951,6.589203,3.663279,40.37,-68.87,26.75,163.24,272.98,260.9,243.12,-79.91,-244.24,-331.74,-68.87,26.75,163.24,0,232.11,-0.18
ry_cut_5_p1_opt_disp_struct_1.xyz,Nucleus 6C :,-0.246943,5.911058,2.50223,59.56,-29.67,39.61,168.75,229.56,260.58,273.73,-61.28,-232.42,-291.49,-29.67,39.61,168.75,0,198.42,-0.3
ry_cut_5_p1_opt_disp_struct_1.xyz,Nucleus 8C :,0.728694,6.153571,2.44713,20.46,-68.7,119.8,10.29,234.85,260.84,268.04,-115.93,-328.78,-257.62,-68.7,10.29,119.8,0,188.5,-0.16
ry_cut_5_p1_opt_disp_struct_1.xyz,Nucleus 9C :,-0.595851,4.698793,2.050002,61.04,-28.04,54.46,156.71,236.48,262.99,273.4,-80.72,-216.99,-292.03,-28.04,54.46,156.71,0,184.75,-0.11
ry_cut_5_p1_opt_disp_struct_1.xyz,Nucleus 11C :,0.358296,3.823012,1.719353,42.67,-65.09,33.28,159.81,273.5,258.44,244.95,-85.22,-238.54,-325.14,-65.09,33.28,159.81,0,224.9,-0.13
ry_cut_5_p1_opt_disp_struct_1.xyz,Nucleus 16C :,0.111379,2.897858,1.377718,155.03,188.65,130.6,145.84,267.33,214.34,204.96,-85.64,-77.01,-58.89,130.6,145.84,188.65,0,58.05,-0.47
ry_cut_5_p1_opt_disp_struct_1.xyz,Nucleus 21C :,-1.873307,4.331646,1.911013,20.77,-34.75,-18.83,115.9,267.11,265.04,235.12,-299.93,-285.77,-119.24,-34.75,-18.83,115.9,0,150.65,-0.79
ry_cut_5_p1_opt_disp_struct_1.xyz,Nucleus 19N :,-2.614386,5.010232,1.961364,169.84,103.48,225.64,180.4,345.01,330.45,289.63,-229.15,-118.74,-107.68,103.48,180.4,225.64,0,122.16,0.26
ry_cut_5_p1_opt_disp_struct_1.xyz,Nucleus 22N :,-2.094745,3.403027,1.573536,170.31,112.36,224.14,174.44,319.74,330.68,335.99,-213.09,-111.1,-151.27,112.36,174.44,224.14,0,111.78,0.11
ry_cut_5_p1_opt_disp_struct_1.xyz,Nucleus 24N :,-0.602068,7.771598,3.357347,170.72,113.0,204.62,194.54,294.72,336.46,326.24,-214.39,-132.74,-98.13,113.0,194.54,204.62,0,91.62,0.78
ry_cut_5_p1_opt_disp_struct_1.xyz,Nucleus 13O :,1.31254,3.981841,1.996061,208.44,251.45,216.25,157.62,333.02,407.88,388.13,-232.61,-152.01,-119.1,157.62,216.25,251.45,0,93.83,0.25
ry_cut_5_p1_opt_disp_struct_10.xyz,Nucleus 1H :,1.193846,0.297437,0.18398,29.34,34.36,28.87,24.78,43.76,30.39,28.13,-10.22,0.08,-4.13,24.78,28.87,34.36,0,9.58,-0.15
ry_cut_5_p1_opt_disp_struct_10.xyz,Nucleus 2H :,1.689576,0.189735,1.152646,29.19,34.36,28.48,24.74,44.73,29.76,27.53,-11.09,0.22,-3.57,24.74,28.48,34.36,0,9.62,-0.22
ry_cut_5_p1_opt_disp_struct_10.xyz,Nucleus 5H :,1.740076,1.037401,-0.408976,23.79,28.13,22.21,21.02,48.33,32.3,29.38,-26.11,-4.15,-8.39,21.02,22.21,28.13,0,7.11,-0.67
ry_cut_5_p1_opt_disp_struct_10.xyz,Nucleus 7H :,-0.254159,0.663823,0.33625,24.18,27.41,23.82,21.32,47.4,31.77,16.14,-23.64,-4.45,5.33,21.32,23.82,27.41,0,6.09,-0.18
ry_cut_5_p1_opt_disp_struct_10.xyz,Nucleus 10H :,-0.946704,1.260714,-0.725917,24.59,28.03,23.89,21.85,48.91,32.23,23.94,-25.21,-4.34,-1.77,21.85,23.89,28.03,0,6.18,-0.34
ry_cut_5_p1_opt_disp_struct_10.xyz,Nucleus 12H :,-0.428341,1.486864,-1.65213,23.95,28.19,22.54,21.12,47.89,32.75,29.73,-25.36,-4.59,-8.57,21.12,22.54,28.19,0,7.07,-0.6
ry_cut_5_p1_opt_disp_struct_10.xyz,Nucleus 14H :,-2.301213,1.574533,-0.599257,27.2,36.24,25.86,19.5,47.97,30.12,11.44,8.48,-4.25,-12.16,19.5,25.86,36.24,0,16.74,-0.24
ry_cut_5_p1_opt_disp_struct_10.xyz,Nucleus 15H :,-2.851624,2.032776,-1.414033,28.65,34.83,25.21,25.91,41.59,31.03,28.05,-9.3,-3.23,-2.18,25.21,25.91,34.83,0,9.62,-0.85
ry_cut_5_p1_opt_disp_struct_10.xyz,Nucleus 17H :,-2.967148,1.272311,0.581726,28.54,35.06,24.16,26.39,40.47,17.49,-7.08,-6.68,7.33,34.08,24.16,26.39,35.06,0,10.9,-0.59
ry_cut_5_p1_opt_disp_struct_10.xyz,Nucleus 18H :,-2.304713,0.657188,1.63869,28.51,34.37,24.36,26.8,38.77,17.87,-7.28,-5.6,7.64,34.12,24.36,26.8,34.37,0,10.01,-0.51
ry_cut_5_p1_opt_disp_struct_10.xyz,Nucleus 20H :,-2.837305,0.412789,2.554049,26.85,33.88,28.0,18.67,50.0,27.96,0.08,-16.33,-0.33,19.17,18.67,28.0,33.88,0,15.21,0.23
ry_cut_5_p1_opt_disp_struct_10.xyz,Nucleus 23H :,-0.947477,0.352313,1.513532,26.74,36.22,24.07,19.94,27.5,46.52,71.98,-3.09,-10.63,-52.03,19.94,24.07,36.22,0,16.28,-0.49
ry_cut_5_p1_opt_disp_struct_10.xyz,Nucleus 25H :,-0.427031,-0.130226,2.334956,26.65,33.72,26.34,19.89,56.64,25.15,3.53,-23.04,1.12,16.54,19.89,26.34,33.72,0,13.83,-0.07
ry_cut_5_p1_opt_disp_struct_10.xyz,Nucleus 26H :,-4.289813,1.592061,0.67793,26.64,35.86,24.11,19.94,30.02,44.07,57.71,-37.64,-5.48,-8.77,19.94,24.11,35.86,0,15.92,-0.48
ry_cut_5_p1_opt_disp_struct_10.xyz,Nucleus 27H :,-4.677072,1.168253,1.453516,28.16,34.97,25.96,23.55,38.35,11.83,-23.98,14.08,-3.41,47.61,23.55,25.96,34.97,0,11.42,-0.58
ry_cut_5_p1_opt_disp_struct_10.xyz,Nucleus 28H :,1.293615,-0.661931,-0.335858,27.02,34.62,20.76,25.68,49.89,34.52,27.47,-20.52,-9.12,-1.17,20.76,25.68,34.62,0,13.86,-0.29
ry_cut_5_p1_opt_disp_struct_10.xyz,Nucleus 0C :,-0.649327,8.998645,3.707131,162.11,189.26,140.03,157.04,257.29,238.69,241.16,-67.02,-99.76,-84.03,140.03,157.04,189.26,0,49.23,-0.31
ry_cut_5_p1_opt_disp_struct_10.xyz,Nucleus 3C :,-1.203368,9.404313,2.852327,43.77,174.96,-58.93,15.27,239.16,261.24,272.47,-64.21,-320.22,-257.13,-58.93,15.27,174.96,0,233.89,-0.37
ry_cut_5_p1_opt_disp_struct_10.xyz,Nucleus 4C :,-1.348058,8.62492,4.46242,43.02,-66.45,34.11,161.4,271.57,260.66,242.26,-80.9,-236.79,-327.73,-66.45,34.11,161.4,0,227.85,-0.12
ry_cut_5_p1_opt_disp_struct_10.xyz,Nucleus 6C :,0.281949,7.946775,3.30137,61.52,-28.35,45.9,167.02,227.34,272.78,260.79,-60.45,-225.95,-289.94,-28.35,45.9,167.02,0,195.37,-0.24
ry_cut_5_p1_opt_disp_struct_10.xyz,Nucleus 8C :,1.257587,8.189289,3.246271,19.76,-71.47,118.48,12.28,233.29,261.66,268.49,-114.95,-333.23,-255.97,-71.47,12.28,118.48,0,189.95,-0.12
ry_cut_5_p1_opt_disp_struct_10.xyz,Nucleus 9C :,-0.066958,6.734511,2.849143,62.21,-27.54,59.65,154.53,235.38,263.35,273.9,-81.21,-212.82,-291.96,-27.54,59.65,154.53,0,182.07,-0.04
ry_cut_5_p1_opt_disp_struct_10.xyz,Nucleus 11C :,0.887189,5.85873,2.518494,44.24,-63.92,38.81,157.84,272.28,259.08,243.64,-85.9,-232.96,-323.4,-63.92,38.81,157.84,0,221.76,-0.07
ry_cut_5_p1_opt_disp_struct_10.xyz,Nucleus 16C :,0.640272,4.933575,2.176859,154.86,188.52,130.1,145.97,272.98,209.82,196.27,-86.64,-77.73,-50.11,130.1,145.97,188.52,0,58.42,-0.46
ry_cut_5_p1_opt_disp_struct_10.xyz,Nucleus 21C :,-1.344414,6.367363,2.710153,20.33,-36.99,-17.12,115.11,270.76,263.16,239.01,-306.21,-281.79,-123.93,-36.99,-17.12,115.11,0,152.1,-0.74
ry_cut_5_p1_opt_disp_struct_10.xyz,Nucleus 19N :,-2.085493,7.04595,2.760505,166.61,97.71,220.46,181.65,347.52,329.94,273.88,-237.53,-122.53,-91.46,97.71,181.65,220.46,0,122.75,0.37
ry_cut_5_p1_opt_disp_struct_10.xyz,Nucleus 22N :,-1.565852,5.438745,2.372677,174.08,113.29,234.16,174.78,321.01,335.35,342.78,-101.23,-212.77,-162.9,113.29,174.78,234.16,0,120.87,0.02
ry_cut_5_p1_opt_disp_struct_10.xyz,Nucleus 24N :,-0.073175,9.807316,4.156487,174.13,113.97,213.98,194.43,341.33,303.37,326.17,-212.48,-128.49,-107.52,113.97,194.43,213.98,0,100.01,0.61
ry_cut_5_p1_opt_disp_struct_10.xyz,Nucleus 13O :,1.841433,6.017558,2.795202,210.75,256.81,213.34,162.1,334.28,407.77,389.69,-230.49,-145.67,-123.34,162.1,213.34,256.81,0,94.71,0.08
ry_cut_5_p1_opt_disp_struct_11.xyz,Nucleus 1H :,1.193846,0.297437,0.18398,29.34,34.38,28.88,24.75,43.64,30.32,28.11,-10.11,0.1,-4.04,24.75,28.88,34.38,0,9.63,-0.14
ry_cut_5_p1_opt_disp_struct_11.xyz,Nucleus 2H :,1.689576,0.189735,1.152646,29.19,34.38,28.49,24.71,44.62,29.65,27.5,-10.98,0.25,-3.47,24.71,28.49,34.38,0,9.67,-0.22
ry_cut_5_p1_opt_disp_struct_11.xyz,Nucleus 5H :,1.740076,1.037401,-0.408976,23.8,28.16,22.23,21.02,48.21,32.24,29.36,-25.96,-4.05,-8.38,21.02,22.23,28.16,0,7.14,-0.66
ry_cut_5_p1_opt_disp_struct_11.xyz,Nucleus 7H :,-0.254159,0.663823,0.33625,24.2,27.45,23.82,21.32,47.31,31.76,16.07,-23.53,-4.4,5.38,21.32,23.82,27.45,0,6.13,-0.19
ry_cut_5_p1_opt_disp_struct_11.xyz,Nucleus 10H :,-0.946704,1.260714,-0.725917,24.6,28.07,23.89,21.84,48.82,32.25,23.89,-25.09,-4.31,-1.74,21.84,23.89,28.07,0,6.23,-0.34
ry_cut_5_p1_opt_disp_struct_11.xyz,Nucleus 12H :,-0.428341,1.486864,-1.65213,23.97,28.23,22.55,21.12,47.76,32.71,29.71,-25.21,-4.52,-8.57,21.12,22.55,28.23,0,7.11,-0.6
ry_cut_5_p1_opt_disp_struct_11.xyz,Nucleus 14H :,-2.301213,1.574533,-0.599257,27.22,36.26,25.89,19.5,47.98,30.15,11.45,8.44,-4.24,-12.15,19.5,25.89,36.26,0,16.76,-0.24
ry_cut_5_p1_opt_disp_struct_11.xyz,Nucleus 15H :,-2.851624,2.032776,-1.414033,28.67,34.82,25.24,25.94,41.63,31.05,27.99,-9.35,-3.2,-2.1,25.24,25.94,34.82,0,9.58,-0.85
ry_cut_5_p1_opt_disp_struct_11.xyz,Nucleus 17H :,-2.967148,1.272311,0.581726,28.53,35.05,24.16,26.38,40.57,17.43,-7.98,-6.81,7.38,35.0,24.16,26.38,35.05,0,10.89,-0.59
ry_cut_5_p1_opt_disp_struct_11.xyz,Nucleus 18H :,-2.304713,0.657188,1.63869,28.5,34.36,24.36,26.78,38.83,17.81,-8.11,-5.71,7.68,34.99,24.36,26.78,34.36,0,10.0,-0.52
ry_cut_5_p1_opt_disp_struct_11.xyz,Nucleus 20H :,-2.837305,0.412789,2.554049,26.83,33.86,27.97,18.67,50.18,27.82,-1.21,-16.54,-0.2,20.46,18.67,27.97,33.86,0,15.19,0.23
ry_cut_5_p1_opt_disp_struct_11.xyz,Nucleus 23H :,-0.947477,0.352313,1.513532,26.7,24.09,20.01,36.0,27.91,46.15,73.78,-3.42,-10.56,-53.77,20.01,24.09,36.0,0,15.99,-0.49
ry_cut_5_p1_opt_disp_struct_11.xyz,Nucleus 25H :,-0.427031,-0.130226,2.334956,26.62,33.71,26.27,19.89,57.09,25.18,3.51,-23.49,1.02,16.57,19.89,26.27,33.71,0,13.82,-0.08
ry_cut_5_p1_opt_disp_struct_11.xyz,Nucleus 26H :,-4.289813,1.592061,0.67793,26.59,35.63,24.14,20.0,30.46,43.92,59.49,-39.36,-5.96,-8.76,20.0,24.14,35.63,0,15.63,-0.47
ry_cut_5_p1_opt_disp_struct_11.xyz,Nucleus 27H :,-4.677072,1.168253,1.453516,28.15,34.94,25.96,23.56,38.31,11.54,-25.31,14.37,-3.41,48.95,23.56,25.96,34.94,0,11.38,-0.58
ry_cut_5_p1_opt_disp_struct_11.xyz,Nucleus 28H :,1.293615,-0.661931,-0.335858,27.0,34.62,20.77,25.6,50.14,34.66,27.31,-20.83,-9.21,-1.09,20.77,25.6,34.62,0,13.85,-0.3
ry_cut_5_p1_opt_disp_struct_11.xyz,Nucleus 0C :,-0.590561,9.224836,3.795925,162.11,189.26,140.0,157.06,257.14,238.87,241.0,-66.92,-99.94,-83.83,140.0,157.06,189.26,0,49.26,-0.31
ry_cut_5_p1_opt_disp_struct_11.xyz,Nucleus 3C :,-1.144602,9.630504,2.94112,43.79,174.86,-58.96,15.46,239.02,261.33,272.1,-64.17,-320.34,-256.57,-58.96,15.46,174.86,0,233.82,-0.36
ry_cut_5_p1_opt_disp_struct_11.xyz,Nucleus 4C :,-1.289292,8.851111,4.551213,43.07,-66.41,34.29,161.32,271.41,260.64,242.27,-81.0,-236.54,-327.58,-66.41,34.29,161.32,0,227.73,-0.12
ry_cut_5_p1_opt_disp_struct_11.xyz,Nucleus 6C :,0.340715,8.172966,3.390164,61.54,-28.35,46.04,166.94,227.26,272.67,260.77,-60.44,-225.73,-289.9,-28.35,46.04,166.94,0,195.29,-0.24
ry_cut_5_p1_opt_disp_struct_11.xyz,Nucleus 8C :,1.316353,8.41548,3.335064,19.77,-71.49,118.44,12.37,233.26,261.65,268.46,-114.96,-333.25,-255.84,-71.49,12.37,118.44,0,189.93,-0.12
ry_cut_5_p1_opt_disp_struct_11.xyz,Nucleus 9C :,-0.008192,6.960702,2.937936,62.21,-27.56,59.76,154.43,235.36,263.34,273.85,-81.27,-212.69,-291.95,-27.56,59.76,154.43,0,181.99,-0.04
ry_cut_5_p1_opt_disp_struct_11.xyz,Nucleus 11C :,0.945955,6.084921,2.607287,44.24,-63.92,38.91,157.74,272.14,259.08,243.66,-86.02,-232.78,-323.34,-63.92,38.91,157.74,0,221.66,-0.07
ry_cut_5_p1_opt_disp_struct_11.xyz,Nucleus 16C :,0.699038,5.159766,2.265652,154.85,188.51,130.07,145.97,273.57,209.36,195.38,-87.01,-77.53,-49.22,130.07,145.97,188.51,0,58.44,-0.46
ry_cut_5_p1_opt_disp_struct_11.xyz,Nucleus 21C :,-1.285648,6.593554,2.798947,20.32,-37.04,-17.13,115.14,271.19,263.01,239.27,-306.65,-281.69,-124.15,-37.04,-17.13,115.14,0,152.18,-0.74
ry_cut_5_p1_opt_disp_struct_11.xyz,Nucleus 19N :,-2.026727,7.27214,2.849298,166.5,97.55,220.27,181.68,347.9,329.89,272.34,-238.06,-122.67,-89.9,97.55,181.68,220.27,0,122.72,0.37
ry_cut_5_p1_opt_disp_struct_11.xyz,Nucleus 22N :,-1.507086,5.664936,2.46147,174.06,113.21,234.2,174.77,320.92,335.47,343.82,-101.25,-212.9,-163.88,113.21,174.77,234.2,0,120.99,0.02
ry_cut_5_p1_opt_disp_struct_11.xyz,Nucleus 24N :,-0.01441,10.033507,4.245281,174.14,113.95,214.06,194.41,341.77,304.15,326.24,-212.45,-128.91,-108.39,113.95,194.41,214.06,0,100.11,0.61
ry_cut_5_p1_opt_disp_struct_11.xyz,Nucleus 13O :,1.900199,6.243749,2.883995,210.83,257.06,213.13,162.31,334.41,407.83,389.69,-230.38,-145.47,-123.57,162.31,213.13,257.06,0,94.75,0.07
ry_cut_5_p1_opt_disp_struct_12.xyz,Nucleus 1H :,1.193846,0.297437,0.18398,29.34,34.39,28.89,24.73,43.54,30.24,28.08,-10.02,0.12,-3.95,24.73,28.89,34.39,0,9.66,-0.14
ry_cut_5_p1_opt_disp_struct_12.xyz,Nucleus 2H :,1.689576,0.189735,1.152646,29.19,34.4,28.5,24.68,44.52,29.54,27.47,-10.88,0.29,-3.37,24.68,28.5,34.4,0,9.72,-0.21
ry_cut_5_p1_opt_disp_struct_12.xyz,Nucleus 5H :,1.740076,1.037401,-0.408976,23.82,28.19,22.25,21.01,48.09,32.18,29.34,-25.82,-3.96,-8.37,21.01,22.25,28.19,0,7.18,-0.66
ry_cut_5_p1_opt_disp_struct_12.xyz,Nucleus 7H :,-0.254159,0.663823,0.33625,24.21,27.47,23.83,21.32,47.22,31.75,16.0,-23.42,-4.36,5.43,21.32,23.83,27.47,0,6.15,-0.19
ry_cut_5_p1_opt_disp_struct_12.xyz,Nucleus 10H :,-0.946704,1.260714,-0.725917,24.61,28.09,23.9,21.84,48.72,32.26,23.84,-24.97,-4.29,-1.72,21.84,23.9,28.09,0,6.25,-0.34
ry_cut_5_p1_opt_disp_struct_12.xyz,Nucleus 12H :,-0.428341,1.486864,-1.65213,23.98,28.26,22.57,21.11,47.64,32.68,29.7,-25.06,-4.45,-8.57,21.11,22.57,28.26,0,7.15,-0.59
ry_cut_5_p1_opt_disp_struct_12.xyz,Nucleus 14H :,-2.301213,1.574533,-0.599257,27.23,36.27,25.92,19.5,47.98,30.16,11.47,8.42,-4.22,-12.12,19.5,25.92,36.27,0,16.77,-0.23
ry_cut_5_p1_opt_disp_struct_12.xyz,Nucleus 15H :,-2.851624,2.032776,-1.414033,28.68,34.81,25.27,25.97,41.66,31.06,27.93,-9.4,-3.18,-2.03,25.27,25.97,34.81,0,9.54,-0.85
ry_cut_5_p1_opt_disp_struct_12.xyz,Nucleus 17H :,-2.967148,1.272311,0.581726,28.52,35.04,24.16,26.36,40.67,17.36,-8.86,-6.95,7.43,35.91,24.16,26.36,35.04,0,10.88,-0.6
ry_cut_5_p1_opt_disp_struct_12.xyz,Nucleus 18H :,-2.304713,0.657188,1.63869,28.49,34.35,24.36,26.76,38.89,17.75,-8.94,-5.81,7.72,35.87,24.36,26.76,34.35,0,9.99,-0.52
ry_cut_5_p1_opt_disp_struct_12.xyz,Nucleus 20H :,-2.837305,0.412789,2.554049,26.82,33.84,27.94,18.68,50.37,27.68,-2.49,-16.75,-0.08,21.74,18.68,27.94,33.84,0,15.16,0.22
ry_cut_5_p1_opt_disp_struct_12.xyz,Nucleus 23H :,-0.947477,0.352313,1.513532,26.66,24.11,20.06,35.81,28.28,45.84,75.55,-3.71,-10.49,-55.48,20.06,24.11,35.81,0,15.75,-0.49
ry_cut_5_p1_opt_disp_struct_12.xyz,Nucleus 25H :,-0.427031,-0.130226,2.334956,26.6,33.71,26.2,19.9,57.53,25.19,3.47,-23.94,0.94,16.62,19.9,26.2,33.71,0,13.81,-0.09
ry_cut_5_p1_opt_disp_struct_12.xyz,Nucleus 26H :,-4.289813,1.592061,0.67793,26.56,35.44,24.17,20.06,30.85,43.8,61.22,-41.05,-6.4,-8.76,20.06,24.17,35.44,0,15.38,-0.47
ry_cut_5_p1_opt_disp_struct_12.xyz,Nucleus 27H :,-4.677072,1.168253,1.453516,28.15,34.92,25.96,23.56,38.29,11.24,-26.63,14.67,-3.4,50.28,23.56,25.96,34.92,0,11.36,-0.58
ry_cut_5_p1_opt_disp_struct_12.xyz,Nucleus 28H :,1.293615,-0.661931,-0.335858,26.97,34.62,20.77,25.52,50.4,34.78,27.16,-21.12,-9.3,-1.0,20.77,25.52,34.62,0,13.85,-0.31
ry_cut_5_p1_opt_disp_struct_12.xyz,Nucleus 0C :,-0.531795,9.451027,3.884718,162.1,189.25,139.96,157.08,257.01,239.04,240.85,-66.83,-100.12,-83.66,139.96,157.08,189.25,0,49.29,-0.31
ry_cut_5_p1_opt_disp_struct_12.xyz,Nucleus 3C :,-1.085837,9.856695,3.029914,43.83,174.8,-58.96,15.65,238.9,261.41,271.76,-64.12,-320.42,-256.05,-58.96,15.65,174.8,0,233.76,-0.36
ry_cut_5_p1_opt_disp_struct_12.xyz,Nucleus 4C :,-1.230526,9.077302,4.640007,43.11,-66.36,34.45,161.23,271.27,260.61,242.27,-81.09,-236.3,-327.44,-66.36,34.45,161.23,0,227.59,-0.11
ry_cut_5_p1_opt_disp_struct_12.xyz,Nucleus 6C :,0.399481,8.399157,3.478957,61.56,-28.35,46.17,166.86,227.19,272.58,260.75,-60.45,-225.54,-289.85,-28.35,46.17,166.86,0,195.21,-0.24
ry_cut_5_p1_opt_disp_struct_12.xyz,Nucleus 8C :,1.375119,8.641671,3.423858,19.78,-71.49,118.39,12.44,233.24,261.64,268.41,-114.99,-333.24,-255.71,-71.49,12.44,118.39,0,189.88,-0.12
ry_cut_5_p1_opt_disp_struct_12.xyz,Nucleus 9C :,0.050574,7.186893,3.02673,62.21,-27.56,59.86,154.33,235.34,263.32,273.8,-81.35,-212.57,-291.92,-27.56,59.86,154.33,0,181.89,-0.04
ry_cut_5_p1_opt_disp_struct_12.xyz,Nucleus 11C :,1.00472,6.311112,2.696081,44.25,-63.9,39.01,157.65,272.0,259.08,243.67,-86.13,-232.6,-323.26,-63.9,39.01,157.65,0,221.55,-0.07
ry_cut_5_p1_opt_disp_struct_12.xyz,Nucleus 16C :,0.757804,5.385957,2.354445,154.84,188.5,130.05,145.97,274.15,208.9,194.52,-87.41,-77.29,-48.35,130.05,145.97,188.5,0,58.45,-0.46
ry_cut_5_p1_opt_disp_struct_12.xyz,Nucleus 21C :,-1.226882,6.819745,2.88774,20.31,-37.09,-17.15,115.17,271.6,262.86,239.52,-307.07,-281.6,-124.38,-37.09,-17.15,115.17,0,152.26,-0.74
ry_cut_5_p1_opt_disp_struct_12.xyz,Nucleus 19N :,-1.967961,7.498331,2.938092,166.4,97.4,220.09,181.72,348.3,329.85,270.85,-238.59,-122.81,-88.38,97.4,181.72,220.09,0,122.69,0.37
ry_cut_5_p1_opt_disp_struct_12.xyz,Nucleus 22N :,-1.44832,5.891126,2.550264,174.04,113.15,234.23,174.74,320.84,335.6,344.88,-101.3,-213.04,-164.86,113.15,174.74,234.23,0,121.08,0.02
ry_cut_5_p1_opt_disp_struct_12.xyz,Nucleus 24N :,0.044356,10.259698,4.334074,174.14,113.93,214.13,194.37,342.21,304.86,326.33,-212.43,-129.34,-109.21,113.93,194.37,214.13,0,100.2,0.61
ry_cut_5_p1_opt_disp_struct_12.xyz,Nucleus 13O :,1.958964,6.46994,2.972789,210.91,257.27,212.95,162.5,334.51,407.86,389.67,-230.28,-145.32,-123.72,162.5,212.95,257.27,0,94.77,0.06
ry_cut_5_p1_opt_disp_struct_13.xyz,Nucleus 1H :,1.193846,0.297437,0.18398,29.34,34.4,28.9,24.71,43.43,30.17,28.06,-9.93,0.15,-3.87,24.71,28.9,34.4,0,9.69,-0.14
ry_cut_5_p1_opt_disp_struct_13.xyz,Nucleus 2H :,1.689576,0.189735,1.152646,29.19,34.41,28.51,24.65,44.43,29.43,27.45,-10.79,0.33,-3.28,24.65,28.51,34.41,0,9.76,-0.21
ry_cut_5_p1_opt_disp_struct_13.xyz,Nucleus 5H :,1.740076,1.037401,-0.408976,23.83,28.22,22.27,21.0,47.97,32.12,29.32,-25.69,-3.88,-8.36,21.0,22.27,28.22,0,7.22,-0.65
ry_cut_5_p1_opt_disp_struct_13.xyz,Nucleus 7H :,-0.254159,0.663823,0.33625,24.22,27.5,23.84,21.31,47.12,31.73,15.95,-23.31,-4.31,5.47,21.31,23.84,27.5,0,6.19,-0.18
ry_cut_5_p1_opt_disp_struct_13.xyz,Nucleus 10H :,-0.946704,1.260714,-0.725917,24.62,28.12,23.91,21.83,48.62,32.26,23.79,-24.85,-4.26,-1.7,21.83,23.91,28.12,0,6.29,-0.34
ry_cut_5_p1_opt_disp_struct_13.xyz,Nucleus 12H :,-0.428341,1.486864,-1.65213,23.98,28.28,22.58,21.09,47.51,32.64,29.68,-24.92,-4.38,-8.57,21.09,22.58,28.28,0,7.19,-0.58
ry_cut_5_p1_opt_disp_struct_13.xyz,Nucleus 14H :,-2.301213,1.574533,-0.599257,27.25,36.29,25.95,19.5,47.97,30.18,11.48,8.4,-4.2,-12.09,19.5,25.95,36.29,0,16.79,-0.23
ry_cut_5_p1_opt_disp_struct_13.xyz,Nucleus 15H :,-2.851624,2.032776,-1.414033,28.69,34.8,25.29,25.99,41.69,31.07,27.87,-9.45,-3.15,-1.95,25.29,25.99,34.8,0,9.51,-0.85
ry_cut_5_p1_opt_disp_struct_13.xyz,Nucleus 17H :,-2.967148,1.272311,0.581726,28.51,35.04,24.15,26.35,40.77,17.3,-9.75,-7.08,7.48,36.82,24.15,26.35,35.04,0,10.89,-0.6
ry_cut_5_p1_opt_disp_struct_13.xyz,Nucleus 18H :,-2.304713,0.657188,1.63869,28.48,34.35,24.36,26.74,38.95,17.69,-9.77,-5.92,7.76,36.73,24.36,26.74,34.35,0,9.99,-0.52
ry_cut_5_p1_opt_disp_struct_13.xyz,Nucleus 20H :,-2.837305,0.412789,2.554049,26.81,33.83,27.92,18.68,50.55,27.56,-3.77,-16.96,0.04,23.01,18.68,27.92,33.83,0,15.15,0.22
ry_cut_5_p1_opt_disp_struct_13.xyz,Nucleus 23H :,-0.947477,0.352313,1.513532,26.63,24.12,20.11,35.65,28.63,45.56,77.3,-3.98,-10.44,-57.18,20.11,24.12,35.65,0,15.54,-0.48
ry_cut_5_p1_opt_disp_struct_13.xyz,Nucleus 25H :,-0.427031,-0.130226,2.334956,26.59,33.71,26.15,19.91,57.98,25.21,3.41,-24.39,0.87,16.69,19.91,26.15,33.71,0,13.8,-0.1
ry_cut_5_p1_opt_disp_struct_13.xyz,Nucleus 26H :,-4.289813,1.592061,0.67793,26.53,35.28,24.19,20.11,31.21,43.71,62.94,-42.72,-6.8,-8.75,20.11,24.19,35.28,0,15.17,-0.46
ry_cut_5_p1_opt_disp_struct_13.xyz,Nucleus 27H :,-4.677072,1.168253,1.453516,28.14,34.9,25.96,23.57,38.26,10.94,-27.95,14.97,-3.4,51.59,23.57,25.96,34.9,0,11.33,-0.58
ry_cut_5_p1_opt_disp_struct_13.xyz,Nucleus 28H :,1.293615,-0.661931,-0.335858,26.95,34.62,20.78,25.46,50.66,34.9,27.02,-21.41,-9.38,-0.92,20.78,25.46,34.62,0,13.84,-0.32
ry_cut_5_p1_opt_disp_struct_13.xyz,Nucleus 0C :,-0.473029,9.677218,3.973512,162.09,189.24,139.93,157.1,256.89,239.2,240.71,-66.75,-100.28,-83.49,139.93,157.1,189.24,0,49.31,-0.3
ry_cut_5_p1_opt_disp_struct_13.xyz,Nucleus 3C :,-1.027071,10.082885,3.118707,43.87,174.75,-58.95,15.81,238.8,261.46,271.45,-64.07,-320.47,-255.57,-58.95,15.81,174.75,0,233.7,-0.36
ry_cut_5_p1_opt_disp_struct_13.xyz,Nucleus 4C :,-1.17176,9.303493,4.7288,43.14,-66.32,34.58,161.15,271.13,260.57,242.27,-81.17,-236.09,-327.31,-66.32,34.58,161.15,0,227.47,-0.11
ry_cut_5_p1_opt_disp_struct_13.xyz,Nucleus 6C :,0.458247,8.625348,3.567751,61.57,-28.34,46.28,166.78,227.11,272.49,260.72,-60.45,-225.37,-289.79,-28.34,46.28,166.78,0,195.12,-0.24
ry_cut_5_p1_opt_disp_struct_13.xyz,Nucleus 8C :,1.433885,8.867861,3.512651,19.79,-71.48,118.35,12.51,233.23,261.64,268.36,-115.02,-333.24,-255.58,-71.48,12.51,118.35,0,189.83,-0.12
ry_cut_5_p1_opt_disp_struct_13.xyz,Nucleus 9C :,0.109339,7.413084,3.115523,62.21,-27.56,59.94,154.24,235.31,263.3,273.75,-81.4,-212.47,-291.87,-27.56,59.94,154.24,0,181.8,-0.04
ry_cut_5_p1_opt_disp_struct_13.xyz,Nucleus 11C :,1.063486,6.537303,2.784874,44.26,-63.89,39.1,157.58,271.88,259.07,243.68,-86.22,-232.44,-323.18,-63.89,39.1,157.58,0,221.47,-0.07
ry_cut_5_p1_opt_disp_struct_13.xyz,Nucleus 16C :,0.81657,5.612148,2.443239,154.83,188.49,130.03,145.98,274.73,208.45,193.67,-87.83,-77.02,-47.5,130.03,145.98,188.49,0,58.46,-0.45
ry_cut_5_p1_opt_disp_struct_13.xyz,Nucleus 21C :,-1.168116,7.045936,2.976534,20.29,-37.13,-17.17,115.18,272.0,262.73,239.77,-307.47,-281.52,-124.62,-37.13,-17.17,115.18,0,152.31,-0.74
ry_cut_5_p1_opt_disp_struct_13.xyz,Nucleus 19N :,-1.909195,7.724522,3.026885,166.32,97.27,219.94,181.75,348.71,329.8,269.37,-239.1,-122.93,-86.89,97.27,181.75,219.94,0,122.67,0.38
ry_cut_5_p1_opt_disp_struct_13.xyz,Nucleus 22N :,-1.389554,6.117317,2.639057,174.02,113.09,234.25,174.72,320.76,335.75,345.93,-101.36,-213.19,-165.83,113.09,174.72,234.25,0,121.16,0.02
ry_cut_5_p1_opt_disp_struct_13.xyz,Nucleus 24N :,0.103122,10.485889,4.422868,174.15,113.92,214.19,194.33,342.65,305.51,326.43,-212.42,-129.77,-109.96,113.92,194.33,214.19,0,100.27,0.6
ry_cut_5_p1_opt_disp_struct_13.xyz,Nucleus 13O :,2.01773,6.696131,3.061582,210.98,257.46,212.8,162.67,334.59,407.89,389.66,-230.16,-145.21,-123.84,162.67,212.8,257.46,0,94.79,0.06
ry_cut_5_p1_opt_disp_struct_14.xyz,Nucleus 1H :,1.193846,0.297437,0.18398,29.34,34.42,28.91,24.69,43.34,30.09,28.05,-9.84,0.17,-3.78,24.69,28.91,34.42,0,9.73,-0.13
ry_cut_5_p1_opt_disp_struct_14.xyz,Nucleus 2H :,1.689576,0.189735,1.152646,29.19,34.43,28.52,24.63,44.34,29.33,27.43,-10.71,0.37,-3.19,24.63,28.52,34.43,0,9.8,-0.21
ry_cut_5_p1_opt_disp_struct_14.xyz,Nucleus 5H :,1.740076,1.037401,-0.408976,23.84,28.24,22.28,20.99,47.86,32.06,29.3,-25.56,-3.8,-8.35,20.99,22.28,28.24,0,7.25,-0.65
ry_cut_5_p1_opt_disp_struct_14.xyz,Nucleus 7H :,-0.254159,0.663823,0.33625,24.23,27.52,23.85,21.31,47.03,31.71,15.9,-23.2,-4.26,5.51,21.31,23.85,27.52,0,6.21,-0.18
ry_cut_5_p1_opt_disp_struct_14.xyz,Nucleus 10H :,-0.946704,1.260714,-0.725917,24.63,28.14,23.92,21.83,48.53,32.26,23.75,-24.74,-4.23,-1.68,21.83,23.92,28.14,0,6.31,-0.34
ry_cut_5_p1_opt_disp_struct_14.xyz,Nucleus 12H :,-0.428341,1.486864,-1.65213,23.99,28.3,22.6,21.08,47.4,32.6,29.66,-24.79,-4.32,-8.56,21.08,22.6,28.3,0,7.22,-0.58
ry_cut_5_p1_opt_disp_struct_14.xyz,Nucleus 14H :,-2.301213,1.574533,-0.599257,27.26,36.3,25.97,19.51,47.95,30.18,11.49,8.38,-4.17,-12.05,19.51,25.97,36.3,0,16.79,-0.23
ry_cut_5_p1_opt_disp_struct_14.xyz,Nucleus 15H :,-2.851624,2.032776,-1.414033,28.7,34.79,25.31,26.01,41.72,31.08,27.81,-9.49,-3.12,-1.88,25.31,26.01,34.79,0,9.48,-0.85
ry_cut_5_p1_opt_disp_struct_14.xyz,Nucleus 17H :,-2.967148,1.272311,0.581726,28.51,35.04,24.15,26.34,40.88,17.23,-10.63,-7.22,7.54,37.72,24.15,26.34,35.04,0,10.89,-0.6
ry_cut_5_p1_opt_disp_struct_14.xyz,Nucleus 18H :,-2.304713,0.657188,1.63869,28.48,34.35,24.37,26.72,39.02,17.63,-10.6,-6.03,7.81,37.6,24.37,26.72,34.35,0,9.98,-0.53
ry_cut_5_p1_opt_disp_struct_14.xyz,Nucleus 20H :,-2.837305,0.412789,2.554049,26.8,33.81,27.9,18.68,50.73,27.43,-5.03,-17.16,0.15,24.27,18.68,27.9,33.81,0,15.13,0.22
ry_cut_5_p1_opt_disp_struct_14.xyz,Nucleus 23H :,-0.947477,0.352313,1.513532,26.6,24.14,20.16,35.51,28.95,45.31,79.03,-4.22,-10.41,-58.87,20.16,24.14,35.51,0,15.35,-0.48
ry_cut_5_p1_opt_disp_struct_14.xyz,Nucleus 25H :,-0.427031,-0.130226,2.334956,26.57,33.7,26.09,19.92,58.43,25.22,3.33,-24.85,0.81,16.77,19.92,26.09,33.7,0,13.78,-0.1
ry_cut_5_p1_opt_disp_struct_14.xyz,Nucleus 26H :,-4.289813,1.592061,0.67793,26.5,35.14,24.22,20.15,31.54,43.63,64.63,-44.37,-7.18,-8.75,20.15,24.22,35.14,0,14.99,-0.46
ry_cut_5_p1_opt_disp_struct_14.xyz,Nucleus 27H :,-4.677072,1.168253,1.453516,28.14,34.88,25.96,23.57,38.24,10.65,-29.26,15.27,-3.4,52.9,23.57,25.96,34.88,0,11.31,-0.58
ry_cut_5_p1_opt_disp_struct_14.xyz,Nucleus 28H :,1.293615,-0.661931,-0.335858,26.94,34.62,20.79,25.4,50.92,35.0,26.88,-21.69,-9.46,-0.85,20.79,25.4,34.62,0,13.83,-0.33
ry_cut_5_p1_opt_disp_struct_14.xyz,Nucleus 0C :,-0.414263,9.903409,4.062305,162.09,189.24,139.91,157.12,256.78,239.33,240.6,-66.67,-100.43,-83.34,139.91,157.12,189.24,0,49.33,-0.3
ry_cut_5_p1_opt_disp_struct_14.xyz,Nucleus 3C :,-0.968305,10.309076,3.207501,43.91,174.7,-58.94,15.96,238.7,261.51,271.16,-64.02,-320.5,-255.13,-58.94,15.96,174.7,0,233.64,-0.36
ry_cut_5_p1_opt_disp_struct_14.xyz,Nucleus 4C :,-1.112994,9.529684,4.817594,43.16,-66.29,34.69,161.08,271.01,260.53,242.27,-81.24,-235.9,-327.18,-66.29,34.69,161.08,0,227.37,-0.11
ry_cut_5_p1_opt_disp_struct_14.xyz,Nucleus 6C :,0.517013,8.851539,3.656544,61.58,-28.34,46.37,166.71,227.05,272.4,260.68,-60.44,-225.22,-289.73,-28.34,46.37,166.71,0,195.05,-0.23
ry_cut_5_p1_opt_disp_struct_14.xyz,Nucleus 8C :,1.492651,9.094052,3.601445,19.81,-71.46,118.31,12.57,233.21,261.63,268.31,-115.05,-333.23,-255.46,-71.46,12.57,118.31,0,189.77,-0.11
ry_cut_5_p1_opt_disp_struct_14.xyz,Nucleus 9C :,0.168105,7.639274,3.204316,62.21,-27.56,60.02,154.17,235.28,263.27,273.7,-81.44,-212.37,-291.81,-27.56,60.02,154.17,0,181.73,-0.04
ry_cut_5_p1_opt_disp_struct_14.xyz,Nucleus 11C :,1.122252,6.763493,2.873667,44.27,-63.88,39.17,157.51,271.76,259.05,243.68,-86.29,-232.29,-323.11,-63.88,39.17,157.51,0,221.39,-0.07
ry_cut_5_p1_opt_disp_struct_14.xyz,Nucleus 16C :,0.875336,5.838339,2.532032,154.82,188.48,130.01,145.98,275.31,208.0,192.83,-88.28,-76.73,-46.66,130.01,145.98,188.48,0,58.47,-0.45
ry_cut_5_p1_opt_disp_struct_14.xyz,Nucleus 21C :,-1.109351,7.272127,3.065327,20.28,-37.16,-17.19,115.2,272.39,262.61,240.02,-307.86,-281.46,-124.86,-37.16,-17.19,115.2,0,152.36,-0.74
ry_cut_5_p1_opt_disp_struct_14.xyz,Nucleus 19N :,-1.850429,7.950713,3.115678,166.25,97.16,219.8,181.78,349.13,329.75,267.92,-239.6,-123.03,-85.42,97.16,181.78,219.8,0,122.64,0.38
ry_cut_5_p1_opt_disp_struct_14.xyz,Nucleus 22N :,-1.330788,6.343508,2.72785,174.0,113.04,234.27,174.7,320.69,335.91,346.99,-101.43,-213.37,-166.78,113.04,174.7,234.27,0,121.23,0.02
ry_cut_5_p1_opt_disp_struct_14.xyz,Nucleus 24N :,0.161888,10.712079,4.511661,174.15,113.9,214.24,194.31,343.07,306.1,326.55,-212.43,-130.21,-110.64,113.9,194.31,214.24,0,100.34,0.6
ry_cut_5_p1_opt_disp_struct_14.xyz,Nucleus 13O :,2.076496,6.922322,3.150376,211.03,257.61,212.67,162.82,334.64,407.9,389.63,-230.03,-145.12,-123.93,162.82,212.67,257.61,0,94.79,0.05
ry_cut_5_p1_opt_disp_struct_15.xyz,Nucleus 1H :,1.193846,0.297437,0.18398,29.34,34.43,28.92,24.67,43.24,30.01,28.03,-9.76,0.2,-3.7,24.67,28.92,34.43,0,9.76,-0.13
ry_cut_5_p1_opt_disp_struct_15.xyz,Nucleus 2H :,1.689576,0.189735,1.152646,29.19,34.44,28.52,24.61,44.25,29.23,27.41,-10.63,0.4,-3.1,24.61,28.52,34.44,0,9.83,-0.2
ry_cut_5_p1_opt_disp_struct_15.xyz,Nucleus 5H :,1.740076,1.037401,-0.408976,23.85,28.26,22.3,20.98,47.75,32.0,29.28,-25.44,-3.72,-8.34,20.98,22.3,28.26,0,7.28,-0.64
ry_cut_5_p1_opt_disp_struct_15.xyz,Nucleus 7H :,-0.254159,0.663823,0.33625,24.23,27.54,23.86,21.3,46.94,31.69,15.85,-23.1,-4.22,5.54,21.3,23.86,27.54,0,6.24,-0.18
ry_cut_5_p1_opt_disp_struct_15.xyz,Nucleus 10H :,-0.946704,1.260714,-0.725917,24.64,28.16,23.93,21.82,48.43,32.26,23.71,-24.63,-4.2,-1.66,21.82,23.93,28.16,0,6.34,-0.34
ry_cut_5_p1_opt_disp_struct_15.xyz,Nucleus 12H :,-0.428341,1.486864,-1.65213,24.0,28.32,22.61,21.07,47.29,32.56,29.64,-24.66,-4.26,-8.56,21.07,22.61,28.32,0,7.25,-0.58
ry_cut_5_p1_opt_disp_struct_15.xyz,Nucleus 14H :,-2.301213,1.574533,-0.599257,27.28,36.32,26.0,19.51,47.93,30.18,11.5,8.36,-4.15,-12.01,19.51,26.0,36.32,0,16.81,-0.23
ry_cut_5_p1_opt_disp_struct_15.xyz,Nucleus 15H :,-2.851624,2.032776,-1.414033,28.72,34.79,25.33,26.03,41.75,31.08,27.75,-9.53,-3.1,-1.81,25.33,26.03,34.79,0,9.46,-0.85
ry_cut_5_p1_opt_disp_struct_15.xyz,Nucleus 17H :,-2.967148,1.272311,0.581726,28.5,35.03,24.15,26.33,40.99,17.17,-11.5,-7.36,7.6,38.62,24.15,26.33,35.03,0,10.88,-0.6
ry_cut_5_p1_opt_disp_struct_15.xyz,Nucleus 18H :,-2.304713,0.657188,1.63869,28.47,34.34,24.37,26.71,39.09,17.57,-11.42,-6.14,7.86,38.46,24.37,26.71,34.34,0,9.97,-0.53
ry_cut_5_p1_opt_disp_struct_15.xyz,Nucleus 20H :,-2.837305,0.412789,2.554049,26.79,33.8,27.88,18.69,50.91,27.31,-6.3,-17.36,0.26,25.53,18.69,27.88,33.8,0,15.11,0.22
ry_cut_5_p1_opt_disp_struct_15.xyz,Nucleus 23H :,-0.947477,0.352313,1.513532,26.58,35.38,24.15,20.2,29.25,45.1,80.74,-4.44,-10.38,-60.54,20.2,24.15,35.38,0,15.18,-0.48
ry_cut_5_p1_opt_disp_struct_15.xyz,Nucleus 25H :,-0.427031,-0.130226,2.334956,26.56,33.7,26.04,19.93,58.89,25.22,3.24,-25.3,0.76,16.88,19.93,26.04,33.7,0,13.77,-0.11
ry_cut_5_p1_opt_disp_struct_15.xyz,Nucleus 26H :,-4.289813,1.592061,0.67793,26.48,35.02,24.23,20.19,31.85,43.58,66.29,-46.01,-7.52,-8.75,20.19,24.23,35.02,0,14.83,-0.46
ry_cut_5_p1_opt_disp_struct_15.xyz,Nucleus 27H :,-4.677072,1.168253,1.453516,28.13,34.86,25.96,23.57,38.21,10.35,-30.56,15.57,-3.39,54.21,23.57,25.96,34.86,0,11.29,-0.58
ry_cut_5_p1_opt_disp_struct_15.xyz,Nucleus 28H :,1.293615,-0.661931,-0.335858,26.92,34.62,20.8,25.35,51.17,35.1,26.76,-21.96,-9.53,-0.77,20.8,25.35,34.62,0,13.82,-0.34
ry_cut_5_p1_opt_disp_struct_15.xyz,Nucleus 0C :,-0.355497,10.129599,4.151098,162.09,189.24,139.89,157.14,256.68,239.45,240.5,-66.6,-100.57,-83.2,139.89,157.14,189.24,0,49.35,-0.3
ry_cut_5_p1_opt_disp_struct_15.xyz,Nucleus 3C :,-0.909539,10.535267,3.296294,43.94,174.65,-58.92,16.09,238.62,261.55,270.9,-63.98,-320.53,-254.73,-58.92,16.09,174.65,0,233.57,-0.36
ry_cut_5_p1_opt_disp_struct_15.xyz,Nucleus 4C :,-1.054229,9.755875,4.906387,43.18,-66.26,34.78,161.02,270.9,260.49,242.26,-81.3,-235.74,-327.07,-66.26,34.78,161.02,0,227.28,-0.11
ry_cut_5_p1_opt_disp_struct_15.xyz,Nucleus 6C :,0.575779,9.07773,3.745338,61.59,-28.33,46.44,166.65,226.98,272.33,260.64,-60.44,-225.09,-289.66,-28.33,46.44,166.65,0,194.98,-0.23
ry_cut_5_p1_opt_disp_struct_15.xyz,Nucleus 8C :,1.551416,9.320243,3.690238,19.81,-71.45,118.27,12.62,233.2,261.63,268.25,-115.07,-333.22,-255.34,-71.45,12.62,118.27,0,189.72,-0.11
ry_cut_5_p1_opt_disp_struct_15.xyz,Nucleus 9C :,0.226871,7.865465,3.29311,62.21,-27.56,60.08,154.1,235.24,263.23,273.66,-81.47,-212.29,-291.75,-27.56,60.08,154.1,0,181.66,-0.04
ry_cut_5_p1_opt_disp_struct_15.xyz,Nucleus 11C :,1.181018,6.989684,2.962461,44.27,-63.87,39.23,157.45,271.66,259.03,243.67,-86.36,-232.15,-323.04,-63.87,39.23,157.45,0,221.32,-0.07
ry_cut_5_p1_opt_disp_struct_15.xyz,Nucleus 16C :,0.934101,6.064529,2.620826,154.82,188.47,130.0,145.98,275.89,207.55,192.0,-88.74,-76.42,-45.83,130.0,145.98,188.47,0,58.47,-0.45
ry_cut_5_p1_opt_disp_struct_15.xyz,Nucleus 21C :,-1.050585,7.498318,3.15412,20.27,-37.19,-17.21,115.21,272.78,262.49,240.29,-308.24,-281.4,-125.11,-37.19,-17.21,115.21,0,152.4,-0.74
ry_cut_5_p1_opt_disp_struct_15.xyz,Nucleus 19N :,-1.791663,8.176904,3.204472,166.19,97.06,219.69,181.81,349.55,329.69,266.47,-240.09,-123.11,-83.96,97.06,181.81,219.69,0,122.63,0.38
ry_cut_5_p1_opt_disp_struct_15.xyz,Nucleus 22N :,-1.272023,6.569699,2.816644,173.99,112.99,234.29,174.68,320.62,336.06,348.04,-101.5,-213.55,-167.71,112.99,174.68,234.29,0,121.3,0.02
ry_cut_5_p1_opt_disp_struct_15.xyz,Nucleus 24N :,0.220654,10.93827,4.600455,174.15,113.89,214.28,194.28,343.5,306.65,326.69,-212.46,-130.63,-111.28,113.89,194.28,214.28,0,100.39,0.6
ry_cut_5_p1_opt_disp_struct_15.xyz,Nucleus 13O :,2.135262,7.148513,3.239169,211.08,257.75,212.55,162.95,334.69,407.89,389.61,-229.89,-145.05,-123.99,162.95,212.55,257.75,0,94.8,0.05
ry_cut_5_p1_opt_disp_struct_16.xyz,Nucleus 1H :,1.193846,0.297437,0.18398,29.34,34.44,28.93,24.66,43.15,29.94,28.02,-9.69,0.22,-3.62,24.66,28.93,34.44,0,9.78,-0.13
ry_cut_5_p1_opt_disp_struct_16.xyz,Nucleus 2H :,1.689576,0.189735,1.152646,29.19,34.45,28.53,24.58,44.16,29.13,27.4,-10.55,0.44,-3.01,24.58,28.53,34.45,0,9.87,-0.2
ry_cut_5_p1_opt_disp_struct_16.xyz,Nucleus 5H :,1.740076,1.037401,-0.408976,23.85,28.27,22.31,20.97,47.64,31.95,29.27,-25.32,-3.65,-8.33,20.97,22.31,28.27,0,7.3,-0.63
ry_cut_5_p1_opt_disp_struct_16.xyz,Nucleus 7H :,-0.254159,0.663823,0.33625,24.24,27.56,23.87,21.3,46.86,31.66,15.81,-23.0,-4.18,5.57,21.3,23.87,27.56,0,6.26,-0.18
ry_cut_5_p1_opt_disp_struct_16.xyz,Nucleus 10H :,-0.946704,1.260714,-0.725917,24.65,28.18,23.94,21.82,48.34,32.25,23.68,-24.52,-4.17,-1.65,21.82,23.94,28.18,0,6.36,-0.33
ry_cut_5_p1_opt_disp_struct_16.xyz,Nucleus 12H :,-0.428341,1.486864,-1.65213,24.01,28.34,22.63,21.06,47.18,32.52,29.63,-24.54,-4.2,-8.56,21.06,22.63,28.34,0,7.28,-0.57
ry_cut_5_p1_opt_disp_struct_16.xyz,Nucleus 14H :,-2.301213,1.574533,-0.599257,27.29,36.33,26.02,19.51,47.9,30.18,11.51,8.35,-4.12,-11.96,19.51,26.02,36.33,0,16.82,-0.23
ry_cut_5_p1_opt_disp_struct_16.xyz,Nucleus 15H :,-2.851624,2.032776,-1.414033,28.73,34.78,25.35,26.05,41.78,31.08,27.69,-9.57,-3.07,-1.74,25.35,26.05,34.78,0,9.43,-0.85
ry_cut_5_p1_opt_disp_struct_16.xyz,Nucleus 17H :,-2.967148,1.272311,0.581726,28.5,35.03,24.15,26.32,41.1,17.1,-12.38,-7.49,7.66,39.52,24.15,26.32,35.03,0,10.88,-0.6
ry_cut_5_p1_opt_disp_struct_16.xyz,Nucleus 18H :,-2.304713,0.657188,1.63869,28.47,34.34,24.37,26.7,39.16,17.51,-12.25,-6.25,7.91,39.33,24.37,26.7,34.34,0,9.97,-0.53
ry_cut_5_p1_opt_disp_struct_16.xyz,Nucleus 20H :,-2.837305,0.412789,2.554049,26.78,33.79,27.87,18.69,51.09,27.19,-7.56,-17.55,0.37,26.79,18.69,27.87,33.79,0,15.1,0.22
ry_cut_5_p1_opt_disp_struct_16.xyz,Nucleus 23H :,-0.947477,0.352313,1.513532,26.56,35.28,24.16,20.23,29.53,44.91,82.45,-4.64,-10.36,-62.21,20.23,24.16,35.28,0,15.05,-0.48
ry_cut_5_p1_opt_disp_struct_16.xyz,Nucleus 25H :,-0.427031,-0.130226,2.334956,26.55,33.7,26.0,19.94,59.34,25.23,3.13,-25.75,0.71,16.99,19.94,26.0,33.7,0,13.76,-0.12
ry_cut_5_p1_opt_disp_struct_16.xyz,Nucleus 26H :,-4.289813,1.592061,0.67793,26.46,34.91,24.25,20.23,32.14,43.53,67.95,-47.63,-7.85,-8.75,20.23,24.25,34.91,0,14.68,-0.45
ry_cut_5_p1_opt_disp_struct_16.xyz,Nucleus 27H :,-4.677072,1.168253,1.453516,28.12,34.84,25.96,23.57,38.19,10.05,-31.87,15.87,-3.39,55.52,23.57,25.96,34.84,0,11.27,-0.57
ry_cut_5_p1_opt_disp_struct_16.xyz,Nucleus 28H :,1.293615,-0.661931,-0.335858,26.91,34.62,20.81,25.3,51.42,35.19,26.64,-22.23,-9.6,-0.7,20.81,25.3,34.62,0,13.81,-0.35
ry_cut_5_p1_opt_disp_struct_16.xyz,Nucleus 0C :,-0.296732,10.35579,4.239892,162.09,189.24,139.87,157.15,256.58,239.54,240.43,-66.54,-100.69,-83.06,139.87,157.15,189.24,0,49.37,-0.3
ry_cut_5_p1_opt_disp_struct_16.xyz,Nucleus 3C :,-0.850773,10.761458,3.385088,43.97,174.61,-58.91,16.21,238.55,261.58,270.65,-63.95,-320.54,-254.37,-58.91,16.21,174.61,0,233.52,-0.36
ry_cut_5_p1_opt_disp_struct_16.xyz,Nucleus 4C :,-0.995463,9.982065,4.99518,43.2,-66.23,34.86,160.96,270.8,260.44,242.26,-81.35,-235.59,-326.97,-66.23,34.86,160.96,0,227.19,-0.11
ry_cut_5_p1_opt_disp_struct_16.xyz,Nucleus 6C :,0.634545,9.30392,3.834131,61.59,-28.33,46.51,166.6,226.92,272.26,260.6,-60.43,-224.97,-289.6,-28.33,46.51,166.6,0,194.93,-0.23
ry_cut_5_p1_opt_disp_struct_16.xyz,Nucleus 8C :,1.610182,9.546434,3.779032,19.82,-71.44,118.24,12.67,233.19,261.62,268.19,-115.09,-333.21,-255.23,-71.44,12.67,118.24,0,189.68,-0.11
ry_cut_5_p1_opt_disp_struct_16.xyz,Nucleus 9C :,0.285637,8.091656,3.381903,62.2,-27.56,60.13,154.04,235.21,263.19,273.62,-81.49,-212.22,-291.69,-27.56,60.13,154.04,0,181.6,-0.03
ry_cut_5_p1_opt_disp_struct_16.xyz,Nucleus 11C :,1.239784,7.215875,3.051254,44.27,-63.87,39.29,157.39,271.56,259.0,243.67,-86.41,-232.03,-322.97,-63.87,39.29,157.39,0,221.26,-0.07
ry_cut_5_p1_opt_disp_struct_16.xyz,Nucleus 16C :,0.992867,6.29072,2.709619,154.81,188.46,129.99,145.98,276.47,207.1,191.18,-89.22,-76.09,-45.01,129.99,145.98,188.46,0,58.47,-0.45
ry_cut_5_p1_opt_disp_struct_16.xyz,Nucleus 21C :,-0.991819,7.724508,3.242914,20.26,-37.21,-17.23,115.23,273.16,262.39,240.56,-308.61,-281.34,-125.38,-37.21,-17.23,115.23,0,152.44,-0.74
ry_cut_5_p1_opt_disp_struct_16.xyz,Nucleus 19N :,-1.732898,8.403095,3.293265,166.13,96.98,219.59,181.83,349.97,329.64,265.03,-240.55,-123.19,-82.51,96.98,181.83,219.59,0,122.61,0.38
ry_cut_5_p1_opt_disp_struct_16.xyz,Nucleus 22N :,-1.213257,6.79589,2.905437,173.97,112.95,234.3,174.67,320.55,336.22,349.1,-101.57,-213.74,-168.62,112.95,174.67,234.3,0,121.35,0.02
ry_cut_5_p1_opt_disp_struct_16.xyz,Nucleus 24N :,0.27942,11.164461,4.689248,174.16,113.88,214.32,194.27,343.91,307.16,326.83,-212.49,-131.06,-111.89,113.88,194.27,214.32,0,100.44,0.6
ry_cut_5_p1_opt_disp_struct_16.xyz,Nucleus 13O :,2.194028,7.374704,3.327963,211.13,257.87,212.44,163.08,334.72,407.87,389.58,-229.75,-144.99,-124.05,163.08,212.44,257.87,0,94.79,0.04
ry_cut_5_p1_opt_disp_struct_17.xyz,Nucleus 1H :,1.193846,0.297437,0.18398,29.34,34.45,28.94,24.64,43.07,29.86,28.01,-9.62,0.25,-3.54,24.64,28.94,34.45,0,9.81,-0.12
ry_cut_5_p1_opt_disp_struct_17.xyz,Nucleus 2H :,1.689576,0.189735,1.152646,29.19,34.46,28.53,24.57,44.08,29.03,27.39,-10.48,0.48,-2.93,24.57,28.53,34.46,0,9.89,-0.2
ry_cut_5_p1_opt_disp_struct_17.xyz,Nucleus 5H :,1.740076,1.037401,-0.408976,23.86,28.29,22.33,20.96,47.54,31.9,29.25,-25.21,-3.59,-8.32,20.96,22.33,28.29,0,7.33,-0.63
ry_cut_5_p1_opt_disp_struct_17.xyz,Nucleus 7H :,-0.254159,0.663823,0.33625,24.25,27.58,23.87,21.29,46.77,31.64,15.78,-22.9,-4.13,5.59,21.29,23.87,27.58,0,6.29,-0.18
ry_cut_5_p1_opt_disp_struct_17.xyz,Nucleus 10H :,-0.946704,1.260714,-0.725917,24.65,28.19,23.95,21.81,48.25,32.24,23.65,-24.42,-4.14,-1.64,21.81,23.95,28.19,0,6.38,-0.33
ry_cut_5_p1_opt_disp_struct_17.xyz,Nucleus 12H :,-0.428341,1.486864,-1.65213,24.01,28.35,22.64,21.05,47.08,32.48,29.61,-24.43,-4.15,-8.56,21.05,22.64,28.35,0,7.3,-0.56
ry_cut_5_p1_opt_disp_struct_17.xyz,Nucleus 14H :,-2.301213,1.574533,-0.599257,27.3,36.34,26.04,19.51,47.86,30.17,11.52,8.34,-4.1,-11.91,19.51,26.04,36.34,0,16.83,-0.22
ry_cut_5_p1_opt_disp_struct_17.xyz,Nucleus 15H :,-2.851624,2.032776,-1.414033,28.73,34.78,25.36,26.06,41.8,31.09,27.63,-9.6,-3.05,-1.67,25.36,26.06,34.78,0,9.42,-0.85
ry_cut_5_p1_opt_disp_struct_17.xyz,Nucleus 17H :,-2.967148,1.272311,0.581726,28.5,35.03,24.15,26.31,41.21,17.03,-13.26,-7.63,7.72,40.42,24.15,26.31,35.03,0,10.88,-0.6
ry_cut_5_p1_opt_disp_struct_17.xyz,Nucleus 18H :,-2.304713,0.657188,1.63869,28.46,34.34,24.37,26.68,39.24,17.44,-13.09,-6.36,7.96,40.19,24.37,26.68,34.34,0,9.97,-0.54
ry_cut_5_p1_opt_disp_struct_17.xyz,Nucleus 20H :,-2.837305,0.412789,2.554049,26.77,33.78,27.85,18.69,51.27,27.08,-8.82,-17.74,0.48,28.06,18.69,27.85,33.78,0,15.09,0.21
ry_cut_5_p1_opt_disp_struct_17.xyz,Nucleus 23H :,-0.947477,0.352313,1.513532,26.54,35.19,24.17,20.26,29.79,44.74,84.14,-4.83,-10.35,-63.87,20.26,24.17,35.19,0,14.93,-0.48
ry_cut_5_p1_opt_disp_struct_17.xyz,Nucleus 25H :,-0.427031,-0.130226,2.334956,26.54,33.7,25.96,19.95,59.79,25.23,3.02,-26.21,0.67,17.11,19.95,25.96,33.7,0,13.75,-0.13
ry_cut_5_p1_opt_disp_struct_17.xyz,Nucleus 26H :,-4.289813,1.592061,0.67793,26.45,34.82,24.26,20.26,32.41,43.5,69.59,-49.25,-8.14,-8.77,20.26,24.26,34.82,0,14.56,-0.45
ry_cut_5_p1_opt_disp_struct_17.xyz,Nucleus 27H :,-4.677072,1.168253,1.453516,28.12,34.83,25.96,23.57,38.18,9.75,-33.17,16.18,-3.39,56.82,23.57,25.96,34.83,0,11.26,-0.58
ry_cut_5_p1_opt_disp_struct_17.xyz,Nucleus 28H :,1.293615,-0.661931,-0.335858,26.9,34.62,20.81,25.26,51.68,35.27,26.53,-22.49,-9.67,-0.63,20.81,25.26,34.62,0,13.81,-0.36
ry_cut_5_p1_opt_disp_struct_17.xyz,Nucleus 0C :,-0.237966,10.581981,4.328685,162.08,189.23,139.86,157.16,256.49,239.59,240.39,-66.48,-100.8,-82.93,139.86,157.16,189.23,0,49.37,-0.3
ry_cut_5_p1_opt_disp_struct_17.xyz,Nucleus 3C :,-0.792007,10.987649,3.473881,44.0,174.58,-58.9,16.31,238.48,261.6,270.42,-63.92,-320.55,-254.03,-58.9,16.31,174.58,0,233.48,-0.36
ry_cut_5_p1_opt_disp_struct_17.xyz,Nucleus 4C :,-0.936697,10.208256,5.083974,43.21,-66.21,34.93,160.91,270.71,260.4,242.25,-81.39,-235.46,-326.87,-66.21,34.93,160.91,0,227.12,-0.11
ry_cut_5_p1_opt_disp_struct_17.xyz,Nucleus 6C :,0.69331,9.530111,3.922924,61.6,-28.32,46.57,166.55,226.87,272.19,260.56,-60.42,-224.87,-289.53,-28.32,46.57,166.55,0,194.87,-0.23
ry_cut_5_p1_opt_disp_struct_17.xyz,Nucleus 8C :,1.668948,9.772625,3.867825,19.83,-71.43,118.22,12.71,233.18,261.61,268.13,-115.11,-333.2,-255.12,-71.43,12.71,118.22,0,189.65,-0.11
ry_cut_5_p1_opt_disp_struct_17.xyz,Nucleus 9C :,0.344403,8.317847,3.470697,62.2,-27.56,60.18,153.98,235.17,263.15,273.57,-81.51,-212.16,-291.62,-27.56,60.18,153.98,0,181.54,-0.03
ry_cut_5_p1_opt_disp_struct_17.xyz,Nucleus 11C :,1.29855,7.442066,3.140048,44.27,-63.86,39.33,157.34,271.46,258.97,243.67,-86.46,-231.91,-322.9,-63.86,39.33,157.34,0,221.2,-0.07
ry_cut_5_p1_opt_disp_struct_17.xyz,Nucleus 16C :,1.051633,6.516911,2.798412,154.81,188.46,129.97,145.99,277.05,206.65,190.37,-89.72,-75.75,-44.19,129.97,145.99,188.46,0,58.49,-0.45
ry_cut_5_p1_opt_disp_struct_17.xyz,Nucleus 21C :,-0.933053,7.950699,3.331707,20.26,-37.23,-17.24,115.24,273.53,262.3,240.83,-308.97,-281.29,-125.64,-37.23,-17.24,115.24,0,152.47,-0.74
ry_cut_5_p1_opt_disp_struct_17.xyz,Nucleus 19N :,-1.674132,8.629286,3.382059,166.09,96.91,219.5,181.85,350.4,329.57,263.6,-241.01,-123.26,-81.06,96.91,181.85,219.5,0,122.59,0.39
ry_cut_5_p1_opt_disp_struct_17.xyz,Nucleus 22N :,-1.154491,7.022081,2.994231,173.96,112.91,234.31,174.66,320.48,336.38,350.15,-101.65,-213.94,-169.52,112.91,174.66,234.31,0,121.4,0.02
ry_cut_5_p1_opt_disp_struct_17.xyz,Nucleus 24N :,0.338186,11.390652,4.778041,174.16,113.87,214.35,194.25,344.31,307.65,327.0,-212.53,-131.49,-112.47,113.87,194.25,214.35,0,100.48,0.6
ry_cut_5_p1_opt_disp_struct_17.xyz,Nucleus 13O :,2.252794,7.600894,3.416756,211.17,257.98,212.35,163.19,334.75,407.85,389.55,-229.61,-144.93,-124.09,163.19,212.35,257.98,0,94.79,0.04
ry_cut_5_p1_opt_disp_struct_18.xyz,Nucleus 1H :,1.193846,0.297437,0.18398,29.34,34.46,28.94,24.63,42.99,29.79,28.0,-9.56,0.27,-3.47,24.63,28.94,34.46,0,9.83,-0.12
ry_cut_5_p1_opt_disp_struct_18.xyz,Nucleus 2H :,1.689576,0.189735,1.152646,29.19,34.47,28.54,24.55,44.0,28.93,27.37,-10.42,0.51,-2.85,24.55,28.54,34.47,0,9.92,-0.2
ry_cut_5_p1_opt_disp_struct_18.xyz,Nucleus 5H :,1.740076,1.037401,-0.408976,23.86,28.3,22.34,20.95,47.45,31.85,29.24,-25.1,-3.53,-8.32,20.95,22.34,28.3,0,7.35,-0.62
ry_cut_5_p1_opt_disp_struct_18.xyz,Nucleus 7H :,-0.254159,0.663823,0.33625,24.25,27.59,23.88,21.29,46.69,31.61,15.75,-22.81,-4.09,5.61,21.29,23.88,27.59,0,6.3,-0.18
ry_cut_5_p1_opt_disp_struct_18.xyz,Nucleus 10H :,-0.946704,1.260714,-0.725917,24.66,28.21,23.96,21.81,48.17,32.23,23.63,-24.32,-4.11,-1.63,21.81,23.96,28.21,0,6.4,-0.33
ry_cut_5_p1_opt_disp_struct_18.xyz,Nucleus 12H :,-0.428341,1.486864,-1.65213,24.02,28.37,22.65,21.04,46.98,32.45,29.6,-24.32,-4.09,-8.55,21.04,22.65,28.37,0,7.33,-0.56
ry_cut_5_p1_opt_disp_struct_18.xyz,Nucleus 14H :,-2.301213,1.574533,-0.599257,27.3,36.35,26.05,19.51,47.83,30.16,11.53,8.33,-4.07,-11.86,19.51,26.05,36.35,0,16.84,-0.22
ry_cut_5_p1_opt_disp_struct_18.xyz,Nucleus 15H :,-2.851624,2.032776,-1.414033,28.75,34.78,25.38,26.08,41.83,31.09,27.58,-9.63,-3.03,-1.61,25.38,26.08,34.78,0,9.4,-0.85
ry_cut_5_p1_opt_disp_struct_18.xyz,Nucleus 17H :,-2.967148,1.272311,0.581726,28.49,35.02,24.15,26.3,41.33,16.96,-14.14,-7.77,7.79,41.31,24.15,26.3,35.02,0,10.87,-0.6
ry_cut_5_p1_opt_disp_struct_18.xyz,Nucleus 18H :,-2.304713,0.657188,1.63869,28.46,34.34,24.37,26.67,39.32,17.38,-13.92,-6.48,8.02,41.06,24.37,26.67,34.34,0,9.97,-0.54
ry_cut_5_p1_opt_disp_struct_18.xyz,Nucleus 20H :,-2.837305,0.412789,2.554049,26.77,33.77,27.84,18.7,51.45,26.97,-10.08,-17.94,0.59,29.32,18.7,27.84,33.77,0,15.07,0.21
ry_cut_5_p1_opt_disp_struct_18.xyz,Nucleus 23H :,-0.947477,0.352313,1.513532,26.52,35.1,24.17,20.28,30.05,44.59,85.82,-5.0,-10.36,-65.53,20.28,24.17,35.1,0,14.82,-0.48
ry_cut_5_p1_opt_disp_struct_18.xyz,Nucleus 25H :,-0.427031,-0.130226,2.334956,26.53,33.71,25.93,19.95,60.24,25.23,2.9,-26.66,0.64,17.23,19.95,25.93,33.71,0,13.76,-0.13
ry_cut_5_p1_opt_disp_struct_18.xyz,Nucleus 26H :,-4.289813,1.592061,0.67793,26.43,34.74,24.28,20.28,32.66,43.48,71.22,-50.86,-8.39,-8.82,20.28,24.28,34.74,0,14.46,-0.45
ry_cut_5_p1_opt_disp_struct_18.xyz,Nucleus 27H :,-4.677072,1.168253,1.453516,28.12,34.81,25.97,23.57,38.16,9.44,-34.47,16.48,-3.39,58.13,23.57,25.97,34.81,0,11.24,-0.57
ry_cut_5_p1_opt_disp_struct_18.xyz,Nucleus 28H :,1.293615,-0.661931,-0.335858,26.89,34.62,20.82,25.22,51.93,35.35,26.42,-22.75,-9.73,-0.56,20.82,25.22,34.62,0,13.8,-0.36
ry_cut_5_p1_opt_disp_struct_18.xyz,Nucleus 0C :,-0.1792,10.808172,4.417479,162.08,189.23,139.85,157.17,256.41,239.6,240.38,-66.43,-100.9,-82.81,139.85,157.17,189.23,0,49.38,-0.3
ry_cut_5_p1_opt_disp_struct_18.xyz,Nucleus 3C :,-0.733241,11.21384,3.562674,44.03,174.55,-58.88,16.41,238.42,261.61,270.21,-63.89,-320.55,-253.72,-58.88,16.41,174.55,0,233.43,-0.35
ry_cut_5_p1_opt_disp_struct_18.xyz,Nucleus 4C :,-0.877931,10.434447,5.172767,43.22,-66.19,34.99,160.87,270.62,260.35,242.25,-81.43,-235.34,-326.78,-66.19,34.99,160.87,0,227.06,-0.11
ry_cut_5_p1_opt_disp_struct_18.xyz,Nucleus 6C :,0.752076,9.756302,4.011718,61.6,-28.32,46.61,166.51,226.81,272.12,260.52,-60.41,-224.78,-289.47,-28.32,46.61,166.51,0,194.83,-0.23
ry_cut_5_p1_opt_disp_struct_18.xyz,Nucleus 8C :,1.727714,9.998816,3.956618,19.84,-71.42,118.19,12.75,233.17,261.6,268.07,-115.13,-333.18,-255.01,-71.42,12.75,118.19,0,189.61,-0.11
ry_cut_5_p1_opt_disp_struct_18.xyz,Nucleus 9C :,0.403169,8.544038,3.55949,62.2,-27.56,60.22,153.94,235.14,263.11,273.53,-81.52,-212.1,-291.55,-27.56,60.22,153.94,0,181.5,-0.03
ry_cut_5_p1_opt_disp_struct_18.xyz,Nucleus 11C :,1.357316,7.668257,3.228841,44.28,-63.85,39.38,157.3,271.38,258.94,243.66,-86.5,-231.81,-322.84,-63.85,39.38,157.3,0,221.15,-0.07
ry_cut_5_p1_opt_disp_struct_18.xyz,Nucleus 16C :,1.110399,6.743102,2.887206,154.8,188.45,129.96,145.99,277.63,206.21,189.55,-90.22,-75.4,-43.36,129.96,145.99,188.45,0,58.49,-0.45
ry_cut_5_p1_opt_disp_struct_18.xyz,Nucleus 21C :,-0.874287,8.17689,3.420501,20.25,-37.25,-17.26,115.25,273.9,262.21,241.1,-309.32,-281.25,-125.9,-37.25,-17.26,115.25,0,152.5,-0.74
ry_cut_5_p1_opt_disp_struct_18.xyz,Nucleus 19N :,-1.615366,8.855476,3.470852,166.04,96.84,219.42,181.86,350.84,329.51,262.16,-241.46,-123.32,-79.62,96.84,181.86,219.42,0,122.58,0.39
ry_cut_5_p1_opt_disp_struct_18.xyz,Nucleus 22N :,-1.095725,7.248272,3.083024,173.95,112.88,234.32,174.66,320.41,336.54,351.19,-101.72,-214.16,-170.39,112.88,174.66,234.32,0,121.44,0.02
ry_cut_5_p1_opt_disp_struct_18.xyz,Nucleus 24N :,0.396951,11.616843,4.866835,174.16,113.86,214.38,194.24,344.7,308.12,327.18,-212.58,-131.91,-113.03,113.86,194.24,214.38,0,100.52,0.6
ry_cut_5_p1_opt_disp_struct_18.xyz,Nucleus 13O :,2.31156,7.827085,3.505549,211.21,258.07,212.26,163.29,334.77,407.83,389.52,-229.48,-144.89,-124.12,163.29,212.26,258.07,0,94.78,0.03
ry_cut_5_p1_opt_disp_struct_19.xyz,Nucleus 1H :,1.193846,0.297437,0.18398,29.34,34.46,28.95,24.62,42.91,29.72,27.99,-9.5,0.3,-3.4,24.62,28.95,34.46,0,9.84,-0.12
ry_cut_5_p1_opt_disp_struct_19.xyz,Nucleus 2H :,1.689576,0.189735,1.152646,29.18,34.47,28.54,24.53,43.93,28.84,27.36,-10.36,0.55,-2.78,24.53,28.54,34.47,0,9.94,-0.19
ry_cut_5_p1_opt_disp_struct_19.xyz,Nucleus 5H :,1.740076,1.037401,-0.408976,23.87,28.32,22.35,20.94,47.35,31.81,29.22,-24.99,-3.47,-8.31,20.94,22.35,28.32,0,7.38,-0.62
ry_cut_5_p1_opt_disp_struct_19.xyz,Nucleus 7H :,-0.254159,0.663823,0.33625,24.26,27.6,23.89,21.28,46.61,31.59,15.72,-22.72,-4.05,5.63,21.28,23.89,27.6,0,6.32,-0.18
ry_cut_5_p1_opt_disp_struct_19.xyz,Nucleus 10H :,-0.946704,1.260714,-0.725917,24.66,28.22,23.96,21.8,48.08,32.22,23.61,-24.23,-4.08,-1.62,21.8,23.96,28.22,0,6.42,-0.33
ry_cut_5_p1_opt_disp_struct_19.xyz,Nucleus 12H :,-0.428341,1.486864,-1.65213,24.03,28.38,22.66,21.04,46.89,32.41,29.58,-24.22,-4.04,-8.55,21.04,22.66,28.38,0,7.34,-0.56
ry_cut_5_p1_opt_disp_struct_19.xyz,Nucleus 14H :,-2.301213,1.574533,-0.599257,27.31,36.35,26.07,19.51,47.79,30.15,11.53,8.32,-4.05,-11.81,19.51,26.07,36.35,0,16.84,-0.22
ry_cut_5_p1_opt_disp_struct_19.xyz,Nucleus 15H :,-2.851624,2.032776,-1.414033,28.75,34.77,25.39,26.09,41.85,31.09,27.52,-9.65,-3.01,-1.54,25.39,26.09,34.77,0,9.38,-0.85
ry_cut_5_p1_opt_disp_struct_19.xyz,Nucleus 17H :,-2.967148,1.272311,0.581726,28.49,35.02,24.15,26.29,41.44,16.89,-15.02,-7.92,7.86,42.21,24.15,26.29,35.02,0,10.87,-0.61
ry_cut_5_p1_opt_disp_struct_19.xyz,Nucleus 18H :,-2.304713,0.657188,1.63869,28.46,34.34,24.37,26.66,39.4,17.31,-14.76,-6.59,8.07,41.93,24.37,26.66,34.34,0,9.97,-0.54
ry_cut_5_p1_opt_disp_struct_19.xyz,Nucleus 20H :,-2.837305,0.412789,2.554049,26.76,33.76,27.82,18.7,51.62,26.86,-11.35,-18.12,0.7,30.58,18.7,27.82,33.76,0,15.06,0.21
ry_cut_5_p1_opt_disp_struct_19.xyz,Nucleus 23H :,-0.947477,0.352313,1.513532,26.51,35.03,24.18,20.31,30.28,44.45,87.49,-5.16,-10.36,-67.18,20.31,24.18,35.03,0,14.72,-0.47
ry_cut_5_p1_opt_disp_struct_19.xyz,Nucleus 25H :,-0.427031,-0.130226,2.334956,26.52,33.71,25.9,19.96,60.69,25.23,2.77,-27.11,0.61,17.36,19.96,25.9,33.71,0,13.75,-0.14
ry_cut_5_p1_opt_disp_struct_19.xyz,Nucleus 26H :,-4.289813,1.592061,0.67793,26.42,34.67,24.29,20.3,32.9,43.47,72.84,-52.46,-8.96,-8.55,20.3,24.29,34.67,0,14.37,-0.44
ry_cut_5_p1_opt_disp_struct_19.xyz,Nucleus 27H :,-4.677072,1.168253,1.453516,28.11,34.8,25.97,23.57,38.14,9.14,-35.77,16.78,-3.39,59.43,23.57,25.97,34.8,0,11.23,-0.57
ry_cut_5_p1_opt_disp_struct_19.xyz,Nucleus 28H :,1.293615,-0.661931,-0.335858,26.88,34.62,20.83,25.18,52.18,35.42,26.32,-23.01,-9.79,-0.49,20.83,25.18,34.62,0,13.79,-0.37
ry_cut_5_p1_opt_disp_struct_19.xyz,Nucleus 0C :,-0.120434,11.034363,4.506272,162.09,189.23,139.84,157.19,256.33,239.58,240.41,-66.38,-101.0,-82.69,139.84,157.19,189.23,0,49.39,-0.3
ry_cut_5_p1_opt_disp_struct_19.xyz,Nucleus 3C :,-0.674475,11.44003,3.651468,44.05,174.52,-58.87,16.49,238.36,261.62,270.01,-63.86,-320.55,-253.44,-58.87,16.49,174.52,0,233.39,-0.35
ry_cut_5_p1_opt_disp_struct_19.xyz,Nucleus 4C :,-0.819165,10.660638,5.261561,43.23,-66.18,35.04,160.83,270.54,260.3,242.24,-81.46,-235.23,-326.69,-66.18,35.04,160.83,0,227.01,-0.11
ry_cut_5_p1_opt_disp_struct_19.xyz,Nucleus 6C :,0.810842,9.982493,4.100511,61.6,-28.32,46.65,166.47,226.77,272.06,260.48,-60.39,-224.69,-289.4,-28.32,46.65,166.47,0,194.79,-0.23
ry_cut_5_p1_opt_disp_struct_19.xyz,Nucleus 8C :,1.78648,10.225007,4.045412,19.84,-71.42,118.17,12.78,233.16,261.58,268.01,-115.14,-333.17,-254.91,-71.42,12.78,118.17,0,189.59,-0.11
ry_cut_5_p1_opt_disp_struct_19.xyz,Nucleus 9C :,0.461935,8.770229,3.648284,62.2,-27.55,60.25,153.89,235.1,263.06,273.49,-81.53,-212.05,-291.49,-27.55,60.25,153.89,0,181.44,-0.03
ry_cut_5_p1_opt_disp_struct_19.xyz,Nucleus 11C :,1.416081,7.894448,3.317635,44.28,-63.84,39.41,157.26,271.29,258.9,243.65,-86.54,-231.71,-322.78,-63.84,39.41,157.26,0,221.1,-0.07
ry_cut_5_p1_opt_disp_struct_19.xyz,Nucleus 16C :,1.169165,6.969293,2.975999,154.79,188.44,129.95,145.99,278.21,205.76,188.73,-90.74,-75.03,-42.54,129.95,145.99,188.44,0,58.49,-0.45
ry_cut_5_p1_opt_disp_struct_19.xyz,Nucleus 21C :,-0.815521,8.403081,3.509294,20.24,-37.26,-17.27,115.26,274.27,262.13,241.37,-309.67,-281.21,-126.17,-37.26,-17.27,115.26,0,152.52,-0.74
ry_cut_5_p1_opt_disp_struct_19.xyz,Nucleus 19N :,-1.5566,9.081667,3.559645,166.01,96.79,219.35,181.88,351.28,329.44,260.73,-241.89,-123.37,-78.18,96.79,181.88,219.35,0,122.56,0.39
ry_cut_5_p1_opt_disp_struct_19.xyz,Nucleus 22N :,-1.036959,7.474462,3.171817,173.94,112.85,234.33,174.65,320.34,336.69,352.24,-101.8,-214.38,-171.26,112.85,174.65,234.33,0,121.48,0.02
ry_cut_5_p1_opt_disp_struct_19.xyz,Nucleus 24N :,0.455717,11.843034,4.955628,174.16,113.85,214.41,194.23,345.09,308.56,327.37,-212.63,-132.33,-113.58,113.85,194.23,214.41,0,100.56,0.6
ry_cut_5_p1_opt_disp_struct_19.xyz,Nucleus 13O :,2.370325,8.053276,3.594343,211.24,258.16,212.18,163.38,334.79,407.8,389.49,-229.36,-144.86,-124.14,163.38,212.18,258.16,0,94.78,0.03
ry_cut_5_p1_opt_disp_struct_2.xyz,Nucleus 1H :,1.193846,0.297437,0.18398,29.29,34.27,28.61,25.0,44.74,30.57,28.8,-11.31,-0.15,-4.77,25.0,28.61,34.27,0,9.27,-0.22
ry_cut_5_p1_opt_disp_struct_2.xyz,Nucleus 2H :,1.689576,0.189735,1.152646,29.16,34.2,28.21,25.08,45.6,30.32,28.17,-12.17,-0.13,-4.3,25.08,28.21,34.2,0,9.12,-0.31
ry_cut_5_p1_opt_disp_struct_2.xyz,Nucleus 5H :,1.740076,1.037401,-0.408976,23.56,27.59,22.28,20.81,49.39,32.41,29.5,-27.31,-4.88,-8.44,20.81,22.28,27.59,0,6.78,-0.57
ry_cut_5_p1_opt_disp_struct_2.xyz,Nucleus 7H :,-0.254159,0.663823,0.33625,23.96,26.83,23.92,21.12,48.06,31.24,16.69,-24.46,-4.57,4.92,21.12,23.92,26.83,0,5.71,-0.02
ry_cut_5_p1_opt_disp_struct_2.xyz,Nucleus 10H :,-0.946704,1.260714,-0.725917,24.37,27.43,24.05,21.63,49.48,31.16,24.51,-25.97,-4.11,-1.96,21.63,24.05,27.43,0,5.8,-0.17
ry_cut_5_p1_opt_disp_struct_2.xyz,Nucleus 12H :,-0.428341,1.486864,-1.65213,23.74,27.63,22.65,20.94,49.06,32.49,29.83,-26.68,-4.87,-8.61,20.94,22.65,27.63,0,6.69,-0.49
ry_cut_5_p1_opt_disp_struct_2.xyz,Nucleus 14H :,-2.301213,1.574533,-0.599257,26.92,36.07,25.35,19.33,47.42,29.39,10.96,8.96,-4.13,-11.85,19.33,25.35,36.07,0,16.74,-0.28
ry_cut_5_p1_opt_disp_struct_2.xyz,Nucleus 15H :,-2.851624,2.032776,-1.414033,28.52,35.12,24.88,25.55,41.38,30.6,28.23,-8.65,-3.37,-2.65,24.88,25.55,35.12,0,10.24,-0.87
ry_cut_5_p1_opt_disp_struct_2.xyz,Nucleus 17H :,-2.967148,1.272311,0.581726,28.66,35.18,24.19,26.61,39.87,18.05,0.29,-5.64,7.0,26.41,24.19,26.61,35.18,0,10.99,-0.56
ry_cut_5_p1_opt_disp_struct_2.xyz,Nucleus 18H :,-2.304713,0.657188,1.63869,28.64,34.47,24.37,27.07,38.53,18.49,-0.48,-4.84,7.38,26.85,24.37,27.07,34.47,0,10.1,-0.47
ry_cut_5_p1_opt_disp_struct_2.xyz,Nucleus 20H :,-2.837305,0.412789,2.554049,27.11,34.3,28.42,18.61,48.61,29.34,10.81,-14.45,-1.49,8.51,18.61,28.42,34.3,0,15.69,0.25
ry_cut_5_p1_opt_disp_struct_2.xyz,Nucleus 23H :,-0.947477,0.352313,1.513532,27.48,40.69,23.24,18.52,22.21,52.11,55.04,1.04,-11.51,-36.44,18.52,23.24,40.69,0,22.17,-0.57
ry_cut_5_p1_opt_disp_struct_2.xyz,Nucleus 25H :,-0.427031,-0.130226,2.334956,26.95,33.75,27.37,19.72,53.15,24.95,4.13,-19.49,2.31,15.8,19.72,27.37,33.75,0,14.03,0.09
ry_cut_5_p1_opt_disp_struct_2.xyz,Nucleus 26H :,-4.289813,1.592061,0.67793,27.36,40.19,23.14,18.76,23.88,48.22,40.64,-0.05,-21.93,-8.68,18.76,23.14,40.19,0,21.43,-0.59
ry_cut_5_p1_opt_disp_struct_2.xyz,Nucleus 27H :,-4.677072,1.168253,1.453516,28.3,35.33,25.99,23.58,38.74,14.35,-12.84,11.58,-3.44,36.5,23.58,25.99,35.33,0,11.75,-0.59
ry_cut_5_p1_opt_disp_struct_2.xyz,Nucleus 28H :,1.293615,-0.661931,-0.335858,27.38,34.58,20.64,26.93,47.82,33.16,29.46,-17.92,-8.35,-2.02,20.64,26.93,34.58,0,13.94,-0.1
ry_cut_5_p1_opt_disp_struct_2.xyz,Nucleus 0C :,-1.119454,7.189118,2.996784,162.58,189.72,141.03,157.0,259.04,237.25,242.82,-68.24,-97.45,-85.67,141.03,157.0,189.72,0,48.69,-0.34
ry_cut_5_p1_opt_disp_struct_2.xyz,Nucleus 3C :,-1.673495,7.594786,2.14198,44.02,176.24,-56.72,12.54,241.2,257.53,275.6,-64.97,-314.3,-263.0,-56.72,12.54,176.24,0,232.96,-0.41
ry_cut_5_p1_opt_disp_struct_2.xyz,Nucleus 4C :,-1.818185,6.815393,3.752073,41.2,-68.13,28.78,162.95,272.87,260.77,242.28,-79.37,-242.18,-330.76,-68.13,28.78,162.95,0,231.08,-0.16
ry_cut_5_p1_opt_disp_struct_2.xyz,Nucleus 6C :,-0.188178,6.137249,2.591023,60.32,-29.03,41.52,168.48,228.8,260.64,273.44,-60.59,-230.45,-290.87,-29.03,41.52,168.48,0,197.51,-0.29
ry_cut_5_p1_opt_disp_struct_2.xyz,Nucleus 8C :,0.78746,6.379762,2.535924,20.26,-69.42,119.51,10.69,234.7,260.93,267.7,-116.09,-329.6,-256.87,-69.42,10.69,119.51,0,188.93,-0.15
ry_cut_5_p1_opt_disp_struct_2.xyz,Nucleus 9C :,-0.537085,4.924984,2.138795,61.61,-27.63,56.11,156.36,236.03,262.89,273.39,-80.39,-215.51,-291.58,-27.63,56.11,156.36,0,183.99,-0.09
ry_cut_5_p1_opt_disp_struct_2.xyz,Nucleus 11C :,0.417062,4.049203,1.808146,43.29,-64.57,34.98,159.47,273.33,258.51,244.03,-84.6,-236.74,-324.66,-64.57,34.98,159.47,0,224.04,-0.11
ry_cut_5_p1_opt_disp_struct_2.xyz,Nucleus 16C :,0.170145,3.124048,1.466511,155.03,188.66,130.52,145.92,267.99,213.82,204.03,-57.88,-85.55,-77.33,130.52,145.92,188.66,0,58.14,-0.47
ry_cut_5_p1_opt_disp_struct_2.xyz,Nucleus 21C :,-1.814541,4.557837,1.999806,20.66,-35.36,-18.13,115.47,267.11,265.0,235.66,-300.92,-284.67,-120.21,-35.36,-18.13,115.47,0,150.83,-0.77
ry_cut_5_p1_opt_disp_struct_2.xyz,Nucleus 19N :,-2.55562,5.236423,2.050157,169.07,101.97,224.55,180.69,345.11,330.35,287.74,-230.84,-119.36,-105.81,101.97,180.69,224.55,0,122.58,0.28
ry_cut_5_p1_opt_disp_struct_2.xyz,Nucleus 22N :,-2.035979,3.629218,1.662329,172.28,113.14,228.69,175.02,320.34,331.64,335.88,-212.27,-106.14,-152.58,113.14,175.02,228.69,0,115.55,0.07
ry_cut_5_p1_opt_disp_struct_2.xyz,Nucleus 24N :,-0.543302,7.997789,3.44614,172.45,113.67,208.62,195.07,295.67,336.73,326.23,-213.51,-128.91,-98.84,113.67,195.07,208.62,0,94.95,0.71
ry_cut_5_p1_opt_disp_struct_2.xyz,Nucleus 13O :,1.371306,4.208032,2.084855,208.92,252.57,215.78,158.41,333.44,407.8,388.46,-232.2,-150.62,-120.11,158.41,215.78,252.57,0,94.16,0.22
ry_cut_5_p1_opt_disp_struct_3.xyz,Nucleus 1H :,1.193846,0.297437,0.18398,29.3,34.26,28.67,24.98,44.61,30.58,28.65,-11.14,-0.11,-4.68,24.98,28.67,34.26,0,9.28,-0.2
ry_cut_5_p1_opt_disp_struct_3.xyz,Nucleus 2H :,1.689576,0.189735,1.152646,29.17,34.2,28.27,25.04,45.49,30.28,28.04,-12.01,-0.08,-4.2,25.04,28.27,34.2,0,9.16,-0.29
ry_cut_5_p1_opt_disp_struct_3.xyz,Nucleus 5H :,1.740076,1.037401,-0.408976,23.59,27.69,22.21,20.88,49.28,32.51,29.52,-27.21,-4.86,-8.47,20.88,22.21,27.69,0,6.81,-0.61
ry_cut_5_p1_opt_disp_struct_3.xyz,Nucleus 7H :,-0.254159,0.663823,0.33625,23.99,26.94,23.86,21.18,47.98,31.42,16.71,-24.38,-4.63,4.89,21.18,23.86,26.94,0,5.76,-0.07
ry_cut_5_p1_opt_disp_struct_3.xyz,Nucleus 10H :,-0.946704,1.260714,-0.725917,24.4,27.54,23.97,21.7,49.42,31.46,24.44,-25.91,-4.31,-1.89,21.7,23.97,27.54,0,5.84,-0.22
ry_cut_5_p1_opt_disp_struct_3.xyz,Nucleus 12H :,-0.428341,1.486864,-1.65213,23.77,27.73,22.57,21.01,48.94,32.63,29.86,-26.56,-4.95,-8.61,21.01,22.57,27.73,0,6.72,-0.54
ry_cut_5_p1_opt_disp_struct_3.xyz,Nucleus 14H :,-2.301213,1.574533,-0.599257,26.98,36.08,25.47,19.38,47.51,29.57,11.1,8.84,-4.18,-11.91,19.38,25.47,36.08,0,16.7,-0.27
ry_cut_5_p1_opt_disp_struct_3.xyz,Nucleus 15H :,-2.851624,2.032776,-1.414033,28.54,35.06,24.94,25.62,41.34,30.66,28.25,-8.67,-3.35,-2.61,24.94,25.62,35.06,0,10.12,-0.87
ry_cut_5_p1_opt_disp_struct_3.xyz,Nucleus 17H :,-2.967148,1.272311,0.581726,28.63,35.15,24.18,26.57,39.92,17.96,-0.64,-5.76,7.03,27.39,24.18,26.57,35.15,0,10.97,-0.56
ry_cut_5_p1_opt_disp_struct_3.xyz,Nucleus 18H :,-2.304713,0.657188,1.63869,28.61,34.45,24.36,27.02,38.52,18.38,-1.34,-4.92,7.42,27.78,24.36,27.02,34.45,0,10.09,-0.47
ry_cut_5_p1_opt_disp_struct_3.xyz,Nucleus 20H :,-2.837305,0.412789,2.554049,27.06,34.21,28.33,18.63,48.75,29.13,9.44,-14.69,-1.33,9.88,18.63,28.33,34.21,0,15.58,0.24
ry_cut_5_p1_opt_disp_struct_3.xyz,Nucleus 23H :,-0.947477,0.352313,1.513532,27.4,39.67,23.58,18.96,23.37,51.07,57.54,0.21,-11.43,-38.55,18.96,23.58,39.67,0,20.71,-0.55
ry_cut_5_p1_opt_disp_struct_3.xyz,Nucleus 25H :,-0.427031,-0.130226,2.334956,26.91,33.78,27.18,19.76,53.55,24.94,3.95,-19.86,2.14,16.0,19.76,27.18,33.78,0,14.02,0.06
ry_cut_5_p1_opt_disp_struct_3.xyz,Nucleus 26H :,-4.289813,1.592061,0.67793,27.27,39.23,23.5,19.09,25.19,47.36,42.99,-24.02,-0.95,-8.75,19.09,23.5,39.23,0,20.14,-0.56
ry_cut_5_p1_opt_disp_struct_3.xyz,Nucleus 27H :,-4.677072,1.168253,1.453516,28.27,35.26,25.98,23.57,38.67,14.01,-14.28,11.91,-3.44,37.93,23.57,25.98,35.26,0,11.69,-0.59
ry_cut_5_p1_opt_disp_struct_3.xyz,Nucleus 28H :,1.293615,-0.661931,-0.335858,27.33,34.63,20.66,26.69,48.05,33.39,29.1,-18.27,-8.44,-1.85,20.66,26.69,34.63,0,13.97,-0.14
ry_cut_5_p1_opt_disp_struct_3.xyz,Nucleus 0C :,-1.060688,7.415309,3.085577,162.46,189.59,140.82,156.96,258.65,237.28,242.52,-68.01,-97.65,-85.42,140.82,156.96,189.59,0,48.77,-0.34
ry_cut_5_p1_opt_disp_struct_3.xyz,Nucleus 3C :,-1.614729,7.820977,2.230773,43.88,175.98,-57.39,13.05,240.97,258.19,275.51,-65.0,-315.63,-262.4,-57.39,13.05,175.98,0,233.37,-0.4
ry_cut_5_p1_opt_disp_struct_3.xyz,Nucleus 4C :,-1.759419,7.041584,3.840866,41.77,-67.63,30.27,162.66,272.79,260.77,241.94,-79.33,-240.75,-330.12,-67.63,30.27,162.66,0,230.29,-0.15
ry_cut_5_p1_opt_disp_struct_3.xyz,Nucleus 6C :,-0.129412,6.363439,2.679817,60.79,-28.69,42.84,168.21,228.33,260.75,273.29,-60.3,-229.12,-290.58,-28.69,42.84,168.21,0,196.9,-0.27
ry_cut_5_p1_opt_disp_struct_3.xyz,Nucleus 8C :,0.846226,6.605953,2.624717,20.07,-70.08,119.28,11.01,234.51,261.04,267.72,-115.95,-330.57,-256.54,-70.08,11.01,119.28,0,189.36,-0.14
ry_cut_5_p1_opt_disp_struct_3.xyz,Nucleus 9C :,-0.478319,5.151175,2.227589,61.92,-27.46,57.22,156.01,235.83,262.97,273.53,-80.37,-214.64,-291.55,-27.46,57.22,156.01,0,183.47,-0.08
ry_cut_5_p1_opt_disp_struct_3.xyz,Nucleus 11C :,0.475828,4.275394,1.89694,43.68,-64.28,36.16,159.16,273.28,258.71,243.56,-84.43,-235.62,-324.45,-64.28,36.16,159.16,0,223.44,-0.1
ry_cut_5_p1_opt_disp_struct_3.xyz,Nucleus 16C :,0.228911,3.350239,1.555305,154.99,188.64,130.41,145.93,268.64,213.29,203.06,-56.9,-85.5,-77.61,130.41,145.93,188.64,0,58.23,-0.47
ry_cut_5_p1_opt_disp_struct_3.xyz,Nucleus 21C :,-1.755775,4.784027,2.088599,20.58,-35.82,-17.67,115.24,267.38,264.81,236.17,-301.81,-283.84,-120.94,-35.82,-17.67,115.24,0,151.06,-0.76
ry_cut_5_p1_opt_disp_struct_3.xyz,Nucleus 19N :,-2.496854,5.462614,2.138951,168.46,100.84,223.63,180.91,345.3,330.27,285.84,-232.18,-120.0,-103.85,100.84,180.91,223.63,0,122.79,0.3
ry_cut_5_p1_opt_disp_struct_3.xyz,Nucleus 22N :,-1.977213,3.855409,1.751123,173.28,113.47,231.19,175.19,320.79,332.78,336.12,-212.02,-103.6,-154.21,113.47,175.19,231.19,0,117.72,0.05
ry_cut_5_p1_opt_disp_struct_3.xyz,Nucleus 24N :,-0.484536,8.22398,3.534933,173.33,113.94,210.91,195.13,296.85,337.29,326.19,-213.1,-127.24,-100.03,113.94,195.13,210.91,0,96.97,0.67
ry_cut_5_p1_opt_disp_struct_3.xyz,Nucleus 13O :,1.430072,4.434222,2.173648,209.3,253.45,215.39,159.06,333.59,407.66,388.82,-231.93,-149.54,-120.71,159.06,215.39,253.45,0,94.39,0.19
ry_cut_5_p1_opt_disp_struct_4.xyz,Nucleus 1H :,1.193846,0.297437,0.18398,29.31,34.26,28.71,24.95,44.49,30.6,28.51,-11.0,-0.07,-4.61,24.95,28.71,34.26,0,9.31,-0.19
ry_cut_5_p1_opt_disp_struct_4.xyz,Nucleus 2H :,1.689576,0.189735,1.152646,29.17,34.21,28.32,24.99,45.39,30.24,27.92,-11.87,-0.04,-4.11,24.99,28.32,34.21,0,9.22,-0.28
ry_cut_5_p1_opt_disp_struct_4.xyz,Nucleus 5H :,1.740076,1.037401,-0.408976,23.63,27.78,22.18,20.93,49.16,32.55,29.52,-27.08,-4.79,-8.48,20.93,22.18,27.78,0,6.85,-0.64
ry_cut_5_p1_opt_disp_struct_4.xyz,Nucleus 7H :,-0.254159,0.663823,0.33625,24.03,27.04,23.83,21.22,47.92,31.55,16.66,-24.3,-4.64,4.91,21.22,23.83,27.04,0,5.82,-0.1
ry_cut_5_p1_opt_disp_struct_4.xyz,Nucleus 10H :,-0.946704,1.260714,-0.725917,24.44,27.65,23.92,21.74,49.38,31.68,24.36,-25.86,-4.39,-1.87,21.74,23.92,27.65,0,5.91,-0.26
ry_cut_5_p1_opt_disp_struct_4.xyz,Nucleus 12H :,-0.428341,1.486864,-1.65213,23.8,27.83,22.52,21.06,48.81,32.72,29.86,-26.42,-4.96,-8.6,21.06,22.52,27.83,0,6.77,-0.57
ry_cut_5_p1_opt_disp_struct_4.xyz,Nucleus 14H :,-2.301213,1.574533,-0.599257,27.02,36.09,25.55,19.41,47.61,29.69,11.2,8.75,-4.21,-11.98,19.41,25.55,36.09,0,16.68,-0.26
ry_cut_5_p1_opt_disp_struct_4.xyz,Nucleus 15H :,-2.851624,2.032776,-1.414033,28.56,35.01,24.99,25.68,41.35,30.73,28.26,-8.75,-3.35,-2.57,24.99,25.68,35.01,0,10.02,-0.86
ry_cut_5_p1_opt_disp_struct_4.xyz,Nucleus 17H :,-2.967148,1.272311,0.581726,28.61,35.13,24.17,26.54,39.98,17.88,-1.58,-5.89,7.07,28.37,24.17,26.54,35.13,0,10.96,-0.57
ry_cut_5_p1_opt_disp_struct_4.xyz,Nucleus 18H :,-2.304713,0.657188,1.63869,28.59,34.43,24.36,26.98,38.53,18.29,-2.19,-5.01,7.45,28.7,24.36,26.98,34.43,0,10.07,-0.48
ry_cut_5_p1_opt_disp_struct_4.xyz,Nucleus 20H :,-2.837305,0.412789,2.554049,27.01,34.13,28.26,18.65,48.91,28.93,8.08,-14.94,-1.18,11.24,18.65,28.26,34.13,0,15.48,0.24
ry_cut_5_p1_opt_disp_struct_4.xyz,Nucleus 23H :,-0.947477,0.352313,1.513532,27.28,38.85,23.77,19.22,24.2,50.13,59.88,-0.41,-11.32,-40.64,19.22,23.77,38.85,0,19.63,-0.54
ry_cut_5_p1_opt_disp_struct_4.xyz,Nucleus 25H :,-0.427031,-0.130226,2.334956,26.86,33.79,27.01,19.79,53.98,24.96,3.81,-20.29,1.96,16.18,19.79,27.01,33.79,0,14.0,0.03
ry_cut_5_p1_opt_disp_struct_4.xyz,Nucleus 26H :,-4.289813,1.592061,0.67793,27.15,38.44,23.71,19.29,26.19,46.97,44.93,-26.13,-1.74,-8.78,19.29,23.71,38.44,0,19.15,-0.54
ry_cut_5_p1_opt_disp_struct_4.xyz,Nucleus 27H :,-4.677072,1.168253,1.453516,28.24,35.21,25.97,23.55,38.61,13.68,-15.7,12.24,-3.43,39.34,23.55,25.97,35.21,0,11.66,-0.58
ry_cut_5_p1_opt_disp_struct_4.xyz,Nucleus 28H :,1.293615,-0.661931,-0.335858,27.27,34.65,20.69,26.47,48.32,33.59,28.8,-18.61,-8.54,-1.73,20.69,26.47,34.65,0,13.96,-0.17
ry_cut_5_p1_opt_disp_struct_4.xyz,Nucleus 0C :,-1.001922,7.6415,3.174371,162.36,189.49,140.64,156.94,258.38,237.43,242.28,-67.82,-97.99,-85.21,140.64,156.94,189.49,0,48.85,-0.33
ry_cut_5_p1_opt_disp_struct_4.xyz,Nucleus 3C :,-1.555963,8.047168,2.319567,43.75,175.72,-57.94,13.46,240.68,259.0,275.28,-64.96,-317.0,-261.76,-57.94,13.46,175.72,0,233.66,-0.39
ry_cut_5_p1_opt_disp_struct_4.xyz,Nucleus 4C :,-1.700653,7.267775,3.929659,42.18,-67.26,31.37,162.43,272.67,260.77,241.91,-79.52,-239.73,-329.57,-67.26,31.37,162.43,0,229.69,-0.14
ry_cut_5_p1_opt_disp_struct_4.xyz,Nucleus 6C :,-0.070646,6.58963,2.76861,61.09,-28.5,43.77,167.99,228.05,273.21,260.82,-60.21,-228.22,-290.39,-28.5,43.77,167.99,0,196.49,-0.26
ry_cut_5_p1_opt_disp_struct_4.xyz,Nucleus 8C :,0.904992,6.832144,2.713511,19.93,-70.59,119.1,11.27,234.27,261.19,267.97,-115.64,-331.5,-256.5,-70.59,11.27,119.1,0,189.69,-0.14
ry_cut_5_p1_opt_disp_struct_4.xyz,Nucleus 9C :,-0.419553,5.377366,2.316382,62.09,-27.4,57.97,155.7,235.7,263.09,273.7,-80.46,-214.1,-291.66,-27.4,57.97,155.7,0,183.1,-0.07
ry_cut_5_p1_opt_disp_struct_4.xyz,Nucleus 11C :,0.534593,4.501585,1.985733,43.91,-64.13,36.97,158.88,273.22,258.85,243.4,-84.55,-234.92,-324.28,-64.13,36.97,158.88,0,223.01,-0.09
ry_cut_5_p1_opt_disp_struct_4.xyz,Nucleus 16C :,0.287677,3.57643,1.644098,154.97,188.62,130.34,145.95,269.29,212.76,202.06,-55.89,-85.48,-77.83,130.34,145.95,188.62,0,58.28,-0.46
ry_cut_5_p1_opt_disp_struct_4.xyz,Nucleus 21C :,-1.697009,5.010218,2.177393,20.52,-36.14,-17.41,115.12,267.8,264.53,236.69,-302.62,-283.26,-121.59,-36.14,-17.41,115.12,0,151.26,-0.75
ry_cut_5_p1_opt_disp_struct_4.xyz,Nucleus 19N :,-2.438088,5.688805,2.227744,167.98,99.99,222.86,181.09,345.55,330.21,283.99,-233.29,-120.59,-101.92,99.99,181.09,222.86,0,122.87,0.32
ry_cut_5_p1_opt_disp_struct_4.xyz,Nucleus 22N :,-1.918447,4.0816,1.839916,173.82,113.63,232.58,175.24,321.12,333.81,336.72,-212.02,-102.34,-155.85,113.63,175.24,232.58,0,118.95,0.04
ry_cut_5_p1_opt_disp_struct_4.xyz,Nucleus 24N :,-0.425771,8.450171,3.623727,173.78,114.07,212.21,195.07,298.05,338.02,326.15,-212.86,-126.68,-101.31,114.07,195.07,212.21,0,98.14,0.65
ry_cut_5_p1_opt_disp_struct_4.xyz,Nucleus 13O :,1.488838,4.660413,2.262441,209.62,254.17,215.04,159.65,333.63,407.58,389.15,-231.7,-148.67,-121.12,159.65,215.04,254.17,0,94.52,0.17
ry_cut_5_p1_opt_disp_struct_5.xyz,Nucleus 1H :,1.193846,0.297437,0.18398,29.31,34.27,28.75,24.92,44.38,30.61,28.4,-10.86,-0.04,-4.55,24.92,28.75,34.27,0,9.35,-0.18
ry_cut_5_p1_opt_disp_struct_5.xyz,Nucleus 2H :,1.689576,0.189735,1.152646,29.18,34.24,28.36,24.95,45.29,30.19,27.81,-11.73,0.01,-4.03,24.95,28.36,34.24,0,9.29,-0.26
ry_cut_5_p1_opt_disp_struct_5.xyz,Nucleus 5H :,1.740076,1.037401,-0.408976,23.66,27.86,22.15,20.98,49.02,32.55,29.51,-26.92,-4.69,-8.47,20.98,22.15,27.86,0,6.88,-0.66
ry_cut_5_p1_opt_disp_struct_5.xyz,Nucleus 7H :,-0.254159,0.663823,0.33625,24.06,27.13,23.81,21.25,47.84,31.63,16.59,-24.21,-4.63,4.97,21.25,23.81,27.13,0,5.88,-0.13
ry_cut_5_p1_opt_disp_struct_5.xyz,Nucleus 10H :,-0.946704,1.260714,-0.725917,24.47,27.75,23.89,21.77,49.34,31.85,24.28,-25.79,-4.41,-1.86,21.77,23.89,27.75,0,5.98,-0.29
ry_cut_5_p1_opt_disp_struct_5.xyz,Nucleus 12H :,-0.428341,1.486864,-1.65213,23.84,27.92,22.49,21.1,48.66,32.78,29.84,-26.25,-4.93,-8.59,21.1,22.49,27.92,0,6.82,-0.59
ry_cut_5_p1_opt_disp_struct_5.xyz,Nucleus 14H :,-2.301213,1.574533,-0.599257,27.06,36.12,25.62,19.44,47.71,29.79,11.27,8.68,-4.23,-12.05,19.44,25.62,36.12,0,16.68,-0.26
ry_cut_5_p1_opt_disp_struct_5.xyz,Nucleus 15H :,-2.851624,2.032776,-1.414033,28.58,34.96,25.04,25.73,41.38,30.81,28.26,-8.85,-3.35,-2.53,25.04,25.73,34.96,0,9.92,-0.86
ry_cut_5_p1_opt_disp_struct_5.xyz,Nucleus 17H :,-2.967148,1.272311,0.581726,28.59,35.11,24.17,26.5,40.05,17.81,-2.5,-6.02,7.12,29.33,24.17,26.5,35.11,0,10.94,-0.57
ry_cut_5_p1_opt_disp_struct_5.xyz,Nucleus 18H :,-2.304713,0.657188,1.63869,28.57,34.42,24.36,26.94,38.56,18.21,-3.04,-5.1,7.48,29.61,24.36,26.94,34.42,0,10.06,-0.49
ry_cut_5_p1_opt_disp_struct_5.xyz,Nucleus 20H :,-2.837305,0.412789,2.554049,26.98,34.07,28.2,18.66,49.08,28.75,6.73,-15.18,-1.03,12.58,18.66,28.2,34.07,0,15.41,0.24
ry_cut_5_p1_opt_disp_struct_5.xyz,Nucleus 23H :,-0.947477,0.352313,1.513532,27.16,38.18,23.87,19.42,24.85,49.3,62.11,-0.92,-11.19,-42.68,19.42,23.87,38.18,0,18.76,-0.53
ry_cut_5_p1_opt_disp_struct_5.xyz,Nucleus 25H :,-0.427031,-0.130226,2.334956,26.81,33.77,26.86,19.81,54.43,24.99,3.69,-20.76,1.78,16.31,19.81,26.86,33.77,0,13.96,0.01
ry_cut_5_p1_opt_disp_struct_5.xyz,Nucleus 26H :,-4.289813,1.592061,0.67793,27.02,37.79,23.83,19.45,27.01,48.1,45.41,-28.2,-2.46,-8.8,19.45,23.83,37.79,0,18.34,-0.52
ry_cut_5_p1_opt_disp_struct_5.xyz,Nucleus 27H :,-4.677072,1.168253,1.453516,28.22,35.16,25.96,23.55,38.55,13.35,-17.11,12.56,-3.43,40.75,23.55,25.96,35.16,0,11.61,-0.58
ry_cut_5_p1_opt_disp_struct_5.xyz,Nucleus 28H :,1.293615,-0.661931,-0.335858,27.21,34.65,20.7,26.29,48.6,33.75,28.52,-18.95,-8.64,-1.63,20.7,26.29,34.65,0,13.95,-0.2
ry_cut_5_p1_opt_disp_struct_5.xyz,Nucleus 0C :,-0.943156,7.867691,3.263164,162.28,189.41,140.49,156.94,258.16,237.63,242.09,-67.66,-98.37,-85.03,140.49,156.94,189.41,0,48.92,-0.33
ry_cut_5_p1_opt_disp_struct_5.xyz,Nucleus 3C :,-1.497198,8.273359,2.40836,43.67,175.53,-58.33,13.82,240.34,259.73,274.87,-64.81,-318.12,-260.99,-58.33,13.82,175.53,0,233.86,-0.38
ry_cut_5_p1_opt_disp_struct_5.xyz,Nucleus 4C :,-1.641887,7.493966,4.018453,42.45,-67.03,32.17,162.2,272.51,260.75,241.99,-79.82,-238.99,-329.11,-67.03,32.17,162.2,0,229.23,-0.13
ry_cut_5_p1_opt_disp_struct_5.xyz,Nucleus 6C :,-0.01188,6.815821,2.857403,61.25,-28.42,44.41,167.77,227.86,273.17,260.83,-60.22,-227.61,-290.26,-28.42,44.41,167.77,0,196.19,-0.26
ry_cut_5_p1_opt_disp_struct_5.xyz,Nucleus 8C :,0.963758,7.058335,2.802304,19.84,-70.94,118.95,11.52,234.0,261.36,268.23,-115.34,-332.22,-256.51,-70.94,11.52,118.95,0,189.89,-0.13
ry_cut_5_p1_opt_disp_struct_5.xyz,Nucleus 9C :,-0.360788,5.603557,2.405176,62.17,-27.42,58.49,155.44,235.6,263.19,273.83,-80.59,-213.75,-291.77,-27.42,58.49,155.44,0,182.86,-0.06
ry_cut_5_p1_opt_disp_struct_5.xyz,Nucleus 11C :,0.593359,4.727776,2.074527,44.04,-64.05,37.53,158.64,273.11,258.93,243.4,-84.8,-234.43,-324.09,-64.05,37.53,158.64,0,222.69,-0.09
ry_cut_5_p1_opt_disp_struct_5.xyz,Nucleus 16C :,0.346443,3.802621,1.732891,154.95,188.6,130.28,145.96,269.93,212.23,201.06,-54.89,-85.52,-77.97,130.28,145.96,188.6,0,58.32,-0.46
ry_cut_5_p1_opt_disp_struct_5.xyz,Nucleus 21C :,-1.638243,5.236409,2.266186,20.48,-36.38,-17.25,115.07,268.31,264.25,237.2,-303.37,-282.8,-122.15,-36.38,-17.25,115.07,0,151.45,-0.75
ry_cut_5_p1_opt_disp_struct_5.xyz,Nucleus 19N :,-2.379322,5.914995,2.316538,167.62,99.38,222.25,181.23,345.83,330.16,282.19,-234.2,-121.08,-100.05,99.38,181.23,222.25,0,122.87,0.33
ry_cut_5_p1_opt_disp_struct_5.xyz,Nucleus 22N :,-1.859681,4.30779,1.92871,174.03,113.63,233.3,175.16,321.32,334.48,337.65,-101.78,-212.18,-157.4,113.63,175.16,233.3,0,119.67,0.03
ry_cut_5_p1_opt_disp_struct_5.xyz,Nucleus 24N :,-0.367005,8.676362,3.71252,173.98,114.08,212.92,194.94,338.76,299.13,326.11,-212.78,-126.73,-102.54,114.08,194.94,212.92,0,98.84,0.64
ry_cut_5_p1_opt_disp_struct_5.xyz,Nucleus 13O :,1.547603,4.886604,2.351235,209.87,254.76,214.67,160.19,333.64,407.55,389.39,-231.46,-147.97,-121.54,160.19,214.67,254.76,0,94.57,0.15
ry_cut_5_p1_opt_disp_struct_6.xyz,Nucleus 1H :,1.193846,0.297437,0.18398,29.32,34.28,28.78,24.89,44.25,30.6,28.32,-10.73,-0.01,-4.48,24.89,28.78,34.28,0,9.39,-0.17
ry_cut_5_p1_opt_disp_struct_6.xyz,Nucleus 2H :,1.689576,0.189735,1.152646,29.18,34.26,28.39,24.9,45.18,30.13,27.73,-11.59,0.06,-3.95,24.9,28.39,34.26,0,9.36,-0.25
ry_cut_5_p1_opt_disp_struct_6.xyz,Nucleus 5H :,1.740076,1.037401,-0.408976,23.7,27.94,22.15,21.01,48.88,32.53,29.48,-26.76,-4.58,-8.45,21.01,22.15,27.94,0,6.93,-0.67
ry_cut_5_p1_opt_disp_struct_6.xyz,Nucleus 7H :,-0.254159,0.663823,0.33625,24.1,27.21,23.8,21.28,47.77,31.7,16.5,-24.11,-4.6,5.04,21.28,23.8,27.21,0,5.93,-0.15
ry_cut_5_p1_opt_disp_struct_6.xyz,Nucleus 10H :,-0.946704,1.260714,-0.725917,24.5,27.83,23.87,21.8,49.28,31.98,24.21,-25.7,-4.42,-1.86,21.8,23.87,27.83,0,6.03,-0.31
ry_cut_5_p1_opt_disp_struct_6.xyz,Nucleus 12H :,-0.428341,1.486864,-1.65213,23.87,28.0,22.48,21.12,48.49,32.81,29.82,-26.06,-4.88,-8.58,21.12,22.48,28.0,0,6.88,-0.61
ry_cut_5_p1_opt_disp_struct_6.xyz,Nucleus 14H :,-2.301213,1.574533,-0.599257,27.09,36.14,25.68,19.45,47.79,29.88,11.33,8.63,-4.24,-12.1,19.45,25.68,36.14,0,16.69,-0.25
ry_cut_5_p1_opt_disp_struct_6.xyz,Nucleus 15H :,-2.851624,2.032776,-1.414033,28.59,34.92,25.08,25.78,41.42,30.88,28.24,-8.96,-3.33,-2.47,25.08,25.78,34.92,0,9.84,-0.86
ry_cut_5_p1_opt_disp_struct_6.xyz,Nucleus 17H :,-2.967148,1.272311,0.581726,28.58,35.1,24.17,26.48,40.13,17.74,-3.43,-6.15,7.16,30.29,24.17,26.48,35.1,0,10.93,-0.58
ry_cut_5_p1_opt_disp_struct_6.xyz,Nucleus 18H :,-2.304713,0.657188,1.63869,28.56,34.4,24.36,26.91,38.59,18.13,-3.89,-5.2,7.51,30.52,24.36,26.91,34.4,0,10.04,-0.49
ry_cut_5_p1_opt_disp_struct_6.xyz,Nucleus 20H :,-2.837305,0.412789,2.554049,26.94,34.02,28.15,18.66,49.26,28.58,5.38,-15.42,-0.88,13.91,18.66,28.15,34.02,0,15.36,0.24
ry_cut_5_p1_opt_disp_struct_6.xyz,Nucleus 23H :,-0.947477,0.352313,1.513532,27.04,37.63,23.93,19.56,25.45,48.58,64.24,-1.41,-11.06,-44.67,19.56,23.93,37.63,0,18.07,-0.52
ry_cut_5_p1_opt_disp_struct_6.xyz,Nucleus 25H :,-0.427031,-0.130226,2.334956,26.77,33.76,26.73,19.83,54.88,25.03,3.61,-21.23,1.62,16.41,19.83,26.73,33.76,0,13.93,-0.01
ry_cut_5_p1_opt_disp_struct_6.xyz,Nucleus 26H :,-4.289813,1.592061,0.67793,26.91,37.25,23.91,19.57,27.73,45.11,50.06,-30.23,-3.15,-8.79,19.57,23.91,37.25,0,17.68,-0.51
ry_cut_5_p1_opt_disp_struct_6.xyz,Nucleus 27H :,-4.677072,1.168253,1.453516,28.21,35.11,25.96,23.55,38.5,13.04,-18.51,12.87,-3.42,42.14,23.55,25.96,35.11,0,11.56,-0.58
ry_cut_5_p1_opt_disp_struct_6.xyz,Nucleus 28H :,1.293615,-0.661931,-0.335858,27.16,34.65,20.71,26.13,48.86,33.9,28.27,-19.27,-8.74,-1.53,20.71,26.13,34.65,0,13.94,-0.22
ry_cut_5_p1_opt_disp_struct_6.xyz,Nucleus 0C :,-0.88439,8.093882,3.351958,162.22,189.36,140.36,156.95,257.97,237.86,241.91,-67.51,-98.72,-84.84,140.36,156.95,189.36,0,49.0,-0.32
ry_cut_5_p1_opt_disp_struct_6.xyz,Nucleus 3C :,-1.438432,8.499549,2.497153,43.65,175.37,-58.59,14.17,240.01,260.26,274.35,-64.65,-318.91,-260.13,-58.59,14.17,175.37,0,233.96,-0.38
ry_cut_5_p1_opt_disp_struct_6.xyz,Nucleus 4C :,-1.583121,7.720157,4.107246,42.64,-66.85,32.77,162.0,272.32,260.73,242.08,-80.11,-238.39,-328.72,-66.85,32.77,162.0,0,228.85,-0.13
ry_cut_5_p1_opt_disp_struct_6.xyz,Nucleus 6C :,0.046886,7.042012,2.946197,61.36,-28.38,44.88,167.59,227.73,273.12,260.83,-60.27,-227.16,-290.17,-28.38,44.88,167.59,0,195.97,-0.25
ry_cut_5_p1_opt_disp_struct_6.xyz,Nucleus 8C :,1.022524,7.284525,2.891097,19.79,-71.18,118.83,11.73,233.77,261.49,268.41,-115.14,-332.69,-256.46,-71.18,11.73,118.83,0,190.01,-0.13
ry_cut_5_p1_opt_disp_struct_6.xyz,Nucleus 9C :,-0.302022,5.829748,2.493969,62.2,-27.45,58.85,155.2,235.52,263.26,273.91,-80.72,-213.5,-291.86,-27.45,58.85,155.2,0,182.65,-0.06
ry_cut_5_p1_opt_disp_struct_6.xyz,Nucleus 11C :,0.652125,4.953967,2.16332,44.12,-64.01,37.93,158.43,272.95,258.98,243.46,-85.07,-234.05,-323.91,-64.01,37.93,158.43,0,222.44,-0.08
ry_cut_5_p1_opt_disp_struct_6.xyz,Nucleus 16C :,0.405209,4.028812,1.821685,154.93,188.59,130.23,145.96,270.56,211.73,200.07,-53.9,-85.63,-78.05,130.23,145.96,188.59,0,58.36,-0.46
ry_cut_5_p1_opt_disp_struct_6.xyz,Nucleus 21C :,-1.579477,5.4626,2.35498,20.44,-36.57,-17.17,115.06,268.83,263.98,237.67,-304.06,-282.47,-122.63,-36.57,-17.17,115.06,0,151.63,-0.74
ry_cut_5_p1_opt_disp_struct_6.xyz,Nucleus 19N :,-2.320556,6.141186,2.405331,167.33,98.9,221.75,181.34,346.14,330.12,280.44,-234.98,-121.49,-98.23,98.9,181.34,221.75,0,122.85,0.34
ry_cut_5_p1_opt_disp_struct_6.xyz,Nucleus 22N :,-1.800915,4.533981,2.017503,174.12,113.58,233.69,175.08,321.37,334.83,338.71,-101.5,-212.35,-158.72,113.58,175.08,233.69,0,120.11,0.02
ry_cut_5_p1_opt_disp_struct_6.xyz,Nucleus 24N :,-0.308239,8.902553,3.801314,174.06,114.06,213.32,194.81,339.41,300.04,326.08,-212.72,-127.0,-103.61,114.06,194.81,213.32,0,99.26,0.63
ry_cut_5_p1_opt_disp_struct_6.xyz,Nucleus 13O :,1.606369,5.112795,2.440028,210.09,255.27,214.33,160.68,333.71,407.57,389.54,-231.2,-147.37,-121.96,160.68,214.33,255.27,0,94.59,0.13
ry_cut_5_p1_opt_disp_struct_7.xyz,Nucleus 1H :,1.193846,0.297437,0.18398,29.32,34.3,28.81,24.86,44.13,30.57,28.25,-10.59,0.01,-4.4,24.86,28.81,34.3,0,9.44,-0.16
ry_cut_5_p1_opt_disp_struct_7.xyz,Nucleus 2H :,1.689576,0.189735,1.152646,29.19,34.29,28.42,24.86,45.07,30.06,27.66,-11.46,0.1,-3.86,24.86,28.42,34.29,0,9.43,-0.24
ry_cut_5_p1_opt_disp_struct_7.xyz,Nucleus 5H :,1.740076,1.037401,-0.408976,23.73,28.0,22.16,21.02,48.73,32.48,29.46,-26.59,-4.47,-8.43,21.02,22.16,28.0,0,6.98,-0.67
ry_cut_5_p1_opt_disp_struct_7.xyz,Nucleus 7H :,-0.254159,0.663823,0.33625,24.12,27.27,23.8,21.3,47.68,31.74,16.4,-24.0,-4.57,5.11,21.3,23.8,27.27,0,5.97,-0.16
ry_cut_5_p1_opt_disp_struct_7.xyz,Nucleus 10H :,-0.946704,1.260714,-0.725917,24.53,27.89,23.87,21.82,49.2,32.08,24.14,-25.59,-4.41,-1.84,21.82,23.87,27.89,0,6.07,-0.33
ry_cut_5_p1_opt_disp_struct_7.xyz,Nucleus 12H :,-0.428341,1.486864,-1.65213,23.89,28.06,22.49,21.13,48.33,32.82,29.79,-25.87,-4.81,-8.57,21.13,22.49,28.06,0,6.93,-0.61
ry_cut_5_p1_opt_disp_struct_7.xyz,Nucleus 14H :,-2.301213,1.574533,-0.599257,27.13,36.17,25.74,19.47,47.86,29.96,11.37,8.58,-4.25,-12.14,19.47,25.74,36.17,0,16.7,-0.25
ry_cut_5_p1_opt_disp_struct_7.xyz,Nucleus 15H :,-2.851624,2.032776,-1.414033,28.61,34.89,25.12,25.82,41.46,30.94,28.21,-9.06,-3.31,-2.41,25.12,25.82,34.89,0,9.77,-0.86
ry_cut_5_p1_opt_disp_struct_7.xyz,Nucleus 17H :,-2.967148,1.272311,0.581726,28.57,35.09,24.16,26.45,40.21,17.67,-4.35,-6.28,7.2,31.25,24.16,26.45,35.09,0,10.93,-0.58
ry_cut_5_p1_opt_disp_struct_7.xyz,Nucleus 18H :,-2.304713,0.657188,1.63869,28.54,34.39,24.36,26.87,38.63,18.06,-4.74,-5.3,7.54,31.43,24.36,26.87,34.39,0,10.03,-0.5
ry_cut_5_p1_opt_disp_struct_7.xyz,Nucleus 20H :,-2.837305,0.412789,2.554049,26.91,33.98,28.1,18.66,49.44,28.41,4.04,-15.65,-0.74,15.24,18.66,28.1,33.98,0,15.32,0.23
ry_cut_5_p1_opt_disp_struct_7.xyz,Nucleus 23H :,-0.947477,0.352313,1.513532,26.95,37.18,23.98,19.68,26.02,47.95,66.28,-1.88,-10.94,-46.59,19.68,23.98,37.18,0,17.5,-0.51
ry_cut_5_p1_opt_disp_struct_7.xyz,Nucleus 25H :,-0.427031,-0.130226,2.334956,26.73,33.74,26.62,19.84,55.33,25.06,3.56,-21.7,1.47,16.48,19.84,26.62,33.74,0,13.9,-0.02
ry_cut_5_p1_opt_disp_struct_7.xyz,Nucleus 26H :,-4.289813,1.592061,0.67793,26.82,36.8,23.97,19.68,28.39,44.78,52.07,-32.19,-3.8,-8.79,19.68,23.97,36.8,0,17.12,-0.5
ry_cut_5_p1_opt_disp_struct_7.xyz,Nucleus 27H :,-4.677072,1.168253,1.453516,28.2,35.07,25.96,23.56,38.46,12.73,-19.9,13.17,-3.42,43.53,23.56,25.96,35.07,0,11.51,-0.58
ry_cut_5_p1_opt_disp_struct_7.xyz,Nucleus 28H :,1.293615,-0.661931,-0.335858,27.12,34.64,20.72,26.0,49.12,34.06,28.04,-19.59,-8.84,-1.44,20.72,26.0,34.64,0,13.92,-0.24
ry_cut_5_p1_opt_disp_struct_7.xyz,Nucleus 0C :,-0.825624,8.320073,3.440751,162.18,189.32,140.25,156.97,257.78,238.08,241.72,-67.37,-99.02,-84.63,140.25,156.97,189.32,0,49.07,-0.32
ry_cut_5_p1_opt_disp_struct_7.xyz,Nucleus 3C :,-1.379666,8.72574,2.585947,43.65,175.23,-58.76,14.48,239.73,260.65,273.82,-64.5,-319.46,-259.28,-58.76,14.48,175.23,0,233.99,-0.37
ry_cut_5_p1_opt_disp_struct_7.xyz,Nucleus 4C :,-1.524355,7.946348,4.19604,42.77,-66.72,33.22,161.82,272.11,260.71,242.16,-80.36,-237.9,-328.4,-66.72,33.22,161.82,0,228.54,-0.13
ry_cut_5_p1_opt_disp_struct_7.xyz,Nucleus 6C :,0.105652,7.268203,3.03499,61.42,-28.37,45.22,167.42,227.61,273.05,260.82,-60.32,-226.8,-290.09,-28.37,45.22,167.42,0,195.79,-0.25
ry_cut_5_p1_opt_disp_struct_7.xyz,Nucleus 8C :,1.08129,7.510716,2.979891,19.77,-71.32,118.73,11.91,233.58,261.58,268.49,-115.01,-332.97,-256.37,-71.32,11.91,118.73,0,190.05,-0.12
ry_cut_5_p1_opt_disp_struct_7.xyz,Nucleus 9C :,-0.243256,6.055938,2.582762,62.21,-27.48,59.12,155.0,235.46,263.31,273.94,-80.85,-213.3,-291.92,-27.48,59.12,155.0,0,182.48,-0.05
ry_cut_5_p1_opt_disp_struct_7.xyz,Nucleus 11C :,0.710891,5.180157,2.252113,44.17,-63.98,38.23,158.26,272.78,259.01,243.51,-85.33,-233.73,-323.74,-63.98,38.23,158.26,0,222.24,-0.08
ry_cut_5_p1_opt_disp_struct_7.xyz,Nucleus 16C :,0.463975,4.255003,1.910478,154.91,188.57,130.19,145.96,271.18,211.24,199.09,-85.81,-78.06,-52.92,130.19,145.96,188.57,0,58.38,-0.46
ry_cut_5_p1_opt_disp_struct_7.xyz,Nucleus 21C :,-1.520712,5.688791,2.443773,20.41,-36.72,-17.12,115.07,269.35,263.74,238.08,-304.68,-282.23,-123.04,-36.72,-17.12,115.07,0,151.79,-0.74
ry_cut_5_p1_opt_disp_struct_7.xyz,Nucleus 19N :,-2.26179,6.367377,2.494124,167.1,98.52,221.34,181.44,346.46,330.07,278.73,-235.68,-121.82,-96.46,98.52,181.44,221.34,0,122.82,0.35
ry_cut_5_p1_opt_disp_struct_7.xyz,Nucleus 22N :,-1.74215,4.760172,2.106296,174.13,113.51,233.9,174.99,321.32,335.02,339.75,-101.35,-212.48,-159.86,113.51,174.99,233.9,0,120.39,0.02
ry_cut_5_p1_opt_disp_struct_7.xyz,Nucleus 24N :,-0.249473,9.128743,3.890107,174.11,114.04,213.58,194.7,339.96,300.9,326.08,-212.67,-127.33,-104.61,114.04,194.7,213.58,0,99.54,0.62
ry_cut_5_p1_opt_disp_struct_7.xyz,Nucleus 13O :,1.665135,5.338986,2.528822,210.29,255.72,214.03,161.13,333.82,407.6,389.63,-230.96,-146.84,-122.37,161.13,214.03,255.72,0,94.59,0.12
ry_cut_5_p1_opt_disp_struct_8.xyz,Nucleus 1H :,1.193846,0.297437,0.18398,29.33,34.32,28.83,24.83,44.0,30.52,28.2,-10.46,0.03,-4.31,24.83,28.83,34.32,0,9.49,-0.16
ry_cut_5_p1_opt_disp_struct_8.xyz,Nucleus 2H :,1.689576,0.189735,1.152646,29.19,34.31,28.44,24.82,44.95,29.96,27.61,-11.33,0.14,-3.77,24.82,28.44,34.31,0,9.49,-0.24
ry_cut_5_p1_opt_disp_struct_8.xyz,Nucleus 5H :,1.740076,1.037401,-0.408976,23.75,28.05,22.17,21.03,48.59,32.43,29.43,-26.42,-4.36,-8.42,21.03,22.17,28.05,0,7.02,-0.68
ry_cut_5_p1_opt_disp_struct_8.xyz,Nucleus 7H :,-0.254159,0.663823,0.33625,24.15,27.33,23.8,21.31,47.59,31.76,16.31,-23.88,-4.53,5.19,21.31,23.8,27.33,0,6.02,-0.17
ry_cut_5_p1_opt_disp_struct_8.xyz,Nucleus 10H :,-0.946704,1.260714,-0.725917,24.55,27.95,23.87,21.83,49.11,32.15,24.07,-25.46,-4.39,-1.82,21.83,23.87,27.95,0,6.12,-0.33
ry_cut_5_p1_opt_disp_struct_8.xyz,Nucleus 12H :,-0.428341,1.486864,-1.65213,23.92,28.12,22.5,21.13,48.18,32.8,29.77,-25.69,-4.74,-8.57,21.13,22.5,28.12,0,6.99,-0.61
ry_cut_5_p1_opt_disp_struct_8.xyz,Nucleus 14H :,-2.301213,1.574533,-0.599257,27.15,36.2,25.78,19.48,47.92,30.02,11.4,8.54,-4.26,-12.16,19.48,25.78,36.2,0,16.72,-0.25
ry_cut_5_p1_opt_disp_struct_8.xyz,Nucleus 15H :,-2.851624,2.032776,-1.414033,28.63,34.87,25.16,25.85,41.51,30.98,28.16,-9.15,-3.29,-2.34,25.16,25.85,34.87,0,9.71,-0.86
ry_cut_5_p1_opt_disp_struct_8.xyz,Nucleus 17H :,-2.967148,1.272311,0.581726,28.55,35.07,24.16,26.43,40.29,17.61,-5.27,-6.41,7.24,32.2,24.16,26.43,35.07,0,10.91,-0.58
ry_cut_5_p1_opt_disp_struct_8.xyz,Nucleus 18H :,-2.304713,0.657188,1.63869,28.53,34.38,24.36,26.85,38.67,18.0,-5.59,-5.4,7.57,32.33,24.36,26.85,34.38,0,10.02,-0.5
ry_cut_5_p1_opt_disp_struct_8.xyz,Nucleus 20H :,-2.837305,0.412789,2.554049,26.89,33.94,28.06,18.66,49.63,28.25,2.71,-15.88,-0.6,16.56,18.66,28.06,33.94,0,15.28,0.23
ry_cut_5_p1_opt_disp_struct_8.xyz,Nucleus 23H :,-0.947477,0.352313,1.513532,26.87,36.81,24.01,19.78,26.55,47.41,68.25,-2.32,-10.82,-48.46,19.78,24.01,36.81,0,17.03,-0.5
ry_cut_5_p1_opt_disp_struct_8.xyz,Nucleus 25H :,-0.427031,-0.130226,2.334956,26.7,33.73,26.51,19.86,55.76,25.1,3.54,-22.15,1.34,16.51,19.86,26.51,33.73,0,13.87,-0.04
ry_cut_5_p1_opt_disp_struct_8.xyz,Nucleus 26H :,-4.289813,1.592061,0.67793,26.75,36.43,24.03,19.78,28.99,44.5,54.01,-34.07,-4.41,-8.78,19.78,24.03,36.43,0,16.65,-0.49
ry_cut_5_p1_opt_disp_struct_8.xyz,Nucleus 27H :,-4.677072,1.168253,1.453516,28.18,35.03,25.95,23.56,38.42,12.43,-21.27,13.48,-3.42,44.91,23.56,25.95,35.03,0,11.47,-0.58
ry_cut_5_p1_opt_disp_struct_8.xyz,Nucleus 28H :,1.293615,-0.661931,-0.335858,27.08,34.63,20.73,25.88,49.38,34.21,27.84,-19.9,-8.93,-1.35,20.73,25.88,34.63,0,13.9,-0.26
ry_cut_5_p1_opt_disp_struct_8.xyz,Nucleus 0C :,-0.766859,8.546263,3.529544,162.15,189.3,140.17,156.99,257.61,238.29,241.53,-67.25,-99.29,-84.43,140.17,156.99,189.3,0,49.13,-0.32
ry_cut_5_p1_opt_disp_struct_8.xyz,Nucleus 3C :,-1.3209,8.951931,2.67474,43.68,175.12,-58.86,14.77,239.5,260.93,273.33,-64.39,-319.84,-258.5,-58.86,14.77,175.12,0,233.98,-0.37
ry_cut_5_p1_opt_disp_struct_8.xyz,Nucleus 4C :,-1.46559,8.172539,4.284833,42.88,-66.62,33.58,161.67,271.92,260.7,242.21,-80.57,-237.48,-328.14,-66.62,33.58,161.67,0,228.29,-0.12
ry_cut_5_p1_opt_disp_struct_8.xyz,Nucleus 6C :,0.164418,7.494394,3.123784,61.47,-28.36,45.5,167.28,227.52,272.98,260.81,-60.36,-226.49,-290.04,-28.36,45.5,167.28,0,195.64,-0.24
ry_cut_5_p1_opt_disp_struct_8.xyz,Nucleus 8C :,1.140055,7.736907,3.068684,19.76,-71.41,118.64,12.06,233.44,261.64,268.53,-114.95,-333.14,-256.25,-71.41,12.06,118.64,0,190.05,-0.12
ry_cut_5_p1_opt_disp_struct_8.xyz,Nucleus 9C :,-0.18449,6.282129,2.671556,62.22,-27.51,59.33,154.83,235.42,263.33,273.95,-80.97,-213.14,-291.95,-27.51,59.33,154.83,0,182.34,-0.05
ry_cut_5_p1_opt_disp_struct_8.xyz,Nucleus 11C :,0.769657,5.406348,2.340907,44.2,-63.96,38.46,158.1,272.61,259.04,243.57,-85.55,-233.45,-323.61,-63.96,38.46,158.1,0,222.06,-0.08
ry_cut_5_p1_opt_disp_struct_8.xyz,Nucleus 16C :,0.52274,4.481193,1.999272,154.89,188.55,130.15,145.97,271.79,210.76,198.13,-86.04,-78.0,-51.96,130.15,145.97,188.55,0,58.4,-0.46
ry_cut_5_p1_opt_disp_struct_8.xyz,Nucleus 21C :,-1.461946,5.914982,2.532567,20.38,-36.83,-17.11,115.08,269.85,263.53,238.44,-305.24,-282.05,-123.38,-36.83,-17.11,115.08,0,151.91,-0.74
ry_cut_5_p1_opt_disp_struct_8.xyz,Nucleus 19N :,-2.203025,6.593568,2.582918,166.91,98.21,221.0,181.52,346.79,330.02,277.06,-236.32,-122.1,-94.74,98.21,181.52,221.0,0,122.79,0.36
ry_cut_5_p1_opt_disp_struct_8.xyz,Nucleus 22N :,-1.683384,4.986363,2.19509,174.12,113.43,234.03,174.91,321.21,335.13,340.74,-101.26,-212.58,-160.88,113.43,174.91,234.03,0,120.6,0.02
ry_cut_5_p1_opt_disp_struct_8.xyz,Nucleus 24N :,-0.190707,9.354934,3.978901,174.12,114.01,213.75,194.6,340.43,301.71,326.09,-212.6,-127.69,-105.58,114.01,194.6,213.75,0,99.74,0.62
ry_cut_5_p1_opt_disp_struct_8.xyz,Nucleus 13O :,1.723901,5.565177,2.617615,210.47,256.13,213.77,161.51,333.97,407.65,389.67,-230.77,-146.37,-122.75,161.51,213.77,256.13,0,94.62,0.1
ry_cut_5_p1_opt_disp_struct_9.xyz,Nucleus 1H :,1.193846,0.297437,0.18398,29.33,34.34,28.85,24.81,43.88,30.46,28.16,-10.34,0.05,-4.22,24.81,28.85,34.34,0,9.53,-0.15
ry_cut_5_p1_opt_disp_struct_9.xyz,Nucleus 2H :,1.689576,0.189735,1.152646,29.19,34.34,28.46,24.78,44.84,29.86,27.57,-11.2,0.18,-3.67,24.78,28.46,34.34,0,9.56,-0.23
ry_cut_5_p1_opt_disp_struct_9.xyz,Nucleus 5H :,1.740076,1.037401,-0.408976,23.77,28.09,22.19,21.03,48.46,32.36,29.4,-26.26,-4.25,-8.4,21.03,22.19,28.09,0,7.06,-0.67
ry_cut_5_p1_opt_disp_struct_9.xyz,Nucleus 7H :,-0.254159,0.663823,0.33625,24.16,27.37,23.8,21.31,47.5,31.77,16.22,-23.76,-4.49,5.26,21.31,23.8,27.37,0,6.06,-0.18
ry_cut_5_p1_opt_disp_struct_9.xyz,Nucleus 10H :,-0.946704,1.260714,-0.725917,24.57,27.99,23.88,21.84,49.01,32.2,24.0,-25.34,-4.37,-1.8,21.84,23.88,27.99,0,6.15,-0.34
ry_cut_5_p1_opt_disp_struct_9.xyz,Nucleus 12H :,-0.428341,1.486864,-1.65213,23.94,28.16,22.52,21.13,48.03,32.78,29.75,-25.52,-4.67,-8.57,21.13,22.52,28.16,0,7.03,-0.61
ry_cut_5_p1_opt_disp_struct_9.xyz,Nucleus 14H :,-2.301213,1.574533,-0.599257,27.17,36.22,25.82,19.48,47.95,30.08,11.42,8.5,-4.26,-12.17,19.48,25.82,36.22,0,16.74,-0.24
ry_cut_5_p1_opt_disp_struct_9.xyz,Nucleus 15H :,-2.851624,2.032776,-1.414033,28.64,34.85,25.19,25.88,41.55,31.01,28.11,-9.22,-3.26,-2.26,25.19,25.88,34.85,0,9.66,-0.86
ry_cut_5_p1_opt_disp_struct_9.xyz,Nucleus 17H :,-2.967148,1.272311,0.581726,28.55,35.07,24.16,26.41,40.38,17.55,-6.18,-6.55,7.28,33.15,24.16,26.41,35.07,0,10.91,-0.59
ry_cut_5_p1_opt_disp_struct_9.xyz,Nucleus 18H :,-2.304713,0.657188,1.63869,28.52,34.37,24.36,26.82,38.72,17.94,-6.44,-5.5,7.61,33.23,24.36,26.82,34.37,0,10.01,-0.51
ry_cut_5_p1_opt_disp_struct_9.xyz,Nucleus 20H :,-2.837305,0.412789,2.554049,26.87,33.91,28.03,18.67,49.81,28.1,1.39,-16.11,-0.46,17.88,18.67,28.03,33.91,0,15.24,0.23
ry_cut_5_p1_opt_disp_struct_9.xyz,Nucleus 23H :,-0.947477,0.352313,1.513532,26.8,36.49,24.04,19.87,27.04,46.93,70.14,-2.73,-10.72,-50.26,19.87,24.04,36.49,0,16.62,-0.5
ry_cut_5_p1_opt_disp_struct_9.xyz,Nucleus 25H :,-0.427031,-0.130226,2.334956,26.67,33.72,26.42,19.87,56.2,25.13,3.54,-22.6,1.22,16.52,19.87,26.42,33.72,0,13.85,-0.05
ry_cut_5_p1_opt_disp_struct_9.xyz,Nucleus 26H :,-4.289813,1.592061,0.67793,26.68,36.12,24.07,19.86,29.53,44.26,55.89,-35.88,-4.97,-8.78,19.86,24.07,36.12,0,16.26,-0.48
ry_cut_5_p1_opt_disp_struct_9.xyz,Nucleus 27H :,-4.677072,1.168253,1.453516,28.17,35.0,25.95,23.56,38.38,12.13,-22.63,13.78,-3.41,46.27,23.56,25.95,35.0,0,11.44,-0.58
ry_cut_5_p1_opt_disp_struct_9.xyz,Nucleus 28H :,1.293615,-0.661931,-0.335858,27.05,34.63,20.74,25.77,49.63,34.37,27.65,-20.22,-9.03,-1.26,20.74,25.77,34.63,0,13.89,-0.28
ry_cut_5_p1_opt_disp_struct_9.xyz,Nucleus 0C :,-0.708093,8.772454,3.618338,162.13,189.28,140.1,157.02,257.44,238.49,241.34,-67.13,-99.53,-84.22,140.1,157.02,189.28,0,49.18,-0.31
ry_cut_5_p1_opt_disp_struct_9.xyz,Nucleus 3C :,-1.262134,9.178122,2.763534,43.71,175.02,-58.92,15.03,239.32,261.11,272.88,-64.3,-320.08,-257.79,-58.92,15.03,175.02,0,233.94,-0.37
ry_cut_5_p1_opt_disp_struct_9.xyz,Nucleus 4C :,-1.406824,8.398729,4.373626,42.96,-66.53,33.87,161.54,271.74,260.68,242.24,-80.74,-237.12,-327.93,-66.53,33.87,161.54,0,228.07,-0.12
ry_cut_5_p1_opt_disp_struct_9.xyz,Nucleus 6C :,0.223183,7.720585,3.212577,61.5,-28.36,45.71,167.15,227.43,272.88,260.8,-60.4,-226.21,-289.99,-28.36,45.71,167.15,0,195.51,-0.24
ry_cut_5_p1_opt_disp_struct_9.xyz,Nucleus 8C :,1.198821,7.963098,3.157478,19.76,-71.46,118.56,12.18,233.35,261.66,268.52,-114.93,-333.22,-256.11,-71.46,12.18,118.56,0,190.02,-0.12
ry_cut_5_p1_opt_disp_struct_9.xyz,Nucleus 9C :,-0.125724,6.50832,2.760349,62.22,-27.53,59.5,154.68,235.4,263.34,273.94,-81.08,-212.98,-291.97,-27.53,59.5,154.68,0,182.21,-0.04
ry_cut_5_p1_opt_disp_struct_9.xyz,Nucleus 11C :,0.828423,5.632539,2.4297,44.22,-63.94,38.64,157.96,272.44,259.06,243.61,-85.74,-233.21,-323.51,-63.94,38.64,157.96,0,221.9,-0.08
ry_cut_5_p1_opt_disp_struct_9.xyz,Nucleus 16C :,0.581506,4.707384,2.088065,154.88,188.54,130.12,145.97,272.39,210.29,197.19,-86.32,-77.89,-51.03,130.12,145.97,188.54,0,58.42,-0.46
ry_cut_5_p1_opt_disp_struct_9.xyz,Nucleus 21C :,-1.40318,6.141172,2.62136,20.36,-36.92,-17.11,115.1,270.31,263.34,238.74,-305.75,-281.9,-123.66,-36.92,-17.11,115.1,0,152.02,-0.74
ry_cut_5_p1_opt_disp_struct_9.xyz,Nucleus 19N :,-2.144259,6.819759,2.671711,166.75,97.95,220.72,181.58,347.14,329.98,275.45,-236.92,-122.32,-93.07,97.95,181.58,220.72,0,122.77,0.36
ry_cut_5_p1_opt_disp_struct_9.xyz,Nucleus 22N :,-1.624618,5.212554,2.283883,174.1,113.35,234.11,174.85,321.11,335.24,341.76,-101.23,-212.67,-161.89,113.35,174.85,234.11,0,120.76,0.02
ry_cut_5_p1_opt_disp_struct_9.xyz,Nucleus 24N :,-0.131941,9.581125,4.067694,174.13,113.99,213.88,194.52,340.89,302.56,326.12,-212.54,-128.08,-106.57,113.99,194.52,213.88,0,99.89,0.61
ry_cut_5_p1_opt_disp_struct_9.xyz,Nucleus 13O :,1.782667,5.791368,2.706409,210.62,256.49,213.53,161.83,334.13,407.71,389.69,-230.61,-145.99,-123.09,161.83,213.53,256.49,0,94.66,0.09
w_cut_0_0_1f_opt.xyz,Nucleus 1H :,0.975724,-0.036803,-1.306188,29.18,35.22,23.42,28.91,39.62,25.7,27.09,2.79,-5.63,-2.03,23.42,28.91,35.22,0,11.8,-0.07
w_cut_0_0_1f_opt.xyz,Nucleus 2H :,1.76848,0.603301,-1.702752,28.72,23.79,27.54,34.83,43.31,23.2,25.56,-10.38,3.84,0.63,23.79,27.54,34.83,0,11.04,-0.32
w_cut_0_0_1f_opt.xyz,Nucleus 6H :,1.182749,-1.065253,-1.62151,24.04,16.11,25.02,31.0,45.65,14.57,29.08,-14.95,1.69,-3.89,16.11,25.02,31.0,0,14.89,0.2
w_cut_0_0_1f_opt.xyz,Nucleus 12H :,0.896414,0.074714,0.17372,24.37,20.44,24.83,27.85,43.81,17.99,29.44,-18.83,2.48,-1.76,20.44,24.83,27.85,0,7.41,0.19
w_cut_0_0_1f_opt.xyz,Nucleus 14H :,1.688873,0.870608,0.977847,23.97,19.91,27.12,24.88,5.46,28.68,42.83,-17.94,14.46,-1.58,19.91,24.88,27.12,0,7.21,0.38
w_cut_0_0_1f_opt.xyz,Nucleus 16H :,1.300293,0.693849,2.278234,24.27,19.56,28.06,25.18,10.25,30.28,43.99,9.34,-2.23,-18.84,19.56,25.18,28.06,0,8.5,0.32
w_cut_0_0_1f_opt.xyz,Nucleus 17H :,1.709731,1.148648,3.074665,24.36,20.71,25.36,27.0,42.96,28.27,28.88,-17.54,-7.54,-1.96,20.71,25.36,27.0,0,6.29,0.48
w_cut_0_0_1f_opt.xyz,Nucleus 18H :,0.260718,-0.203753,2.34645,28.72,34.83,27.54,23.78,41.15,25.46,30.65,-9.32,1.31,-3.1,23.78,27.54,34.83,0,11.05,-0.32
w_cut_0_0_1f_opt.xyz,Nucleus 0C :,-0.018056,-0.608861,1.038719,170.62,186.54,160.78,164.53,255.22,238.04,235.04,-74.42,-75.18,-66.84,160.78,164.53,186.54,0,25.76,-0.71
w_cut_0_0_1f_opt.xyz,Nucleus 3C :,-1.06089,-1.536176,0.844802,62.13,148.83,52.96,-15.4,239.84,268.5,262.01,-91.04,-215.49,-277.44,-15.4,52.96,148.83,0,164.23,-0.17
w_cut_0_0_1f_opt.xyz,Nucleus 4C :,-1.378285,-1.960908,-0.38729,57.11,-27.56,127.58,71.31,271.47,255.21,259.29,-291.65,-131.03,-191.95,-27.56,71.31,127.58,0,155.14,0.27
w_cut_0_0_1f_opt.xyz,Nucleus 7C :,-1.781484,-2.028824,1.934009,38.14,136.15,-39.23,17.49,261.51,267.94,266.05,-128.93,-305.9,-246.25,-39.23,17.49,136.15,0,175.38,-0.35
w_cut_0_0_1f_opt.xyz,Nucleus 8C :,-2.577171,-2.742112,1.749046,60.44,162.18,22.53,-3.39,234.62,263.57,262.13,-72.61,-240.88,-265.51,-3.39,22.53,162.18,0,165.57,-0.69
w_cut_0_0_1f_opt.xyz,Nucleus 9C :,-1.476791,-1.605756,3.225291,11.86,-66.02,74.19,27.41,233.63,262.39,264.11,-159.47,-236.54,-328.56,-66.02,27.41,74.19,0,140.21,0.33
w_cut_0_0_1f_opt.xyz,Nucleus 11C :,-2.043082,-1.99482,4.064004,69.81,164.64,-15.47,60.25,237.92,260.02,269.37,-73.34,-276.0,-208.54,-15.47,60.25,164.64,0,180.11,-0.16
w_cut_0_0_1f_opt.xyz,Nucleus 13C :,-0.449497,-0.683688,3.455774,52.58,172.43,41.9,-56.6,217.6,268.05,253.75,-45.25,-226.07,-310.35,-56.6,41.9,172.43,0,229.03,-0.14
w_cut_0_0_1f_opt.xyz,Nucleus 15C :,-0.214348,-0.354345,4.462365,70.42,172.07,57.42,-18.24,240.0,269.93,260.11,-68.01,-210.96,-279.81,-18.24,57.42,172.07,0,190.31,-0.2
w_cut_0_0_1f_opt.xyz,Nucleus 5N :,2.494094,1.538869,0.710814,118.36,56.6,168.71,129.76,298.98,334.87,325.74,-130.36,-205.1,-269.07,56.6,129.76,168.71,0,112.11,0.31
w_cut_0_0_1f_opt.xyz,Nucleus 10F :,0.034136,0.25702,-1.782652,301.37,396.47,221.82,285.83,482.61,458.35,466.25,-69.78,-236.54,-196.76,221.82,285.83,396.47,0,174.65,-0.27
w_cut_0_0_2f_opt.xyz,Nucleus 1H :,0.979207,-0.035047,-1.317368,29.18,35.27,23.41,28.86,39.63,25.55,26.92,2.78,-5.48,-1.86,23.41,28.86,35.27,0,11.86,-0.08
w_cut_0_0_2f_opt.xyz,Nucleus 2H :,1.772358,0.60689,-1.709517,28.74,23.8,27.53,34.9,43.3,23.13,25.48,-10.23,3.87,0.67,23.8,27.53,34.9,0,11.1,-0.33
w_cut_0_0_2f_opt.xyz,Nucleus 6H :,1.188283,-1.062578,-1.633726,23.85,15.35,25.45,30.75,11.31,29.5,45.78,-15.34,4.18,-3.87,15.35,25.45,30.75,0,15.4,0.31
w_cut_0_0_2f_opt.xyz,Nucleus 12H :,0.89641,0.073321,0.162842,24.44,20.35,25.24,27.74,43.47,18.23,29.11,-18.09,2.15,-1.55,20.35,25.24,27.74,0,7.39,0.32
w_cut_0_0_2f_opt.xyz,Nucleus 14H :,1.686658,0.867538,0.972416,24.36,20.36,27.48,25.24,5.93,29.27,43.06,14.45,-1.89,-17.73,20.36,25.24,27.48,0,7.12,0.37
w_cut_0_0_2f_opt.xyz,Nucleus 17H :,1.294851,0.687826,2.272068,24.32,20.59,25.48,26.88,42.92,27.09,28.77,-17.38,-6.46,-1.99,20.59,25.48,26.88,0,6.29,0.55
w_cut_0_0_2f_opt.xyz,Nucleus 18H :,1.696585,1.137314,3.075794,28.74,34.89,27.54,23.79,41.08,25.43,30.66,-9.09,1.31,-3.17,23.79,27.54,34.89,0,11.1,-0.32
w_cut_0_0_2f_opt.xyz,Nucleus 0C :,0.256829,-0.209373,2.329529,171.06,186.69,160.92,165.56,255.46,237.58,234.91,-73.53,-74.63,-66.63,160.92,165.56,186.69,0,25.77,-0.64
w_cut_0_0_2f_opt.xyz,Nucleus 3C :,-0.020655,-0.613348,1.022103,61.82,148.13,52.92,-15.59,240.41,269.02,262.23,-92.31,-216.07,-277.81,-15.59,52.92,148.13,0,163.72,-0.16
w_cut_0_0_2f_opt.xyz,Nucleus 4C :,-1.064614,-1.541829,0.82764,56.03,-27.86,127.21,68.74,271.51,254.76,258.27,-291.53,-130.03,-194.9,-27.86,68.74,127.21,0,155.07,0.25
w_cut_0_0_2f_opt.xyz,Nucleus 7C :,-1.380101,-1.965542,-0.404776,52.21,137.69,-2.21,21.14,258.83,269.37,264.67,-121.38,-270.65,-244.22,-2.21,21.14,137.69,0,139.9,-0.67
w_cut_0_0_2f_opt.xyz,Nucleus 8C :,-1.78819,-2.036556,1.917429,58.26,158.01,21.92,-5.15,234.19,261.05,264.12,-76.35,-239.95,-268.28,-5.15,21.92,158.01,0,163.16,-0.67
w_cut_0_0_2f_opt.xyz,Nucleus 9C :,-2.584216,-2.749646,1.737194,16.86,-58.77,76.02,33.34,235.31,262.71,264.22,-321.84,-159.3,-230.51,-58.77,33.34,76.02,0,134.79,0.37
w_cut_0_0_2f_opt.xyz,Nucleus 11C :,-1.485018,-1.614376,3.209809,69.76,161.44,-13.89,61.74,237.98,257.9,269.74,-76.61,-273.87,-205.86,-13.89,61.74,161.44,0,175.33,-0.14
w_cut_0_0_2f_opt.xyz,Nucleus 13C :,-2.038197,-1.989684,4.063206,67.98,163.29,55.34,-14.7,224.96,258.34,270.24,-61.75,-213.81,-274.06,-14.7,55.34,163.29,0,177.99,-0.21
w_cut_0_0_2f_opt.xyz,Nucleus 15C :,-0.458916,-0.695449,3.425586,26.91,82.48,35.68,-37.42,231.6,264.83,261.13,-149.14,-229.14,-298.54,-37.42,35.68,82.48,0,119.9,0.22
w_cut_0_0_2f_opt.xyz,Nucleus 5N :,-0.170489,-0.290026,4.668731,123.46,55.17,184.21,130.99,294.26,335.89,326.15,-110.18,-204.51,-271.25,55.17,130.99,184.21,0,129.04,0.18
w_cut_0_0_2f_opt.xyz,Nucleus 10F :,2.492431,1.537141,0.711103,307.71,402.89,226.75,293.49,481.97,458.05,466.44,-63.55,-231.33,-188.45,226.75,293.49,402.89,0,176.14,-0.24
w_cut_0_0_2f_opt.xyz,Nucleus 16F :,0.038364,0.259134,-1.794712,326.3,414.44,258.3,306.16,458.61,466.65,482.33,-52.21,-200.31,-176.16,258.3,306.16,414.44,0,156.14,-0.39
w_cut_0_0_3f_opt.xyz,Nucleus 1H :,0.983991,-0.030859,-1.325836,29.19,35.33,23.44,28.81,39.71,25.49,26.92,2.88,-5.58,-1.85,23.44,28.81,35.33,0,11.89,-0.1
w_cut_0_0_3f_opt.xyz,Nucleus 2H :,1.776617,0.610764,-1.719221,28.8,23.87,27.59,34.93,43.61,23.08,25.56,-10.51,3.96,0.68,23.87,27.59,34.93,0,11.06,-0.33
w_cut_0_0_3f_opt.xyz,Nucleus 6H :,1.192816,-1.05868,-1.641399,23.81,15.4,25.5,30.52,10.75,29.61,45.67,-15.41,4.79,-3.98,15.4,25.5,30.52,0,15.12,0.34
w_cut_0_0_3f_opt.xyz,Nucleus 12H :,0.903245,0.078983,0.154703,24.52,20.53,25.18,27.86,43.69,15.97,29.67,-18.46,4.59,-1.89,20.53,25.18,27.86,0,7.33,0.27
w_cut_0_0_3f_opt.xyz,Nucleus 17H :,1.694317,0.873336,0.963134,24.32,20.63,25.54,26.79,42.94,27.06,28.59,-17.37,-6.39,-1.86,20.63,25.54,26.79,0,6.16,0.59
w_cut_0_0_3f_opt.xyz,Nucleus 18H :,1.304628,0.695106,2.263534,28.79,34.92,27.6,23.86,41.32,25.35,30.9,-9.36,1.41,-3.24,23.86,27.6,34.92,0,11.06,-0.32
w_cut_0_0_3f_opt.xyz,Nucleus 0C :,1.706141,1.145114,3.067251,171.13,186.7,160.85,165.83,255.78,237.98,234.66,-73.62,-74.65,-66.78,160.85,165.83,186.7,0,25.85,-0.62
w_cut_0_0_3f_opt.xyz,Nucleus 3C :,0.266483,-0.202137,2.321947,61.43,147.97,53.58,-17.27,241.6,268.76,262.8,-93.66,-215.14,-280.09,-17.27,53.58,147.97,0,165.24,-0.14
w_cut_0_0_3f_opt.xyz,Nucleus 4C :,-0.012728,-0.6073,1.014531,55.83,-27.06,126.1,68.45,271.48,254.68,258.67,-290.58,-131.64,-195.1,-27.06,68.45,126.1,0,153.16,0.25
w_cut_0_0_3f_opt.xyz,Nucleus 7C :,-1.057206,-1.53685,0.81825,51.27,137.1,-2.21,18.92,259.82,268.76,264.6,-123.09,-269.53,-246.75,-2.21,18.92,137.1,0,139.31,-0.7
w_cut_0_0_3f_opt.xyz,Nucleus 8C :,-1.369085,-1.957718,-0.415897,61.61,155.1,30.11,-0.39,237.13,260.62,265.5,-82.25,-231.65,-264.54,-0.39,30.11,155.1,0,155.49,-0.61
w_cut_0_0_3f_opt.xyz,Nucleus 9C :,-1.781949,-2.03362,1.90235,18.72,-53.18,78.02,31.32,233.82,264.74,259.92,-155.81,-233.06,-313.45,-53.18,31.32,78.02,0,131.2,0.29
w_cut_0_0_3f_opt.xyz,Nucleus 11C :,-2.58222,-2.747448,1.748251,79.36,153.46,14.63,69.99,235.63,261.03,271.37,-82.23,-247.81,-199.9,14.63,69.99,153.46,0,138.83,-0.2
w_cut_0_0_3f_opt.xyz,Nucleus 13C :,-1.472307,-1.607024,3.185959,26.87,87.06,18.96,-25.41,232.37,259.65,265.81,-145.32,-246.16,-285.74,-25.41,18.96,87.06,0,112.47,-0.21
w_cut_0_0_3f_opt.xyz,Nucleus 15C :,-2.175989,-2.091866,4.219158,38.66,88.41,26.46,1.11,234.23,266.64,263.5,-145.84,-239.25,-263.3,1.11,26.46,88.41,0,87.3,-0.42
w_cut_0_0_3f_opt.xyz,Nucleus 5N :,-0.44908,-0.688432,3.418378,122.28,50.59,184.7,131.56,293.72,336.27,325.94,-109.15,-204.32,-275.61,50.59,131.56,184.7,0,134.11,0.21
w_cut_0_0_3f_opt.xyz,Nucleus 10F :,-0.158586,-0.281555,4.661203,303.39,397.74,222.43,290.01,479.14,457.49,465.8,-68.1,-235.06,-189.09,222.43,290.01,397.74,0,175.31,-0.23
w_cut_0_0_3f_opt.xyz,Nucleus 14F :,2.499894,1.542673,0.70107,322.94,411.77,297.96,259.1,457.15,478.64,473.4,-61.72,-179.13,-199.51,259.1,297.96,411.77,0,152.67,-0.49
w_cut_0_0_3f_opt.xyz,Nucleus 16F :,0.042588,0.263236,-1.802037,350.23,457.35,303.68,289.65,481.02,458.41,465.28,-7.93,-162.41,-183.7,289.65,303.68,457.35,0,167.7,-0.83
w_cut_0_0_4f_opt.xyz,Nucleus 1H :,0.990735,-0.024835,-1.326909,29.19,35.38,23.42,28.76,39.77,25.14,26.62,3.15,-5.46,-1.66,23.42,28.76,35.38,0,11.96,-0.11
w_cut_0_0_4f_opt.xyz,Nucleus 2H :,1.784214,0.616423,-1.718861,28.78,23.82,27.64,34.88,43.33,22.91,25.3,-10.18,4.03,0.95,23.82,27.64,34.88,0,11.06,-0.31
w_cut_0_0_4f_opt.xyz,Nucleus 6H :,1.199546,-1.052492,-1.642587,23.86,15.33,25.54,30.72,10.3,29.62,45.87,-15.51,5.17,-3.87,15.33,25.54,30.72,0,15.39,0.33
w_cut_0_0_4f_opt.xyz,Nucleus 17H :,0.909871,0.085445,0.154046,24.29,20.57,25.56,26.73,42.88,26.72,28.16,-17.29,-6.1,-1.5,20.57,25.56,26.73,0,6.16,0.62
w_cut_0_0_4f_opt.xyz,Nucleus 18H :,1.700672,0.880644,0.961522,28.79,34.91,27.64,23.81,40.99,30.69,25.24,-8.88,1.49,-3.17,23.81,27.64,34.91,0,11.1,-0.31
w_cut_0_0_4f_opt.xyz,Nucleus 0C :,1.312521,0.703799,2.262345,171.2,186.78,161.02,165.8,255.79,237.31,234.55,-66.65,-73.22,-74.19,161.02,165.8,186.78,0,25.76,-0.63
w_cut_0_0_4f_opt.xyz,Nucleus 3C :,1.715543,1.1547,3.064799,61.35,147.27,54.18,-17.41,239.71,267.21,262.67,-92.47,-212.96,-280.12,-17.41,54.18,147.27,0,164.68,-0.13
w_cut_0_0_4f_opt.xyz,Nucleus 4C :,0.274537,-0.194337,2.322127,54.74,-28.4,126.67,65.95,270.91,254.22,258.26,-291.56,-130.61,-197.0,-28.4,65.95,126.67,0,155.07,0.22
w_cut_0_0_4f_opt.xyz,Nucleus 7C :,-0.005181,-0.60068,1.014854,56.18,137.97,2.52,28.06,270.07,260.94,264.38,-123.45,-266.53,-236.84,2.52,28.06,137.97,0,135.45,-0.62
w_cut_0_0_4f_opt.xyz,Nucleus 8C :,-1.048347,-1.530437,0.818248,62.86,158.68,26.66,3.25,236.03,260.49,263.56,-77.55,-233.8,-260.12,3.25,26.66,158.68,0,155.43,-0.7
w_cut_0_0_4f_opt.xyz,Nucleus 9C :,-1.358076,-1.950342,-0.41741,29.35,82.74,20.44,-15.13,236.86,264.18,266.87,-154.13,-246.26,-279.46,-15.13,20.44,82.74,0,97.87,-0.27
w_cut_0_0_4f_opt.xyz,Nucleus 11C :,-1.763574,-2.018261,1.912731,37.3,94.05,20.55,-2.69,239.39,262.14,267.91,-145.35,-242.89,-269.3,-2.69,20.55,94.05,0,96.74,-0.52
w_cut_0_0_4f_opt.xyz,Nucleus 13C :,-2.752602,-2.903287,1.717095,36.14,93.98,15.67,-1.23,236.68,263.01,267.7,-142.71,-249.42,-266.84,-1.23,15.67,93.98,0,95.21,-0.64
w_cut_0_0_4f_opt.xyz,Nucleus 15C :,-1.461595,-1.597285,3.198361,38.34,89.19,22.47,3.35,232.65,267.99,261.07,-143.48,-245.1,-258.12,3.35,22.47,89.19,0,85.84,-0.55
w_cut_0_0_4f_opt.xyz,Nucleus 5N :,-2.159647,-2.076979,4.238489,123.5,51.93,184.35,134.22,292.37,337.19,325.77,-108.2,-201.67,-274.96,51.93,134.22,184.35,0,132.42,0.24
w_cut_0_0_4f_opt.xyz,Nucleus 10F :,-0.43913,-0.67915,3.421405,328.65,443.34,259.57,283.03,477.05,457.15,463.33,-20.08,-201.65,-189.85,259.57,283.03,443.34,0,183.77,-0.74
w_cut_0_0_4f_opt.xyz,Nucleus 12F :,-0.143792,-0.267639,4.661489,349.78,450.11,292.77,306.45,456.8,476.81,470.43,-20.53,-183.12,-151.06,292.77,306.45,450.11,0,157.34,-0.83
w_cut_0_0_4f_opt.xyz,Nucleus 14F :,2.505691,1.54974,0.697331,345.83,454.02,295.94,287.53,457.06,477.55,475.53,-22.32,-161.77,-188.56,287.53,295.94,454.02,0,166.49,-0.9
w_cut_0_0_4f_opt.xyz,Nucleus 16F :,0.050196,0.270703,-1.803724,346.28,447.42,298.55,292.87,458.02,479.43,476.0,-31.62,-162.48,-180.5,292.87,298.55,447.42,0,154.55,-0.93
w_cut_0_0_ch3_opt.xyz,Nucleus 1H :,1.024854,0.004085,-1.316355,29.11,35.09,23.33,28.91,39.11,26.35,27.52,2.3,-5.71,-2.24,23.33,28.91,35.09,0,11.76,-0.05
w_cut_0_0_ch3_opt.xyz,Nucleus 2H :,1.808935,0.648975,-1.722027,29.0,35.45,24.24,27.3,44.67,23.21,26.65,-11.25,3.59,0.12,24.24,27.3,35.45,0,11.21,-0.45
w_cut_0_0_ch3_opt.xyz,Nucleus 6H :,1.244377,-1.024124,-1.628265,24.11,16.1,25.15,31.09,46.14,15.33,29.62,-15.29,-4.39,0.93,16.1,25.15,31.09,0,14.99,0.21
w_cut_0_0_ch3_opt.xyz,Nucleus 10H :,0.947282,0.121833,0.162655,23.75,29.99,18.86,22.39,32.22,39.75,46.42,-2.24,-20.47,-24.43,18.86,22.39,29.99,0,11.13,-0.37
w_cut_0_0_ch3_opt.xyz,Nucleus 14H :,1.732691,0.932498,0.95846,23.97,28.79,19.7,23.41,9.49,28.74,45.51,-22.11,10.23,0.05,19.7,23.41,28.79,0,9.09,-0.18
w_cut_0_0_ch3_opt.xyz,Nucleus 16H :,1.349594,0.758661,2.260707,24.03,19.21,28.13,24.74,12.08,30.8,44.83,7.17,-2.67,-20.11,19.21,24.74,28.13,0,8.92,0.24
w_cut_0_0_ch3_opt.xyz,Nucleus 17H :,1.759721,1.225161,3.049979,24.29,20.58,25.23,27.06,42.95,28.48,29.64,-17.69,-7.83,-2.67,20.58,25.23,27.06,0,6.48,0.44
w_cut_0_0_ch3_opt.xyz,Nucleus 18H :,0.321503,-0.150943,2.337258,29.0,35.46,27.28,24.25,42.99,25.13,31.59,-10.49,1.44,-3.67,24.25,27.28,35.46,0,11.21,-0.46
w_cut_0_0_ch3_opt.xyz,Nucleus 19H :,0.044956,-0.567511,1.035627,29.19,23.65,29.59,34.32,38.86,21.73,26.67,-5.02,3.46,1.86,23.65,29.59,34.32,0,10.67,0.11
w_cut_0_0_ch3_opt.xyz,Nucleus 20H :,-0.985743,-1.511466,0.837562,28.71,34.68,24.06,27.38,38.93,13.49,24.04,-4.6,11.0,3.27,24.06,27.38,34.68,0,10.62,-0.38
w_cut_0_0_ch3_opt.xyz,Nucleus 21H :,-1.227517,-1.856929,-0.163799,28.71,34.69,24.06,27.38,39.54,10.51,21.72,-4.88,13.59,5.66,24.06,27.38,34.69,0,10.63,-0.38
w_cut_0_0_ch3_opt.xyz,Nucleus 0C :,-1.703195,-2.010826,1.937658,172.69,160.99,168.82,188.25,233.54,241.59,255.45,-65.4,-72.98,-74.14,160.99,168.82,188.25,0,27.26,-0.43
w_cut_0_0_ch3_opt.xyz,Nucleus 3C :,-2.79903,-3.017245,1.741144,63.32,148.75,52.41,-11.2,241.69,261.39,271.42,-93.0,-218.16,-273.38,-11.2,52.41,148.75,0,159.95,-0.2
w_cut_0_0_ch3_opt.xyz,Nucleus 4C :,-1.391941,-1.566037,3.226642,56.2,-29.12,127.18,70.54,255.26,259.31,272.02,-292.53,-131.58,-193.89,-29.12,70.54,127.18,0,156.3,0.28
w_cut_0_0_ch3_opt.xyz,Nucleus 7C :,-1.949098,-1.954275,4.074482,43.06,142.59,-34.76,21.34,262.74,270.75,268.21,-125.81,-301.84,-244.87,-34.76,21.34,142.59,0,177.35,-0.37
w_cut_0_0_ch3_opt.xyz,Nucleus 8C :,-0.377039,-0.629836,3.450749,48.9,167.79,0.64,-21.74,225.01,261.37,256.7,-57.46,-260.36,-278.58,-21.74,0.64,167.79,0,189.53,-0.76
w_cut_0_0_ch3_opt.xyz,Nucleus 9C :,-0.143892,-0.290941,4.455352,54.91,157.53,50.12,-42.92,250.47,270.0,264.21,-92.98,-219.87,-307.08,-42.92,50.12,157.53,0,200.45,-0.07
w_cut_0_0_ch3_opt.xyz,Nucleus 11C :,2.529136,1.610274,0.68776,44.94,173.07,-60.4,22.14,234.66,260.05,272.04,-61.59,-320.83,-249.52,-60.4,22.14,173.07,0,233.47,-0.29
w_cut_0_0_ch3_opt.xyz,Nucleus 12C :,0.079157,0.288423,-1.793508,161.11,188.87,137.61,156.84,252.05,222.66,226.61,-57.18,-75.39,-85.43,137.61,156.84,188.87,0,51.26,-0.25
w_cut_0_0_ch3_opt.xyz,Nucleus 13C :,-2.924857,-3.266571,0.68467,52.2,164.35,47.08,-54.82,229.07,257.28,270.27,-64.76,-223.06,-312.2,-54.82,47.08,164.35,0,219.17,-0.07
w_cut_0_0_ch3_opt.xyz,Nucleus 15C :,-3.75794,-2.638961,2.113288,65.7,169.59,53.16,-25.65,244.57,271.9,260.52,-75.05,-215.93,-288.91,-25.65,53.16,169.59,0,195.24,-0.19
w_cut_0_0_ch3_opt.xyz,Nucleus 5N :,-2.587032,-3.946333,2.282359,119.62,58.51,168.98,131.36,299.92,335.47,326.67,-131.06,-204.1,-268.05,58.51,131.36,168.98,0,110.47,0.32
w_cut_0_0_opt.xyz,Nucleus 1H :,0.976252,-0.035426,-1.314781,29.07,34.97,23.3,28.94,39.0,25.76,27.08,2.94,-5.46,-2.11,23.3,28.94,34.97,0,11.67,-0.03
w_cut_0_0_opt.xyz,Nucleus 2H :,1.770495,0.603421,-1.709945,28.96,35.53,24.23,27.11,43.53,22.78,25.9,-10.08,3.73,1.0,24.23,27.11,35.53,0,11.3,-0.49
w_cut_0_0_opt.xyz,Nucleus 6H :,1.184901,-1.063427,-1.634772,24.01,16.0,25.07,30.97,45.65,15.02,29.18,-15.0,1.13,-3.93,16.0,25.07,30.97,0,14.97,0.21
w_cut_0_0_opt.xyz,Nucleus 10H :,0.891867,0.069907,0.164864,23.51,28.75,18.7,23.08,44.38,30.27,32.31,-1.55,-13.42,-21.46,18.7,23.08,28.75,0,10.05,-0.13
w_cut_0_0_opt.xyz,Nucleus 12H :,1.683792,0.863752,0.971145,23.88,19.8,24.39,27.46,43.94,15.34,29.07,-19.51,4.5,-1.67,19.8,24.39,27.46,0,7.66,0.2
w_cut_0_0_opt.xyz,Nucleus 14H :,1.2929,0.684199,2.270338,23.88,19.83,27.33,24.49,6.26,29.13,43.03,-18.49,13.58,-1.86,19.83,24.49,27.33,0,7.5,0.24
w_cut_0_0_opt.xyz,Nucleus 16H :,1.703735,1.140327,3.065466,23.95,19.15,28.12,24.58,11.49,30.37,43.53,7.7,-2.26,-18.97,19.15,24.58,28.12,0,8.97,0.21
w_cut_0_0_opt.xyz,Nucleus 17H :,0.252872,-0.212839,2.335009,24.24,20.51,25.12,27.08,42.92,28.16,28.78,-17.77,-7.6,-1.77,20.51,25.12,27.08,0,6.57,0.4
w_cut_0_0_opt.xyz,Nucleus 18H :,-0.023241,-0.614991,1.027738,28.96,35.53,27.1,24.25,41.86,24.79,30.64,-9.36,1.55,-2.59,24.25,27.1,35.53,0,11.28,-0.49
w_cut_0_0_opt.xyz,Nucleus 0C :,-1.064603,-1.542899,0.818184,172.66,160.88,168.83,188.26,233.34,240.7,254.58,-64.84,-72.48,-73.33,160.88,168.83,188.26,0,27.38,-0.42
w_cut_0_0_opt.xyz,Nucleus 3C :,-1.306581,-1.876405,-0.186506,62.62,148.72,52.24,-13.11,240.74,269.18,262.08,-92.07,-216.51,-275.57,-13.11,52.24,148.72,0,161.83,-0.19
w_cut_0_0_opt.xyz,Nucleus 4C :,-1.784356,-2.033088,1.9143,56.15,-29.83,127.72,70.56,270.88,255.19,258.78,-293.06,-130.35,-193.0,-29.83,70.56,127.72,0,157.55,0.27
w_cut_0_0_opt.xyz,Nucleus 7C :,-2.584308,-2.747278,1.750336,41.04,142.9,-39.42,19.64,261.22,269.68,267.52,-124.14,-306.79,-244.37,-39.42,19.64,142.9,0,182.32,-0.35
w_cut_0_0_opt.xyz,Nucleus 8C :,-1.482485,-1.6122,3.206886,49.31,170.73,1.13,-23.93,227.75,261.45,257.35,-57.21,-259.9,-281.49,-23.93,1.13,170.73,0,194.66,-0.74
w_cut_0_0_opt.xyz,Nucleus 9C :,-2.047414,-1.999297,4.048634,54.96,175.95,38.81,-49.87,247.69,267.93,260.3,-71.82,-228.74,-310.47,-49.87,38.81,175.95,0,225.82,-0.21
w_cut_0_0_opt.xyz,Nucleus 11C :,-0.456965,-0.692144,3.442837,55.88,175.67,-56.44,48.4,229.42,258.0,268.06,-53.81,-314.48,-219.56,-56.44,48.4,175.67,0,232.11,-0.1
w_cut_0_0_opt.xyz,Nucleus 13C :,-0.222476,-0.363828,4.450507,53.66,175.89,43.58,-58.49,220.7,268.44,254.72,-44.88,-224.83,-313.17,-58.49,43.58,175.89,0,234.38,-0.13
w_cut_0_0_opt.xyz,Nucleus 15C :,2.490284,1.533237,0.70971,65.96,170.84,52.52,-25.48,240.75,269.86,259.16,-69.96,-216.12,-285.8,-25.48,52.52,170.84,0,196.32,-0.21
w_cut_0_0_opt.xyz,Nucleus 5N :,0.036911,0.264718,-1.7946,118.99,57.61,168.5,130.86,299.93,334.74,325.69,-131.52,-203.86,-268.03,57.61,130.86,168.5,0,110.89,0.32
y_cut_0_0_opt.xyz,Nucleus 1H :,1.204411,0.324429,0.209118,29.49,34.56,29.36,24.56,38.09,26.49,29.94,2.82,-2.69,-6.17,24.56,29.36,34.56,0,10.0,-0.04
y_cut_0_0_opt.xyz,Nucleus 2H :,1.626625,-0.016934,1.157766,28.94,34.64,27.63,24.54,43.12,25.99,22.2,-10.11,1.17,4.45,24.54,27.63,34.64,0,10.1,-0.39
y_cut_0_0_opt.xyz,Nucleus 5H :,1.744015,1.231139,-0.086964,23.93,28.59,22.45,20.74,43.59,29.54,28.86,-21.14,-0.95,-8.11,20.74,22.45,28.59,0,7.85,-0.57
y_cut_0_0_opt.xyz,Nucleus 7H :,-0.264214,0.575121,0.321465,24.2,27.79,23.63,21.18,42.54,29.87,17.1,-18.92,-2.09,4.1,21.18,23.63,27.79,0,6.61,-0.26
y_cut_0_0_opt.xyz,Nucleus 10H :,-0.973112,1.053423,-0.784355,24.8,28.22,24.4,21.77,43.45,30.81,22.79,-19.06,-2.65,-0.95,21.77,24.4,28.22,0,6.45,-0.19
y_cut_0_0_opt.xyz,Nucleus 12H :,-0.449155,1.235311,-1.71841,24.15,28.43,23.04,20.98,42.55,30.42,29.29,-19.52,-1.83,-8.48,20.98,23.04,28.43,0,7.45,-0.45
y_cut_0_0_opt.xyz,Nucleus 14H :,-2.33497,1.300616,-0.699705,27.46,36.45,26.49,19.45,44.61,28.54,9.68,9.86,-2.07,-8.22,19.45,26.49,36.45,0,17.0,-0.17
y_cut_0_0_opt.xyz,Nucleus 15H :,-2.905143,1.673049,-1.543442,28.91,34.65,27.46,24.63,41.18,30.74,23.94,2.69,-2.85,-8.96,24.63,27.46,34.65,0,10.02,-0.43
y_cut_0_0_opt.xyz,Nucleus 0C :,-2.995893,1.06242,0.513953,161.87,189.35,139.26,156.99,254.39,233.3,242.14,-103.43,-63.52,-77.27,139.26,156.99,189.35,0,50.09,-0.29
y_cut_0_0_opt.xyz,Nucleus 3C :,-2.297268,0.583243,1.629057,46.63,-55.66,175.59,19.95,237.63,259.63,265.24,-62.06,-315.97,-244.6,-55.66,19.95,175.59,0,231.25,-0.35
y_cut_0_0_opt.xyz,Nucleus 4C :,-2.821563,0.403433,2.56449,44.17,-64.92,34.54,162.9,268.84,257.0,242.01,-321.96,-234.22,-79.15,-64.92,34.54,162.9,0,227.82,-0.13
y_cut_0_0_opt.xyz,Nucleus 6C :,-0.93289,0.342669,1.522792,59.47,-32.84,46.9,164.34,228.95,268.93,257.62,-64.65,-222.01,-290.43,-32.84,46.9,164.34,0,197.18,-0.19
y_cut_0_0_opt.xyz,Nucleus 8C :,-0.382815,-0.027542,2.382465,16.87,-74.91,116.02,9.5,232.38,259.2,262.94,-116.36,-335.33,-252.22,-74.91,9.5,116.02,0,190.93,-0.12
y_cut_0_0_opt.xyz,Nucleus 9C :,-4.337932,1.327553,0.531211,64.56,-22.16,60.92,154.91,235.07,270.53,260.25,-282.44,-209.52,-80.21,-22.16,60.92,154.91,0,177.07,-0.06
y_cut_0_0_opt.xyz,Nucleus 11C :,-4.687532,1.131659,1.4076,46.06,-60.43,44.32,154.3,269.27,255.18,244.1,-315.62,-224.9,-89.84,-60.43,44.32,154.3,0,214.73,-0.02
y_cut_0_0_opt.xyz,Nucleus 13O :,1.425015,-0.439841,-0.545092,210.16,255.5,216.72,158.27,332.94,405.44,386.43,-116.06,-147.27,-231.0,158.27,216.72,255.5,0,97.23,0.2
