Molecule,Atom,x_coord,y_coord,z_coord,sigma_iso,sigma_xx,sigma_yy,sigma_zz,dia_sigma_xx,dia_sigma_yy,dia_sigma_zz,para_sigma_xx,para_sigma_yy,para_sigma_zz,sigma_11,sigma_22,sigma_33,s_tot_symmetry,span,skew
KLaL_cation_pi_RCCE_opt_neg1p5.xyz,Nucleus 3H :,1.85056,-3.65399,-14.42354,27.48,34.49,24.83,23.12,-84.19,79.15,15.18,110.38,-49.03,10.94,23.12,24.83,34.49,0,11.37,-0.7
KLaL_cation_pi_RCCE_opt_neg1p5.xyz,Nucleus 4H :,-1.00867,-3.16908,-13.28325,26.93,23.21,27.63,29.96,-63.17,8.98,99.67,88.27,19.12,-72.09,23.21,27.63,29.96,0,6.75,0.31
KLaL_cation_pi_RCCE_opt_neg1p5.xyz,Nucleus 7H :,2.41198,-2.20461,-16.88088,24.21,29.69,20.16,22.79,-51.87,59.1,94.15,76.55,-34.07,-71.21,20.16,22.79,29.69,0,9.53,-0.45
KLaL_cation_pi_RCCE_opt_neg1p5.xyz,Nucleus 9H :,3.34765,-1.9455,-17.38756,24.75,20.5,26.42,27.34,14.47,77.62,63.21,11.32,-51.8,-40.55,20.5,26.42,27.34,0,6.84,0.73
KLaL_cation_pi_RCCE_opt_neg1p5.xyz,Nucleus 11H :,2.39691,-3.29532,-16.81784,24.16,29.66,20.16,22.66,136.21,25.44,59.12,-112.72,-0.88,-34.69,20.16,22.66,29.66,0,9.5,-0.47
KLaL_cation_pi_RCCE_opt_neg1p5.xyz,Nucleus 14H :,2.4252,-1.57784,-15.50033,26.3,22.92,29.48,26.51,98.31,54.74,11.07,-73.64,-26.88,15.31,22.92,26.51,29.48,0,6.56,0.1
KLaL_cation_pi_RCCE_opt_neg1p5.xyz,Nucleus 15H :,2.68791,-0.21348,-15.39687,27.7,34.74,25.13,23.23,136.9,35.49,57.42,-110.3,-2.6,-33.82,23.23,25.13,34.74,0,11.51,-0.67
KLaL_cation_pi_RCCE_opt_neg1p5.xyz,Nucleus 18H :,2.98968,0.34051,-16.28164,23.51,27.96,22.7,19.86,121.82,84.87,35.27,-100.08,-63.2,-8.17,19.86,22.7,27.96,0,8.1,-0.3
KLaL_cation_pi_RCCE_opt_neg1p5.xyz,Nucleus 20H :,2.57849,0.43438,-14.17723,23.79,20.0,26.05,25.31,35.26,78.59,103.7,-52.58,-83.39,-10.21,20.0,25.31,26.05,0,6.05,0.75
KLaL_cation_pi_RCCE_opt_neg1p5.xyz,Nucleus 22H :,2.82822,1.48929,-14.10622,23.78,28.31,23.22,19.8,115.01,24.9,66.41,-92.1,2.78,-45.66,19.8,23.22,28.31,0,8.51,-0.2
KLaL_cation_pi_RCCE_opt_neg1p5.xyz,Nucleus 29H :,2.14561,-0.24168,-13.06379,27.36,34.37,24.76,22.94,127.58,7.36,24.79,-99.46,23.36,-1.56,22.94,24.76,34.37,0,11.43,-0.68
KLaL_cation_pi_RCCE_opt_neg1p5.xyz,Nucleus 30H :,2.02109,0.28044,-12.11936,27.01,23.23,27.67,30.14,0.34,93.37,51.52,26.97,-68.12,-23.05,23.23,27.67,30.14,0,6.91,0.29
KLaL_cation_pi_RCCE_opt_neg1p5.xyz,Nucleus 33H :,1.85668,-1.6211,-13.12241,23.97,29.5,22.35,20.05,128.18,30.12,4.23,-103.97,-6.06,19.38,20.05,22.35,29.5,0,9.45,-0.51
KLaL_cation_pi_RCCE_opt_neg1p5.xyz,Nucleus 35H :,1.26442,-2.28521,-11.89554,24.57,20.24,26.13,27.33,85.61,-12.05,12.93,-59.6,36.19,10.62,20.24,26.13,27.33,0,7.09,0.66
KLaL_cation_pi_RCCE_opt_neg1p5.xyz,Nucleus 37H :,1.23472,-3.36627,-12.0504,24.03,29.6,20.09,22.39,-83.26,93.86,21.02,108.13,2.9,-70.56,20.09,22.39,29.6,0,9.51,-0.52
KLaL_cation_pi_RCCE_opt_neg1p5.xyz,Nucleus 40H :,1.91674,-2.09261,-11.03742,27.17,23.55,30.22,27.75,-78.31,67.62,-5.88,101.99,-38.69,34.78,23.55,27.75,30.22,0,6.67,0.26
KLaL_cation_pi_RCCE_opt_neg1p5.xyz,Nucleus 41H :,-0.11608,-1.76989,-11.58662,27.34,34.45,24.73,22.85,-122.36,57.95,-23.36,146.72,-24.33,47.41,22.85,24.73,34.45,0,11.6,-0.67
KLaL_cation_pi_RCCE_opt_neg1p5.xyz,Nucleus 44H :,-0.34726,-0.74504,-10.66249,23.64,28.15,22.9,19.86,-88.51,-20.34,64.48,109.45,44.32,-38.49,19.86,22.9,28.15,0,8.29,-0.27
KLaL_cation_pi_RCCE_opt_neg1p5.xyz,Nucleus 46H :,0.48968,-0.37756,-10.07614,23.76,19.96,26.02,25.3,70.53,-12.83,-74.03,-45.53,38.85,94.29,19.96,25.3,26.02,0,6.06,0.76
KLaL_cation_pi_RCCE_opt_neg1p5.xyz,Nucleus 48H :,-1.61623,-0.22215,-10.4753,23.6,28.12,22.95,19.74,66.88,-44.19,-5.08,-40.9,66.09,28.01,19.74,22.95,28.12,0,8.38,-0.23
KLaL_cation_pi_RCCE_opt_neg1p5.xyz,Nucleus 53H :,-1.78286,0.55559,-9.73755,11.14,40.71,-1.61,-5.69,-90.31,21.14,106.62,85.76,-22.41,-67.39,-5.69,-1.61,40.71,0,46.4,-0.82
KLaL_cation_pi_RCCE_opt_neg1p5.xyz,Nucleus 55H :,-2.67282,-0.71904,-11.20753,30.52,26.09,30.93,34.55,-0.08,38.47,110.57,26.57,-7.03,-76.93,26.09,30.93,34.55,0,8.46,0.15
KLaL_cation_pi_RCCE_opt_neg1p5.xyz,Nucleus 56H :,-3.67284,-0.32653,-11.04041,29.99,48.75,21.79,19.43,168.67,23.44,39.69,-149.2,-2.84,10.2,19.43,21.79,48.75,0,29.32,-0.84
KLaL_cation_pi_RCCE_opt_neg1p5.xyz,Nucleus 58H :,-2.50759,-1.75085,-12.13052,12.58,39.41,1.95,-3.61,0.27,122.54,63.02,-120.78,0.5,-27.81,-3.61,1.95,39.41,0,43.02,-0.74
KLaL_cation_pi_RCCE_opt_neg1p5.xyz,Nucleus 60H :,-1.21105,-2.26606,-12.34584,30.51,26.06,31.0,34.46,98.58,77.59,24.8,-71.51,-45.99,8.07,26.06,31.0,34.46,0,8.4,0.17
KLaL_cation_pi_RCCE_opt_neg1p5.xyz,Nucleus 61H :,2.06614,-2.26271,-14.33433,29.97,48.91,21.62,19.37,116.7,68.16,-38.62,-46.34,-68.01,57.99,19.37,21.62,48.91,0,29.54,-0.85
KLaL_cation_pi_RCCE_opt_neg1p5.xyz,Nucleus 62H :,-3.05617,-3.70143,-15.43508,26.57,37.42,19.7,22.6,26.0,49.56,62.26,-41.79,-12.41,-3.9,19.7,22.6,37.42,0,17.72,-0.67
KLaL_cation_pi_RCCE_opt_neg1p5.xyz,Nucleus 63H :,-0.20716,-3.15713,-16.57412,23.4,33.05,22.28,14.88,87.27,39.2,19.38,-55.4,-16.63,-3.6,14.88,22.28,33.05,0,18.17,-0.18
KLaL_cation_pi_RCCE_opt_neg1p5.xyz,Nucleus 64H :,-3.64618,-2.26946,-12.97424,27.52,41.94,19.34,21.27,77.42,-21.69,16.62,-37.12,42.72,4.61,19.34,21.27,41.94,0,22.6,-0.83
KLaL_cation_pi_RCCE_opt_neg1p5.xyz,Nucleus 65H :,-4.58558,-2.02912,-12.46536,23.21,33.33,13.99,22.3,5.66,71.94,38.72,24.01,-51.43,-19.29,13.99,22.3,33.33,0,19.34,-0.14
KLaL_cation_pi_RCCE_opt_neg1p5.xyz,Nucleus 2C :,-3.63086,-3.36289,-13.04152,152.03,134.49,164.57,157.03,319.78,184.78,225.61,-167.92,-21.49,-84.66,134.49,157.03,164.57,0,30.08,0.5
KLaL_cation_pi_RCCE_opt_neg1p5.xyz,Nucleus 5C :,-3.67186,-1.63971,-14.35326,48.0,161.68,22.7,-40.39,253.4,288.71,315.36,-106.21,-290.61,-316.65,-40.39,22.7,161.68,0,202.07,-0.38
KLaL_cation_pi_RCCE_opt_neg1p5.xyz,Nucleus 6C :,-3.9616,-0.28059,-14.4534,42.16,165.79,-66.74,27.44,207.79,314.01,296.12,-62.59,-368.3,-260.52,-66.74,27.44,165.79,0,232.53,-0.19
KLaL_cation_pi_RCCE_opt_neg1p5.xyz,Nucleus 8C :,-4.26639,0.26235,-13.56389,55.29,177.27,-52.91,41.51,234.56,322.59,279.07,-79.5,-260.29,-330.56,-52.91,41.51,177.27,0,230.18,-0.18
KLaL_cation_pi_RCCE_opt_neg1p5.xyz,Nucleus 10C :,-3.86508,0.37227,-15.67146,40.8,166.14,24.9,-68.64,332.98,236.21,282.21,-111.89,-348.4,-268.71,-68.64,24.9,166.14,0,234.78,-0.2
KLaL_cation_pi_RCCE_opt_neg1p5.xyz,Nucleus 12C :,-4.13466,1.42199,-15.74103,47.29,163.13,-36.76,15.5,289.77,228.03,251.33,-71.94,-324.51,-230.81,-36.76,15.5,163.13,0,199.89,-0.48
KLaL_cation_pi_RCCE_opt_neg1p5.xyz,Nucleus 13C :,-3.41889,-0.29236,-16.78652,152.31,133.44,165.18,158.32,332.08,243.56,263.04,-167.32,-85.66,-128.77,133.44,158.32,165.18,0,31.74,0.57
KLaL_cation_pi_RCCE_opt_neg1p5.xyz,Nucleus 16C :,-3.30176,0.23385,-17.72915,38.39,162.86,-41.34,-6.36,336.48,236.95,258.8,-77.38,-372.53,-267.17,-41.34,-6.36,162.86,0,204.2,-0.66
KLaL_cation_pi_RCCE_opt_neg1p5.xyz,Nucleus 17C :,-3.10266,-1.66591,-16.73126,43.73,-59.5,32.78,157.91,337.43,283.3,260.23,-373.08,-252.1,-124.6,-59.5,32.78,157.91,0,217.41,-0.15
KLaL_cation_pi_RCCE_opt_neg1p5.xyz,Nucleus 19C :,-2.49736,-2.31516,-17.95972,50.57,177.38,31.91,-57.59,317.53,246.85,276.8,-99.2,-284.68,-305.61,-57.59,31.91,177.38,0,234.97,-0.24
KLaL_cation_pi_RCCE_opt_neg1p5.xyz,Nucleus 21C :,-2.47907,-3.407,-17.86462,48.09,-52.65,38.56,158.36,344.15,260.17,270.08,-376.8,-111.47,-241.86,-52.65,38.56,158.36,0,211.01,-0.14
KLaL_cation_pi_RCCE_opt_neg1p5.xyz,Nucleus 23C :,-3.14888,-2.11605,-18.81737,42.41,-45.07,13.95,158.35,326.09,252.72,280.86,-354.48,-259.17,-118.8,-45.07,13.95,158.35,0,203.42,-0.42
KLaL_cation_pi_RCCE_opt_neg1p5.xyz,Nucleus 24C :,-1.12737,-1.77181,-18.26735,28.96,-76.44,41.12,122.2,244.05,347.53,302.53,-175.68,-301.77,-329.77,-76.44,41.12,122.2,0,198.64,0.18
KLaL_cation_pi_RCCE_opt_neg1p5.xyz,Nucleus 25C :,-0.91658,-0.74033,-19.18898,21.23,110.87,-67.03,19.84,210.56,283.7,255.07,-101.1,-326.16,-258.37,-67.03,19.84,110.87,0,177.9,-0.02
KLaL_cation_pi_RCCE_opt_neg1p5.xyz,Nucleus 28C :,-1.75776,-0.38293,-19.77633,152.97,135.37,164.96,158.58,200.56,319.51,270.71,-62.74,-155.48,-113.65,135.37,158.58,164.96,0,29.59,0.57
KLaL_cation_pi_RCCE_opt_neg1p5.xyz,Nucleus 31C :,0.34176,-0.19192,-19.37488,45.7,162.93,14.53,-40.35,285.03,196.77,229.56,-57.37,-216.1,-300.78,-40.35,14.53,162.93,0,203.28,-0.46
KLaL_cation_pi_RCCE_opt_neg1p5.xyz,Nucleus 32C :,0.49023,0.59144,-20.11041,40.0,166.23,-68.59,22.35,320.08,217.97,264.34,-116.61,-260.73,-305.07,-68.59,22.35,166.23,0,234.82,-0.23
KLaL_cation_pi_RCCE_opt_neg1p5.xyz,Nucleus 34C :,1.40802,-0.66952,-18.64383,52.01,178.52,-56.5,34.0,316.73,205.47,245.54,-59.1,-334.4,-218.22,-56.5,34.0,178.52,0,235.02,-0.23
KLaL_cation_pi_RCCE_opt_neg1p5.xyz,Nucleus 36C :,2.40209,-0.26185,-18.80495,40.76,166.67,22.74,-67.13,165.99,336.74,256.98,-47.22,-379.88,-210.31,-67.13,22.74,166.67,0,233.8,-0.23
KLaL_cation_pi_RCCE_opt_neg1p5.xyz,Nucleus 38C :,1.26331,-1.70665,-17.72336,46.47,162.8,-40.13,16.73,198.28,305.86,367.17,-114.65,-269.89,-347.38,-40.13,16.73,162.8,0,202.93,-0.44
KLaL_cation_pi_RCCE_opt_neg1p5.xyz,Nucleus 39C :,-0.02275,-2.248,-17.50932,153.78,136.07,166.12,159.15,141.8,275.07,236.23,19.47,-117.22,-94.01,136.07,159.15,166.12,0,30.05,0.54
KLaL_cation_pi_RCCE_opt_neg1p5.xyz,Nucleus 42C :,-3.29932,-2.31449,-15.5209,40.84,158.07,-46.64,11.09,301.67,209.22,227.83,-312.08,-229.99,-74.13,-46.64,11.09,158.07,0,204.71,-0.44
KLaL_cation_pi_RCCE_opt_neg1p5.xyz,Nucleus 43C :,-0.634,-1.93327,-14.92549,45.39,-56.9,34.85,158.21,173.26,296.04,219.29,-312.1,-177.11,-63.22,-56.9,34.85,158.21,0,215.11,-0.15
KLaL_cation_pi_RCCE_opt_neg1p5.xyz,Nucleus 45C :,-0.61955,-2.42075,-14.04083,50.35,177.55,31.22,-57.72,286.26,249.76,228.7,-51.73,-218.47,-343.47,-57.72,31.22,177.55,0,235.27,-0.24
KLaL_cation_pi_RCCE_opt_neg1p5.xyz,Nucleus 47C :,-0.34639,0.04638,-16.01492,45.85,-55.5,35.11,157.93,198.79,288.92,240.28,-300.28,-207.0,-83.16,-55.5,35.11,157.93,0,213.43,-0.15
KLaL_cation_pi_RCCE_opt_neg1p5.xyz,Nucleus 49C :,-0.35573,1.05022,-16.04481,42.72,163.13,-35.53,0.57,204.53,262.86,280.86,-96.03,-230.57,-293.48,-35.53,0.57,163.13,0,198.66,-0.64
KLaL_cation_pi_RCCE_opt_neg1p5.xyz,Nucleus 50C :,-0.07021,-0.44149,-16.85674,29.68,-76.39,42.93,122.5,150.79,214.12,304.69,-34.76,-177.28,-368.52,-76.39,42.93,122.5,0,198.89,0.2
KLaL_cation_pi_RCCE_opt_neg1p5.xyz,Nucleus 51C :,-0.64706,-0.61677,-14.92389,26.68,-67.5,105.81,41.74,140.98,287.47,312.67,-74.1,-223.03,-363.95,-67.5,41.74,105.81,0,173.31,0.26
KLaL_cation_pi_RCCE_opt_neg1p5.xyz,Nucleus 57C :,-0.16135,-2.40342,-15.68304,29.99,137.96,-36.45,-11.53,329.02,242.76,266.63,-105.01,-354.2,-289.22,-36.45,-11.53,137.96,0,174.41,-0.71
KLaL_cation_pi_RCCE_opt_neg1p5.xyz,Nucleus 52N :,-0.9608,0.03763,-13.83124,104.53,201.26,67.94,44.39,319.87,352.68,438.33,-127.55,-282.73,-387.01,44.39,67.94,201.26,0,156.87,-0.7
KLaL_cation_pi_RCCE_opt_neg1p5.xyz,Nucleus 54N :,-0.9621,1.04135,-13.79599,157.71,105.79,186.76,180.59,225.33,335.83,423.47,-40.71,-192.91,-277.87,105.79,180.59,186.76,0,80.97,0.85
KLaL_cation_pi_RCCE_opt_neg1p5.xyz,Nucleus 59N :,-1.16151,-0.45861,-12.97253,157.16,105.14,184.97,181.37,414.19,307.07,375.01,-228.38,-255.92,-140.51,105.14,181.37,184.97,0,79.83,0.91
KLaL_cation_pi_RCCE_opt_neg1p4.xyz,Nucleus 3H :,1.85056,-3.65399,-14.42354,27.5,34.53,24.82,23.14,-83.94,78.89,16.5,110.15,-48.71,9.6,23.14,24.82,34.53,0,11.39,-0.71
KLaL_cation_pi_RCCE_opt_neg1p4.xyz,Nucleus 4H :,-1.00867,-3.16908,-13.28325,26.93,23.2,27.61,29.97,-62.39,9.64,99.27,87.55,18.42,-71.7,23.2,27.61,29.97,0,6.77,0.3
KLaL_cation_pi_RCCE_opt_neg1p4.xyz,Nucleus 7H :,2.41198,-2.20461,-16.88088,24.22,29.68,22.82,20.16,-52.88,59.28,94.78,77.58,-34.25,-71.85,20.16,22.82,29.68,0,9.52,-0.44
KLaL_cation_pi_RCCE_opt_neg1p4.xyz,Nucleus 9H :,3.34765,-1.9455,-17.38756,24.76,20.5,26.45,27.34,13.75,78.76,63.65,12.06,-52.9,-41.03,20.5,26.45,27.34,0,6.84,0.74
KLaL_cation_pi_RCCE_opt_neg1p4.xyz,Nucleus 11H :,2.39691,-3.29532,-16.81784,24.15,29.64,20.13,22.69,137.12,25.87,59.01,-113.63,-1.35,-34.57,20.13,22.69,29.64,0,9.51,-0.46
KLaL_cation_pi_RCCE_opt_neg1p4.xyz,Nucleus 14H :,2.4252,-1.57784,-15.50033,26.3,22.91,29.48,26.5,98.0,55.7,10.89,-73.28,-27.92,15.5,22.91,26.5,29.48,0,6.57,0.09
KLaL_cation_pi_RCCE_opt_neg1p4.xyz,Nucleus 15H :,2.68791,-0.21348,-15.39687,27.7,34.79,25.11,23.21,136.83,35.43,57.63,-110.21,-2.5,-34.07,23.21,25.11,34.79,0,11.58,-0.67
KLaL_cation_pi_RCCE_opt_neg1p4.xyz,Nucleus 18H :,2.98968,0.34051,-16.28164,23.5,27.94,22.71,19.84,122.16,85.62,35.34,-100.41,-63.99,-8.24,19.84,22.71,27.94,0,8.1,-0.29
KLaL_cation_pi_RCCE_opt_neg1p4.xyz,Nucleus 20H :,2.57849,0.43438,-14.17723,23.81,19.99,26.03,25.41,35.18,79.56,103.92,-53.57,-83.63,-10.03,19.99,25.41,26.03,0,6.04,0.79
KLaL_cation_pi_RCCE_opt_neg1p4.xyz,Nucleus 22H :,2.82822,1.48929,-14.10622,23.78,28.31,23.23,19.79,115.25,24.75,67.13,-92.32,2.96,-46.43,19.79,23.23,28.31,0,8.52,-0.19
KLaL_cation_pi_RCCE_opt_neg1p4.xyz,Nucleus 29H :,2.14561,-0.24168,-13.06379,27.36,34.42,24.74,22.93,127.6,7.22,24.98,-99.47,23.54,-1.77,22.93,24.74,34.42,0,11.49,-0.68
KLaL_cation_pi_RCCE_opt_neg1p4.xyz,Nucleus 30H :,2.02109,0.28044,-12.11936,27.01,23.22,27.66,30.16,0.52,93.43,51.45,26.8,-68.12,-23.05,23.22,27.66,30.16,0,6.94,0.28
KLaL_cation_pi_RCCE_opt_neg1p4.xyz,Nucleus 33H :,1.85668,-1.6211,-13.12241,23.97,29.48,22.39,20.04,128.7,29.56,4.1,-104.48,-5.49,19.52,20.04,22.39,29.48,0,9.44,-0.5
KLaL_cation_pi_RCCE_opt_neg1p4.xyz,Nucleus 35H :,1.26442,-2.28521,-11.89554,24.57,20.23,26.14,27.33,86.04,-13.41,12.63,-60.01,37.6,10.83,20.23,26.14,27.33,0,7.1,0.66
KLaL_cation_pi_RCCE_opt_neg1p4.xyz,Nucleus 37H :,1.23472,-3.36627,-12.0504,24.05,29.61,20.11,22.43,-84.02,93.23,20.15,108.91,3.8,-69.93,20.11,22.43,29.61,0,9.5,-0.51
KLaL_cation_pi_RCCE_opt_neg1p4.xyz,Nucleus 40H :,1.91674,-2.09261,-11.03742,27.18,23.56,30.23,27.74,-77.66,66.89,-7.67,101.36,-37.96,36.57,23.56,27.74,30.23,0,6.67,0.25
KLaL_cation_pi_RCCE_opt_neg1p4.xyz,Nucleus 41H :,-0.11608,-1.76989,-11.58662,27.35,34.49,24.72,22.85,-121.73,57.94,-24.65,146.11,-24.28,48.68,22.85,24.72,34.49,0,11.64,-0.68
KLaL_cation_pi_RCCE_opt_neg1p4.xyz,Nucleus 44H :,-0.34726,-0.74504,-10.66249,23.64,28.15,22.91,19.87,-87.9,-22.3,64.26,108.87,46.24,-38.24,19.87,22.91,28.15,0,8.28,-0.26
KLaL_cation_pi_RCCE_opt_neg1p4.xyz,Nucleus 46H :,0.48968,-0.37756,-10.07614,23.79,19.97,26.0,25.39,70.53,-13.7,-73.75,-45.43,39.7,94.02,19.97,25.39,26.0,0,6.03,0.8
KLaL_cation_pi_RCCE_opt_neg1p4.xyz,Nucleus 48H :,-1.61623,-0.22215,-10.4753,23.61,28.11,22.96,19.75,66.95,-43.92,-5.4,-40.85,65.87,28.16,19.75,22.96,28.11,0,8.36,-0.23
KLaL_cation_pi_RCCE_opt_neg1p4.xyz,Nucleus 53H :,-1.78286,0.55559,-9.73755,13.52,38.9,3.19,-1.52,-78.4,10.02,104.31,78.33,-7.08,-66.6,-1.52,3.19,38.9,0,40.42,-0.77
KLaL_cation_pi_RCCE_opt_neg1p4.xyz,Nucleus 55H :,-2.67282,-0.71904,-11.20753,30.46,25.79,30.51,35.08,-4.18,37.13,109.32,30.45,-6.01,-75.32,25.79,30.51,35.08,0,9.29,0.02
KLaL_cation_pi_RCCE_opt_neg1p4.xyz,Nucleus 56H :,-3.67284,-0.32653,-11.04041,30.61,48.1,22.76,20.98,161.39,11.95,40.46,-140.37,11.79,6.62,20.98,22.76,48.1,0,27.12,-0.87
KLaL_cation_pi_RCCE_opt_neg1p4.xyz,Nucleus 58H :,-2.50759,-1.75085,-12.13052,14.94,37.86,6.51,0.44,127.87,23.35,61.95,-122.05,-16.03,-30.28,0.44,6.51,37.86,0,37.42,-0.68
KLaL_cation_pi_RCCE_opt_neg1p4.xyz,Nucleus 60H :,-1.21105,-2.26606,-12.34584,30.45,25.77,30.57,35.0,100.28,78.12,24.22,-73.47,-46.74,8.93,25.77,30.57,35.0,0,9.23,0.04
KLaL_cation_pi_RCCE_opt_neg1p4.xyz,Nucleus 61H :,2.06614,-2.26271,-14.33433,30.61,48.24,22.65,20.93,79.89,114.78,-32.6,-56.29,-67.49,53.54,20.93,22.65,48.24,0,27.31,-0.87
KLaL_cation_pi_RCCE_opt_neg1p4.xyz,Nucleus 62H :,-3.05617,-3.70143,-15.43508,26.51,37.42,19.62,22.48,25.12,49.83,63.05,-42.49,-12.75,-3.24,19.62,22.48,37.42,0,17.8,-0.68
KLaL_cation_pi_RCCE_opt_neg1p4.xyz,Nucleus 63H :,-0.20716,-3.15713,-16.57412,23.59,33.54,22.27,14.97,86.77,38.42,17.44,-54.39,-16.07,-1.4,14.97,22.27,33.54,0,18.57,-0.21
KLaL_cation_pi_RCCE_opt_neg1p4.xyz,Nucleus 64H :,-3.64618,-2.26946,-12.97424,27.54,42.01,19.31,21.29,77.51,-21.81,15.86,-37.2,42.86,5.39,19.31,21.29,42.01,0,22.7,-0.83
KLaL_cation_pi_RCCE_opt_neg1p4.xyz,Nucleus 65H :,-4.58558,-2.02912,-12.46536,23.41,33.87,14.07,22.3,7.42,67.42,38.86,22.29,-46.81,-18.92,14.07,22.3,33.87,0,19.8,-0.17
KLaL_cation_pi_RCCE_opt_neg1p4.xyz,Nucleus 2C :,-3.63086,-3.36289,-13.04152,152.09,134.58,164.53,157.16,318.98,187.15,226.59,-167.05,-23.41,-85.98,134.58,157.16,164.53,0,29.95,0.51
KLaL_cation_pi_RCCE_opt_neg1p4.xyz,Nucleus 5C :,-3.67186,-1.63971,-14.35326,48.0,162.08,22.39,-40.47,254.62,287.32,313.93,-106.5,-289.27,-316.1,-40.47,22.39,162.08,0,202.55,-0.38
KLaL_cation_pi_RCCE_opt_neg1p4.xyz,Nucleus 6C :,-3.9616,-0.28059,-14.4534,42.15,165.83,-66.46,27.09,206.54,313.78,295.36,-60.97,-367.63,-260.62,-66.46,27.09,165.83,0,232.29,-0.19
KLaL_cation_pi_RCCE_opt_neg1p4.xyz,Nucleus 8C :,-4.26639,0.26235,-13.56389,55.13,177.29,-52.89,40.98,233.42,323.94,279.47,-78.6,-261.41,-331.43,-52.89,40.98,177.29,0,230.18,-0.18
KLaL_cation_pi_RCCE_opt_neg1p4.xyz,Nucleus 10C :,-3.86508,0.37227,-15.67146,40.77,166.17,24.63,-68.5,236.47,333.54,283.82,-112.24,-348.7,-270.59,-68.5,24.63,166.17,0,234.67,-0.21
KLaL_cation_pi_RCCE_opt_neg1p4.xyz,Nucleus 12C :,-4.13466,1.42199,-15.74103,47.19,163.5,-36.96,15.04,289.28,227.75,254.27,-71.22,-324.6,-233.89,-36.96,15.04,163.5,0,200.46,-0.48
KLaL_cation_pi_RCCE_opt_neg1p4.xyz,Nucleus 13C :,-3.41889,-0.29236,-16.78652,152.4,133.56,165.24,158.39,331.54,243.32,263.85,-166.81,-85.39,-129.32,133.56,158.39,165.24,0,31.68,0.57
KLaL_cation_pi_RCCE_opt_neg1p4.xyz,Nucleus 16C :,-3.30176,0.23385,-17.72915,39.1,162.94,-39.81,-5.84,334.78,238.3,259.2,-78.7,-369.61,-266.67,-39.81,-5.84,162.94,0,202.75,-0.66
KLaL_cation_pi_RCCE_opt_neg1p4.xyz,Nucleus 17C :,-3.10266,-1.66591,-16.73126,43.74,-59.6,32.96,157.85,338.52,283.25,260.02,-373.84,-252.15,-124.6,-59.6,32.96,157.85,0,217.45,-0.15
KLaL_cation_pi_RCCE_opt_neg1p4.xyz,Nucleus 19C :,-2.49736,-2.31516,-17.95972,51.37,177.32,33.33,-56.54,318.43,246.31,277.74,-100.06,-284.18,-304.13,-56.54,33.33,177.32,0,233.86,-0.23
KLaL_cation_pi_RCCE_opt_neg1p4.xyz,Nucleus 21C :,-2.47907,-3.407,-17.86462,48.15,-52.74,38.87,158.31,344.33,259.24,269.43,-376.53,-110.8,-241.23,-52.74,38.87,158.31,0,211.05,-0.13
KLaL_cation_pi_RCCE_opt_neg1p4.xyz,Nucleus 23C :,-3.14888,-2.11605,-18.81737,43.07,-43.82,14.71,158.33,324.58,255.1,281.14,-352.84,-258.25,-120.5,-43.82,14.71,158.33,0,202.15,-0.42
KLaL_cation_pi_RCCE_opt_neg1p4.xyz,Nucleus 24C :,-1.12737,-1.77181,-18.26735,27.96,-75.8,37.79,121.9,244.54,343.69,306.97,-178.79,-299.69,-332.84,-75.8,37.79,121.9,0,197.7,0.15
KLaL_cation_pi_RCCE_opt_neg1p4.xyz,Nucleus 25C :,-0.91658,-0.74033,-19.18898,21.26,111.05,-66.91,19.64,209.22,284.13,255.19,-99.36,-326.91,-258.49,-66.91,19.64,111.05,0,177.96,-0.03
KLaL_cation_pi_RCCE_opt_neg1p4.xyz,Nucleus 28C :,-1.75776,-0.38293,-19.77633,153.02,135.4,164.99,158.68,199.18,319.97,270.7,-61.29,-155.97,-113.53,135.4,158.68,164.99,0,29.59,0.57
KLaL_cation_pi_RCCE_opt_neg1p4.xyz,Nucleus 31C :,0.34176,-0.19192,-19.37488,45.59,163.36,14.13,-40.72,284.73,196.42,230.26,-56.9,-217.72,-300.02,-40.72,14.13,163.36,0,204.08,-0.46
KLaL_cation_pi_RCCE_opt_neg1p4.xyz,Nucleus 32C :,0.49023,0.59144,-20.11041,40.08,166.24,-68.01,22.02,320.21,217.39,264.23,-116.25,-260.46,-304.86,-68.01,22.02,166.24,0,234.25,-0.23
KLaL_cation_pi_RCCE_opt_neg1p4.xyz,Nucleus 34C :,1.40802,-0.66952,-18.64383,51.64,178.57,-56.84,33.19,317.73,202.61,245.72,-58.02,-334.97,-218.16,-56.84,33.19,178.57,0,235.41,-0.24
KLaL_cation_pi_RCCE_opt_neg1p4.xyz,Nucleus 36C :,2.40209,-0.26185,-18.80495,40.9,166.73,22.57,-66.6,164.68,335.93,256.24,-46.33,-378.66,-209.16,-66.6,22.57,166.73,0,233.33,-0.24
KLaL_cation_pi_RCCE_opt_neg1p4.xyz,Nucleus 38C :,1.26331,-1.70665,-17.72336,46.29,163.18,-40.63,16.32,197.34,306.68,363.85,-114.17,-270.33,-344.5,-40.63,16.32,163.18,0,203.81,-0.44
KLaL_cation_pi_RCCE_opt_neg1p4.xyz,Nucleus 39C :,-0.02275,-2.248,-17.50932,153.83,136.13,166.12,159.23,143.17,274.47,233.45,18.32,-116.18,-91.76,136.13,159.23,166.12,0,29.99,0.54
KLaL_cation_pi_RCCE_opt_neg1p4.xyz,Nucleus 42C :,-3.29932,-2.31449,-15.5209,41.37,158.16,-45.49,11.45,297.43,211.22,225.54,-305.35,-232.99,-71.72,-45.49,11.45,158.16,0,203.65,-0.44
KLaL_cation_pi_RCCE_opt_neg1p4.xyz,Nucleus 43C :,-0.634,-1.83327,-14.92549,45.44,-56.94,35.09,158.16,172.07,295.68,218.73,-312.31,-174.86,-63.01,-56.94,35.09,158.16,0,215.1,-0.14
KLaL_cation_pi_RCCE_opt_neg1p4.xyz,Nucleus 45C :,-0.61955,-2.32075,-14.04083,51.04,177.5,32.45,-56.84,286.71,249.59,227.62,-50.73,-217.06,-343.02,-56.84,32.45,177.5,0,234.34,-0.24
KLaL_cation_pi_RCCE_opt_neg1p4.xyz,Nucleus 47C :,-0.34639,0.14638,-16.01492,45.89,-55.55,35.33,157.9,198.71,290.45,240.52,-301.92,-207.12,-82.97,-55.55,35.33,157.9,0,213.45,-0.15
KLaL_cation_pi_RCCE_opt_neg1p4.xyz,Nucleus 49C :,-0.35573,1.15022,-16.04481,43.32,163.22,-34.33,1.07,208.36,262.87,284.15,-94.4,-234.21,-296.82,-34.33,1.07,163.22,0,197.55,-0.64
KLaL_cation_pi_RCCE_opt_neg1p4.xyz,Nucleus 50C :,-0.07021,-0.34149,-16.85674,28.78,-75.75,39.88,122.22,143.07,223.59,301.39,-28.76,-190.19,-362.74,-75.75,39.88,122.22,0,197.97,0.17
KLaL_cation_pi_RCCE_opt_neg1p4.xyz,Nucleus 51C :,-0.64706,-0.51677,-14.92389,26.86,-67.09,105.89,41.78,140.62,288.01,311.4,-73.23,-223.54,-362.69,-67.09,41.78,105.89,0,172.98,0.26
KLaL_cation_pi_RCCE_opt_neg1p4.xyz,Nucleus 57C :,-0.16135,-2.30342,-15.68304,30.03,136.55,-34.13,-12.34,330.26,243.75,265.36,-107.45,-354.58,-287.25,-34.13,-12.34,136.55,0,170.68,-0.74
KLaL_cation_pi_RCCE_opt_neg1p4.xyz,Nucleus 52N :,-0.9608,0.13763,-13.83124,112.77,203.49,65.4,69.41,314.69,354.76,434.84,-121.54,-278.76,-365.69,65.4,69.41,203.49,0,138.09,-0.94
KLaL_cation_pi_RCCE_opt_neg1p4.xyz,Nucleus 54N :,-0.9621,1.14135,-13.79599,161.02,108.9,183.66,190.49,222.75,334.71,422.82,-36.91,-189.22,-271.09,108.9,183.66,190.49,0,81.59,0.83
KLaL_cation_pi_RCCE_opt_neg1p4.xyz,Nucleus 59N :,-1.16151,-0.35861,-12.97253,160.48,108.2,185.56,187.69,416.64,307.19,376.22,-229.97,-255.67,-132.97,108.2,185.56,187.69,0,79.49,0.95
KLaL_cation_pi_RCCE_opt_neg1p3.xyz,Nucleus 3H :,1.85056,-3.65399,-14.42354,27.51,34.56,24.81,23.15,-83.86,78.8,17.88,110.08,-48.56,8.19,23.15,24.81,34.56,0,11.41,-0.71
KLaL_cation_pi_RCCE_opt_neg1p3.xyz,Nucleus 4H :,-1.00867,-3.16908,-13.28325,26.92,23.19,27.59,29.97,-61.89,10.5,98.7,87.06,17.51,-71.13,23.19,27.59,29.97,0,6.78,0.3
KLaL_cation_pi_RCCE_opt_neg1p3.xyz,Nucleus 7H :,2.41198,-2.20461,-16.88088,24.23,29.66,22.85,20.17,-53.82,59.46,95.56,78.53,-34.43,-72.63,20.17,22.85,29.66,0,9.49,-0.44
KLaL_cation_pi_RCCE_opt_neg1p3.xyz,Nucleus 9H :,3.34765,-1.9455,-17.38756,24.77,20.5,26.46,27.34,12.97,79.9,64.16,12.86,-53.97,-41.6,20.5,26.46,27.34,0,6.84,0.74
KLaL_cation_pi_RCCE_opt_neg1p3.xyz,Nucleus 11H :,2.39691,-3.29532,-16.81784,24.16,29.62,20.13,22.73,138.11,26.24,58.88,-114.58,-1.78,-34.4,20.13,22.73,29.62,0,9.49,-0.45
KLaL_cation_pi_RCCE_opt_neg1p3.xyz,Nucleus 14H :,2.4252,-1.57784,-15.50033,26.29,22.9,29.47,26.49,97.9,56.62,11.01,-73.15,-28.89,15.38,22.9,26.49,29.47,0,6.57,0.09
KLaL_cation_pi_RCCE_opt_neg1p3.xyz,Nucleus 15H :,2.68791,-0.21348,-15.39687,27.72,34.83,25.1,23.22,137.02,35.41,57.79,-110.39,-2.44,-34.25,23.22,25.1,34.83,0,11.61,-0.68
KLaL_cation_pi_RCCE_opt_neg1p3.xyz,Nucleus 18H :,2.98968,0.34051,-16.28164,23.5,27.94,22.72,19.84,122.76,86.2,35.4,-100.96,-64.61,-8.3,19.84,22.72,27.94,0,8.1,-0.29
KLaL_cation_pi_RCCE_opt_neg1p3.xyz,Nucleus 20H :,2.57849,0.43438,-14.17723,23.84,20.01,26.02,25.5,35.13,80.68,104.05,-54.69,-83.75,-9.88,20.01,25.5,26.02,0,6.01,0.83
KLaL_cation_pi_RCCE_opt_neg1p3.xyz,Nucleus 22H :,2.82822,1.48929,-14.10622,23.78,28.31,23.24,19.8,115.7,24.63,67.73,-92.74,3.09,-47.08,19.8,23.24,28.31,0,8.51,-0.19
KLaL_cation_pi_RCCE_opt_neg1p3.xyz,Nucleus 29H :,2.14561,-0.24168,-13.06379,27.38,34.46,24.73,22.94,127.82,7.01,25.04,-99.68,23.79,-1.85,22.94,24.73,34.46,0,11.52,-0.69
KLaL_cation_pi_RCCE_opt_neg1p3.xyz,Nucleus 30H :,2.02109,0.28044,-12.11936,27.01,23.21,27.64,30.18,0.54,93.61,51.58,26.79,-68.22,-23.26,23.21,27.64,30.18,0,6.97,0.27
KLaL_cation_pi_RCCE_opt_neg1p3.xyz,Nucleus 33H :,1.85668,-1.6211,-13.12241,23.99,29.46,22.45,20.05,129.41,28.92,4.04,-105.19,-4.84,19.62,20.05,22.45,29.46,0,9.41,-0.49
KLaL_cation_pi_RCCE_opt_neg1p3.xyz,Nucleus 35H :,1.26442,-2.28521,-11.89554,24.56,20.22,26.14,27.31,86.45,-14.84,12.33,-60.4,39.09,11.04,20.22,26.14,27.31,0,7.09,0.67
KLaL_cation_pi_RCCE_opt_neg1p3.xyz,Nucleus 37H :,1.23472,-3.36627,-12.0504,24.06,29.59,20.11,22.49,-84.95,92.54,19.4,109.82,-69.2,4.59,20.11,22.49,29.59,0,9.48,-0.5
KLaL_cation_pi_RCCE_opt_neg1p3.xyz,Nucleus 40H :,1.91674,-2.09261,-11.03742,27.17,23.54,30.24,27.73,-77.07,66.24,-9.47,100.77,-37.3,38.34,23.54,27.73,30.24,0,6.7,0.25
KLaL_cation_pi_RCCE_opt_neg1p3.xyz,Nucleus 41H :,-0.11608,-1.76989,-11.58662,27.36,34.53,24.7,22.85,-121.28,58.03,-25.95,145.68,-24.32,49.94,22.85,24.7,34.53,0,11.68,-0.68
KLaL_cation_pi_RCCE_opt_neg1p3.xyz,Nucleus 44H :,-0.34726,-0.74504,-10.66249,23.65,28.15,22.92,19.87,-87.54,-24.36,64.04,108.56,48.24,-38.0,19.87,22.92,28.15,0,8.28,-0.26
KLaL_cation_pi_RCCE_opt_neg1p3.xyz,Nucleus 46H :,0.48968,-0.37756,-10.07614,23.82,19.99,25.99,25.47,70.49,-14.94,-73.6,-45.3,40.93,93.87,19.99,25.47,25.99,0,6.0,0.82
KLaL_cation_pi_RCCE_opt_neg1p3.xyz,Nucleus 48H :,-1.61623,-0.22215,-10.4753,23.61,28.1,22.97,19.75,67.05,-43.96,-5.77,-40.83,65.99,28.35,19.75,22.97,28.1,0,8.35,-0.23
KLaL_cation_pi_RCCE_opt_neg1p3.xyz,Nucleus 53H :,-1.78286,0.55559,-9.73755,15.94,37.39,7.87,2.55,-64.97,4.15,102.37,69.22,2.92,-65.88,2.55,7.87,37.39,0,34.84,-0.69
KLaL_cation_pi_RCCE_opt_neg1p3.xyz,Nucleus 55H :,-2.67282,-0.71904,-11.20753,30.38,25.5,30.11,35.52,-8.07,35.82,107.97,34.13,-5.02,-73.7,25.5,30.11,35.52,0,10.02,-0.08
KLaL_cation_pi_RCCE_opt_neg1p3.xyz,Nucleus 56H :,-3.67284,-0.32653,-11.04041,31.06,47.46,23.46,22.25,0.64,41.17,154.85,-132.55,22.89,6.16,22.25,23.46,47.46,0,25.21,-0.9
KLaL_cation_pi_RCCE_opt_neg1p3.xyz,Nucleus 58H :,-2.50759,-1.75085,-12.13052,17.25,36.58,10.87,4.31,131.69,40.68,61.14,-122.48,-36.55,-22.72,4.31,10.87,36.58,0,32.27,-0.59
KLaL_cation_pi_RCCE_opt_neg1p3.xyz,Nucleus 60H :,-1.21105,-2.26606,-12.34584,30.36,25.49,30.15,35.45,101.87,78.39,23.79,-75.28,-47.23,9.54,25.49,30.15,35.45,0,9.96,-0.06
KLaL_cation_pi_RCCE_opt_neg1p3.xyz,Nucleus 61H :,2.06614,-2.26271,-14.33433,31.06,47.58,23.39,22.2,90.59,113.1,-27.37,49.57,-70.91,-61.82,22.2,23.39,47.58,0,25.38,-0.91
KLaL_cation_pi_RCCE_opt_neg1p3.xyz,Nucleus 62H :,-3.05617,-3.70143,-15.43508,26.44,37.4,19.55,22.37,24.84,49.87,63.43,-42.77,-12.92,-3.14,19.55,22.37,37.4,0,17.85,-0.68
KLaL_cation_pi_RCCE_opt_neg1p3.xyz,Nucleus 63H :,-0.20716,-3.15713,-16.57412,23.76,33.97,22.25,15.05,86.61,37.6,15.71,-53.79,-15.43,0.57,15.05,22.25,33.97,0,18.92,-0.24
KLaL_cation_pi_RCCE_opt_neg1p3.xyz,Nucleus 64H :,-3.64618,-2.26946,-12.97424,27.55,42.09,19.27,21.3,77.79,-22.06,15.07,-37.46,43.12,6.2,19.27,21.3,42.09,0,22.82,-0.82
KLaL_cation_pi_RCCE_opt_neg1p3.xyz,Nucleus 65H :,-4.58558,-2.02912,-12.46536,23.58,34.35,14.14,22.26,9.65,63.76,38.79,20.16,-43.44,-18.16,14.14,22.26,34.35,0,20.21,-0.2
KLaL_cation_pi_RCCE_opt_neg1p3.xyz,Nucleus 2C :,-3.63086,-3.36289,-13.04152,152.14,134.68,164.49,157.26,318.69,188.42,227.76,-166.7,-24.4,-87.36,134.68,157.26,164.49,0,29.81,0.52
KLaL_cation_pi_RCCE_opt_neg1p3.xyz,Nucleus 5C :,-3.67186,-1.63971,-14.35326,47.89,162.42,21.98,-40.72,256.0,285.69,313.19,-106.9,-288.63,-315.66,-40.72,21.98,162.42,0,203.14,-0.38
KLaL_cation_pi_RCCE_opt_neg1p3.xyz,Nucleus 6C :,-3.9616,-0.28059,-14.4534,42.22,165.85,-66.03,26.84,205.18,313.91,294.47,-59.19,-367.37,-260.34,-66.03,26.84,165.85,0,231.88,-0.2
KLaL_cation_pi_RCCE_opt_neg1p3.xyz,Nucleus 8C :,-4.26639,0.26235,-13.56389,54.92,177.33,-52.97,40.39,232.27,325.13,280.1,-77.81,-262.41,-332.54,-52.97,40.39,177.33,0,230.3,-0.19
KLaL_cation_pi_RCCE_opt_neg1p3.xyz,Nucleus 10C :,-3.86508,0.37227,-15.67146,40.81,166.23,24.45,-68.25,236.22,334.63,285.82,-112.82,-349.06,-272.36,-68.25,24.45,166.23,0,234.48,-0.21
KLaL_cation_pi_RCCE_opt_neg1p3.xyz,Nucleus 12C :,-4.13466,1.42199,-15.74103,47.02,163.84,-37.28,14.51,289.09,227.44,257.35,-70.61,-325.33,-236.86,-37.28,14.51,163.84,0,201.12,-0.48
KLaL_cation_pi_RCCE_opt_neg1p3.xyz,Nucleus 13C :,-3.41889,-0.29236,-16.78652,152.45,133.67,165.24,158.45,332.09,243.27,264.82,-167.46,-85.37,-129.98,133.67,158.45,165.24,0,31.57,0.57
KLaL_cation_pi_RCCE_opt_neg1p3.xyz,Nucleus 16C :,-3.30176,0.23385,-17.72915,39.73,162.94,-38.32,-5.42,333.31,239.81,259.5,-80.6,-367.14,-265.68,-38.32,-5.42,162.94,0,201.26,-0.67
KLaL_cation_pi_RCCE_opt_neg1p3.xyz,Nucleus 17C :,-3.10266,-1.66591,-16.73126,43.78,-59.68,33.23,157.78,340.17,283.35,259.83,-375.14,-252.11,-124.77,-59.68,33.23,157.78,0,217.46,-0.15
KLaL_cation_pi_RCCE_opt_neg1p3.xyz,Nucleus 19C :,-2.49736,-2.31516,-17.95972,52.19,177.24,34.82,-55.49,319.47,245.88,278.85,-101.06,-283.83,-302.74,-55.49,34.82,177.24,0,232.73,-0.22
KLaL_cation_pi_RCCE_opt_neg1p3.xyz,Nucleus 21C :,-2.47907,-3.407,-17.86462,48.23,-52.79,39.23,158.25,345.08,258.49,268.8,-376.65,-110.22,-240.81,-52.79,39.23,158.25,0,211.04,-0.13
KLaL_cation_pi_RCCE_opt_neg1p3.xyz,Nucleus 23C :,-3.14888,-2.11605,-18.81737,43.69,-42.42,15.25,158.24,323.43,280.52,257.74,-351.7,-257.62,-121.29,-42.42,15.25,158.24,0,200.66,-0.43
KLaL_cation_pi_RCCE_opt_neg1p3.xyz,Nucleus 24C :,-1.12737,-1.77181,-18.26735,27.15,-74.97,34.66,121.76,244.92,340.93,309.35,-181.14,-298.01,-334.6,-74.97,34.66,121.76,0,196.73,0.11
KLaL_cation_pi_RCCE_opt_neg1p3.xyz,Nucleus 25C :,-0.91658,-0.74033,-19.18898,21.33,111.2,-66.68,19.47,208.43,284.86,255.2,-98.26,-327.56,-258.67,-66.68,19.47,111.2,0,177.88,-0.03
KLaL_cation_pi_RCCE_opt_neg1p3.xyz,Nucleus 28C :,-1.75776,-0.38293,-19.77633,153.05,135.41,164.99,158.76,198.22,320.76,270.42,-60.2,-156.85,-113.18,135.41,158.76,164.99,0,29.58,0.58
KLaL_cation_pi_RCCE_opt_neg1p3.xyz,Nucleus 31C :,0.34176,-0.19192,-19.37488,45.4,163.75,13.7,-41.25,284.61,196.01,231.16,-56.51,-219.46,-299.61,-41.25,13.7,163.75,0,205.0,-0.46
KLaL_cation_pi_RCCE_opt_neg1p3.xyz,Nucleus 32C :,0.49023,0.59144,-20.11041,40.26,166.27,-67.3,21.81,320.52,216.75,264.34,-116.21,-260.12,-304.51,-67.3,21.81,166.27,0,233.57,-0.24
KLaL_cation_pi_RCCE_opt_neg1p3.xyz,Nucleus 34C :,1.40802,-0.66952,-18.64383,51.23,178.61,-57.29,32.37,318.74,199.63,245.84,-56.9,-335.53,-218.08,-57.29,32.37,178.61,0,235.9,-0.24
KLaL_cation_pi_RCCE_opt_neg1p3.xyz,Nucleus 36C :,2.40209,-0.26185,-18.80495,41.1,166.78,22.47,-65.95,163.3,335.01,255.42,-45.27,-377.01,-208.16,-65.95,22.47,166.78,0,232.73,-0.24
KLaL_cation_pi_RCCE_opt_neg1p3.xyz,Nucleus 38C :,1.26331,-1.70665,-17.72336,46.07,163.52,-41.23,15.91,196.58,307.57,360.04,-114.01,-270.93,-341.05,-41.23,15.91,163.52,0,204.75,-0.44
KLaL_cation_pi_RCCE_opt_neg1p3.xyz,Nucleus 39C :,-0.02275,-2.248,-17.50932,153.87,136.19,166.13,159.3,144.5,274.1,229.91,17.36,-115.41,-88.83,136.19,159.3,166.13,0,29.94,0.54
KLaL_cation_pi_RCCE_opt_neg1p3.xyz,Nucleus 42C :,-3.29932,-2.31449,-15.5209,41.89,158.17,-44.21,11.7,293.65,225.87,209.13,-298.32,-236.0,-68.66,-44.21,11.7,158.17,0,202.38,-0.45
KLaL_cation_pi_RCCE_opt_neg1p3.xyz,Nucleus 43C :,-0.634,-1.73327,-14.92549,45.5,-56.98,35.38,158.11,169.77,217.67,295.32,-312.18,-171.76,-62.31,-56.98,35.38,158.11,0,215.09,-0.14
KLaL_cation_pi_RCCE_opt_neg1p3.xyz,Nucleus 45C :,-0.61955,-2.22075,-14.04083,51.75,177.45,33.74,-55.93,286.81,248.93,226.17,-49.43,-215.11,-342.11,-55.93,33.74,177.45,0,233.38,-0.23
KLaL_cation_pi_RCCE_opt_neg1p3.xyz,Nucleus 47C :,-0.34639,0.24638,-16.01492,45.97,-55.58,35.63,157.86,197.49,291.97,240.45,-303.13,-206.35,-82.52,-55.58,35.63,157.86,0,213.44,-0.15
KLaL_cation_pi_RCCE_opt_neg1p3.xyz,Nucleus 49C :,-0.35573,1.25022,-16.04481,43.84,163.24,-33.13,1.42,212.1,262.22,287.75,-93.08,-237.6,-299.85,-33.13,1.42,163.24,0,196.37,-0.65
KLaL_cation_pi_RCCE_opt_neg1p3.xyz,Nucleus 50C :,-0.07021,-0.24149,-16.85674,28.03,-74.96,36.96,122.08,135.9,231.58,298.82,-23.25,-201.27,-357.7,-74.96,36.96,122.08,0,197.04,0.14
KLaL_cation_pi_RCCE_opt_neg1p3.xyz,Nucleus 51C :,-0.64706,-0.41677,-14.92389,27.06,-66.57,105.97,41.77,140.23,288.82,309.54,-72.41,-224.18,-360.83,-66.57,41.77,105.97,0,172.54,0.26
KLaL_cation_pi_RCCE_opt_neg1p3.xyz,Nucleus 57C :,-0.16135,-2.20342,-15.68304,30.12,135.25,-31.91,-12.99,331.5,244.73,264.05,-109.81,-354.95,-285.17,-31.91,-12.99,135.25,0,167.16,-0.77
KLaL_cation_pi_RCCE_opt_neg1p3.xyz,Nucleus 52N :,-0.9608,0.23763,-13.83124,119.59,204.49,64.76,89.52,310.34,355.06,431.5,-116.6,-270.96,-350.57,64.76,89.52,204.49,0,139.73,-0.65
KLaL_cation_pi_RCCE_opt_neg1p3.xyz,Nucleus 54N :,-0.9621,1.24135,-13.79599,163.99,111.55,185.65,194.77,219.82,333.58,421.4,-32.75,-185.19,-264.89,111.55,185.65,194.77,0,83.22,0.78
KLaL_cation_pi_RCCE_opt_neg1p3.xyz,Nucleus 59N :,-1.16151,-0.25861,-12.97253,163.49,110.82,186.82,192.83,419.43,307.8,377.09,-231.84,-254.87,-127.15,110.82,186.82,192.83,0,82.01,0.85
KLaL_cation_pi_RCCE_opt_neg1p2.xyz,Nucleus 3H :,1.85056,-3.65399,-14.42354,27.51,34.59,24.8,23.14,-83.73,78.82,19.25,109.94,-48.55,6.8,23.14,24.8,34.59,0,11.45,-0.71
KLaL_cation_pi_RCCE_opt_neg1p2.xyz,Nucleus 4H :,-1.00867,-3.16908,-13.28325,26.9,23.17,27.57,29.97,-61.52,11.44,97.89,86.67,16.51,-70.3,23.17,27.57,29.97,0,6.8,0.3
KLaL_cation_pi_RCCE_opt_neg1p2.xyz,Nucleus 7H :,2.41198,-2.20461,-16.88088,24.23,29.62,22.91,20.17,-54.57,59.7,96.33,79.3,-34.67,-73.38,20.17,22.91,29.62,0,9.45,-0.42
KLaL_cation_pi_RCCE_opt_neg1p2.xyz,Nucleus 9H :,3.34765,-1.9455,-17.38756,24.77,20.52,26.47,27.33,12.2,81.02,64.71,13.64,-55.03,-42.23,20.52,26.47,27.33,0,6.81,0.75
KLaL_cation_pi_RCCE_opt_neg1p2.xyz,Nucleus 11H :,2.39691,-3.29532,-16.81784,24.17,29.6,20.14,22.78,138.96,26.63,58.73,-115.37,-2.24,-34.21,20.14,22.78,29.6,0,9.46,-0.44
KLaL_cation_pi_RCCE_opt_neg1p2.xyz,Nucleus 14H :,2.4252,-1.57784,-15.50033,26.29,22.91,29.48,26.47,97.84,57.51,11.4,-73.1,-29.77,14.98,22.91,26.47,29.48,0,6.57,0.08
KLaL_cation_pi_RCCE_opt_neg1p2.xyz,Nucleus 15H :,2.68791,-0.21348,-15.39687,27.74,34.86,25.1,23.25,137.19,35.41,57.84,-110.55,-2.4,-34.28,23.25,25.1,34.86,0,11.61,-0.68
KLaL_cation_pi_RCCE_opt_neg1p2.xyz,Nucleus 18H :,2.98968,0.34051,-16.28164,23.51,27.94,22.72,19.86,123.32,86.56,35.45,-101.48,-64.99,-8.35,19.86,22.72,27.94,0,8.08,-0.29
KLaL_cation_pi_RCCE_opt_neg1p2.xyz,Nucleus 20H :,2.57849,0.43438,-14.17723,23.89,20.05,26.03,25.58,35.12,81.74,104.07,-9.79,-55.75,-83.74,20.05,25.58,26.03,0,5.98,0.85
KLaL_cation_pi_RCCE_opt_neg1p2.xyz,Nucleus 22H :,2.82822,1.48929,-14.10622,23.79,23.25,19.81,28.31,116.21,24.56,68.15,-93.19,3.19,-47.54,19.81,23.25,28.31,0,8.5,-0.19
KLaL_cation_pi_RCCE_opt_neg1p2.xyz,Nucleus 29H :,2.14561,-0.24168,-13.06379,27.39,34.49,24.72,22.95,128.15,6.84,24.95,-100.0,24.0,-1.79,22.95,24.72,34.49,0,11.54,-0.69
KLaL_cation_pi_RCCE_opt_neg1p2.xyz,Nucleus 30H :,2.02109,0.28044,-12.11936,27.02,23.21,27.63,30.21,0.53,93.88,51.88,26.8,-68.41,-23.63,23.21,27.63,30.21,0,7.0,0.26
KLaL_cation_pi_RCCE_opt_neg1p2.xyz,Nucleus 33H :,1.85668,-1.6211,-13.12241,24.01,29.45,22.52,20.06,130.11,28.36,4.04,-105.88,-4.24,19.65,20.06,22.52,29.45,0,9.39,-0.48
KLaL_cation_pi_RCCE_opt_neg1p2.xyz,Nucleus 35H :,1.26442,-2.28521,-11.89554,24.55,20.22,26.15,27.29,86.82,-16.22,11.97,-60.77,40.52,11.33,20.22,26.15,27.29,0,7.07,0.68
KLaL_cation_pi_RCCE_opt_neg1p2.xyz,Nucleus 37H :,1.23472,-3.36627,-12.0504,24.08,29.57,20.11,22.56,-85.89,91.71,18.73,110.73,-68.34,5.3,20.11,22.56,29.57,0,9.46,-0.48
KLaL_cation_pi_RCCE_opt_neg1p2.xyz,Nucleus 40H :,1.91674,-2.09261,-11.03742,27.16,23.52,30.24,27.71,-76.64,65.51,-11.16,100.32,-36.57,40.01,23.52,27.71,30.24,0,6.72,0.25
KLaL_cation_pi_RCCE_opt_neg1p2.xyz,Nucleus 41H :,-0.11608,-1.76989,-11.58662,27.37,34.57,24.67,22.87,-120.88,58.14,-27.15,145.28,-24.38,51.1,22.87,24.67,34.57,0,11.7,-0.69
KLaL_cation_pi_RCCE_opt_neg1p2.xyz,Nucleus 44H :,-0.34726,-0.74504,-10.66249,23.64,28.15,22.92,19.86,-87.23,-26.31,63.82,108.29,50.12,-37.75,19.86,22.92,28.15,0,8.29,-0.26
KLaL_cation_pi_RCCE_opt_neg1p2.xyz,Nucleus 46H :,0.48968,-0.37756,-10.07614,23.85,19.99,25.99,25.56,70.41,-16.26,-73.4,-45.12,42.25,93.66,19.99,25.56,25.99,0,6.0,0.85
KLaL_cation_pi_RCCE_opt_neg1p2.xyz,Nucleus 48H :,-1.61623,-0.22215,-10.4753,23.61,28.1,22.98,19.75,67.14,-44.14,-5.99,-40.83,66.26,28.4,19.75,22.98,28.1,0,8.35,-0.23
KLaL_cation_pi_RCCE_opt_neg1p2.xyz,Nucleus 53H :,-1.78286,0.55559,-9.73755,18.25,36.24,12.18,6.32,-50.79,2.74,101.04,58.84,8.31,-65.4,6.32,12.18,36.24,0,29.92,-0.61
KLaL_cation_pi_RCCE_opt_neg1p2.xyz,Nucleus 55H :,-2.67282,-0.71904,-11.20753,30.28,25.24,29.71,35.88,-11.55,34.54,106.57,37.42,-4.05,-72.09,25.24,29.71,35.88,0,10.64,-0.16
KLaL_cation_pi_RCCE_opt_neg1p2.xyz,Nucleus 56H :,-3.67284,-0.32653,-11.04041,31.36,46.82,23.99,23.28,-9.74,41.65,148.84,-125.48,33.73,5.09,23.28,23.99,46.82,0,23.54,-0.94
KLaL_cation_pi_RCCE_opt_neg1p2.xyz,Nucleus 58H :,-2.50759,-1.75085,-12.13052,19.44,35.59,14.9,7.83,134.52,51.63,60.3,-122.72,-41.33,-24.09,7.83,14.9,35.59,0,27.76,-0.49
KLaL_cation_pi_RCCE_opt_neg1p2.xyz,Nucleus 60H :,-1.21105,-2.26606,-12.34584,30.26,25.21,29.74,35.82,103.21,78.43,23.5,-76.85,-47.5,9.97,25.21,29.74,35.82,0,10.61,-0.15
KLaL_cation_pi_RCCE_opt_neg1p2.xyz,Nucleus 61H :,2.06614,-2.26271,-14.33433,31.34,46.93,23.87,23.21,112.36,99.18,-22.78,45.99,-78.98,-61.77,23.21,23.87,46.93,0,23.72,-0.94
KLaL_cation_pi_RCCE_opt_neg1p2.xyz,Nucleus 62H :,-3.05617,-3.70143,-15.43508,26.37,37.38,19.46,22.27,24.96,49.81,63.43,-42.63,-13.07,-3.4,19.46,22.27,37.38,0,17.92,-0.69
KLaL_cation_pi_RCCE_opt_neg1p2.xyz,Nucleus 63H :,-0.20716,-3.15713,-16.57412,23.91,34.35,22.23,15.16,86.59,36.63,14.11,-53.37,-14.65,2.42,15.16,22.23,34.35,0,19.19,-0.26
KLaL_cation_pi_RCCE_opt_neg1p2.xyz,Nucleus 64H :,-3.64618,-2.26946,-12.97424,27.56,42.16,19.23,21.3,78.06,-22.41,14.31,-37.71,43.46,6.98,19.23,21.3,42.16,0,22.93,-0.82
KLaL_cation_pi_RCCE_opt_neg1p2.xyz,Nucleus 65H :,-4.58558,-2.02912,-12.46536,23.71,34.77,14.19,22.18,12.48,60.77,38.41,17.56,-41.04,-17.04,14.19,22.18,34.77,0,20.58,-0.22
KLaL_cation_pi_RCCE_opt_neg1p2.xyz,Nucleus 2C :,-3.63086,-3.36289,-13.04152,152.2,134.77,164.48,157.34,318.46,189.13,228.85,-166.4,-24.94,-88.52,134.77,157.34,164.48,0,29.71,0.52
KLaL_cation_pi_RCCE_opt_neg1p2.xyz,Nucleus 5C :,-3.67186,-1.63971,-14.35326,47.7,162.69,21.49,-41.09,312.81,257.35,284.17,-107.44,-288.39,-315.4,-41.09,21.49,162.69,0,203.78,-0.39
KLaL_cation_pi_RCCE_opt_neg1p2.xyz,Nucleus 6C :,-3.9616,-0.28059,-14.4534,42.35,165.86,-65.48,26.67,203.73,314.34,293.59,-57.4,-367.33,-259.87,-65.48,26.67,165.86,0,231.34,-0.2
KLaL_cation_pi_RCCE_opt_neg1p2.xyz,Nucleus 8C :,-4.26639,0.26235,-13.56389,54.67,177.37,-53.16,39.8,231.18,326.28,280.78,-77.12,-263.27,-333.84,-53.16,39.8,177.37,0,230.53,-0.19
KLaL_cation_pi_RCCE_opt_neg1p2.xyz,Nucleus 10C :,-3.86508,0.37227,-15.67146,40.92,166.3,24.37,-67.9,235.64,335.97,288.05,-113.44,-349.4,-274.06,-67.9,24.37,166.3,0,234.2,-0.21
KLaL_cation_pi_RCCE_opt_neg1p2.xyz,Nucleus 12C :,-4.13466,1.42199,-15.74103,46.8,164.13,-37.67,13.93,227.38,289.26,260.54,-70.46,-326.51,-239.82,-37.67,13.93,164.13,0,201.8,-0.49
KLaL_cation_pi_RCCE_opt_neg1p2.xyz,Nucleus 13C :,-3.41889,-0.29236,-16.78652,152.49,133.78,165.19,158.5,333.02,243.29,265.95,-168.54,-85.49,-130.76,133.78,158.5,165.19,0,31.41,0.57
KLaL_cation_pi_RCCE_opt_neg1p2.xyz,Nucleus 16C :,-3.30176,0.23385,-17.72915,40.29,162.88,-36.93,-5.09,331.68,241.23,259.88,-82.82,-364.71,-264.39,-36.93,-5.09,162.88,0,199.81,-0.68
KLaL_cation_pi_RCCE_opt_neg1p2.xyz,Nucleus 17C :,-3.10266,-1.66591,-16.73126,43.83,-59.74,33.54,157.7,341.64,283.5,259.64,-376.27,-252.0,-125.0,-59.74,33.54,157.7,0,217.44,-0.14
KLaL_cation_pi_RCCE_opt_neg1p2.xyz,Nucleus 19C :,-2.49736,-2.31516,-17.95972,52.99,177.16,36.29,-54.48,320.33,245.55,279.91,-101.98,-283.3,-301.54,-54.48,36.29,177.16,0,231.64,-0.22
KLaL_cation_pi_RCCE_opt_neg1p2.xyz,Nucleus 21C :,-2.47907,-3.407,-17.86462,48.32,-52.84,39.62,158.19,346.03,257.83,268.16,-376.98,-109.59,-240.48,-52.84,39.62,158.19,0,211.03,-0.12
KLaL_cation_pi_RCCE_opt_neg1p2.xyz,Nucleus 23C :,-3.14888,-2.11605,-18.81737,44.22,-41.01,15.59,158.09,322.5,260.15,279.09,-350.83,-257.07,-121.16,-41.01,15.59,158.09,0,199.1,-0.43
KLaL_cation_pi_RCCE_opt_neg1p2.xyz,Nucleus 24C :,-1.12737,-1.77181,-18.26735,26.49,121.76,31.77,-74.05,245.19,338.47,309.97,-182.64,-296.59,-334.93,-74.05,31.77,121.76,0,195.81,0.08
KLaL_cation_pi_RCCE_opt_neg1p2.xyz,Nucleus 25C :,-0.91658,-0.74033,-19.18898,21.43,111.32,-66.35,19.32,208.18,285.79,255.15,-97.78,-328.19,-258.88,-66.35,19.32,111.32,0,177.67,-0.04
KLaL_cation_pi_RCCE_opt_neg1p2.xyz,Nucleus 28C :,-1.75776,-0.38293,-19.77633,153.06,135.41,164.98,158.79,197.95,321.82,269.94,-158.08,-59.76,-112.69,135.41,158.79,164.98,0,29.57,0.58
KLaL_cation_pi_RCCE_opt_neg1p2.xyz,Nucleus 31C :,0.34176,-0.19192,-19.37488,45.16,164.07,13.26,-41.86,284.63,195.45,232.18,-56.03,-221.22,-299.52,-41.86,13.26,164.07,0,205.93,-0.46
KLaL_cation_pi_RCCE_opt_neg1p2.xyz,Nucleus 32C :,0.49023,0.59144,-20.11041,40.5,166.3,-66.51,21.71,320.92,216.54,264.45,-116.47,-259.78,-304.15,-66.51,21.71,166.3,0,232.81,-0.24
KLaL_cation_pi_RCCE_opt_neg1p2.xyz,Nucleus 34C :,1.40802,-0.66952,-18.64383,50.82,178.66,-57.83,31.63,319.69,196.66,245.77,-55.69,-336.0,-217.96,-57.83,31.63,178.66,0,236.49,-0.24
KLaL_cation_pi_RCCE_opt_neg1p2.xyz,Nucleus 36C :,2.40209,-0.26185,-18.80495,41.34,166.82,22.44,-65.25,162.01,333.75,254.73,-44.19,-374.83,-207.45,-65.25,22.44,166.82,0,232.07,-0.24
KLaL_cation_pi_RCCE_opt_neg1p2.xyz,Nucleus 38C :,1.26331,-1.70665,-17.72336,45.82,163.82,-41.86,15.49,196.54,308.4,355.41,-114.46,-271.61,-336.84,-41.86,15.49,163.82,0,205.68,-0.44
KLaL_cation_pi_RCCE_opt_neg1p2.xyz,Nucleus 39C :,-0.02275,-2.248,-17.50932,153.93,136.23,166.16,159.39,145.74,273.71,226.01,16.51,-114.66,-85.53,136.23,159.39,166.16,0,29.93,0.55
KLaL_cation_pi_RCCE_opt_neg1p2.xyz,Nucleus 42C :,-3.29932,-2.31449,-15.5209,42.36,158.11,-42.9,11.87,290.36,228.53,203.52,-291.04,-239.13,-65.17,-42.9,11.87,158.11,0,201.01,-0.46
KLaL_cation_pi_RCCE_opt_neg1p2.xyz,Nucleus 43C :,-0.634,-1.63327,-14.92549,45.58,-57.01,35.7,158.04,167.18,216.48,294.87,-311.91,-168.42,-61.47,-57.01,35.7,158.04,0,215.05,-0.14
KLaL_cation_pi_RCCE_opt_neg1p2.xyz,Nucleus 45C :,-0.61955,-2.12075,-14.04083,52.46,177.39,35.05,-55.05,286.75,248.12,224.46,-47.89,-213.01,-341.03,-55.05,35.05,177.39,0,232.44,-0.22
KLaL_cation_pi_RCCE_opt_neg1p2.xyz,Nucleus 47C :,-0.34639,0.34638,-16.01492,46.07,-55.59,35.99,157.81,195.69,293.41,240.42,-304.18,-205.02,-82.12,-55.59,35.99,157.81,0,213.4,-0.14
KLaL_cation_pi_RCCE_opt_neg1p2.xyz,Nucleus 49C :,-0.35573,1.35022,-16.04481,44.3,163.19,-31.94,1.66,215.77,261.25,291.0,-92.0,-241.21,-301.9,-31.94,1.66,163.19,0,195.13,-0.66
KLaL_cation_pi_RCCE_opt_neg1p2.xyz,Nucleus 50C :,-0.07021,-0.14149,-16.85674,27.41,-74.07,34.25,122.05,130.55,237.98,297.13,-19.05,-210.43,-353.94,-74.07,34.25,122.05,0,196.12,0.1
KLaL_cation_pi_RCCE_opt_neg1p2.xyz,Nucleus 51C :,-0.64706,-0.31677,-14.92389,27.25,-66.01,106.03,41.72,140.12,289.58,307.04,-71.98,-224.86,-358.17,-66.01,41.72,106.03,0,172.04,0.25
KLaL_cation_pi_RCCE_opt_neg1p2.xyz,Nucleus 57C :,-0.16135,-2.10342,-15.68304,30.23,134.16,-29.98,-13.5,332.62,245.69,262.94,-112.06,-355.3,-283.21,-29.98,-13.5,134.16,0,164.14,-0.8
KLaL_cation_pi_RCCE_opt_neg1p2.xyz,Nucleus 52N :,-0.9608,0.33763,-13.83124,125.28,204.42,65.72,105.71,306.63,354.28,428.82,-112.81,-260.97,-340.11,65.72,105.71,204.42,0,138.7,-0.42
KLaL_cation_pi_RCCE_opt_neg1p2.xyz,Nucleus 54N :,-0.9621,1.34135,-13.79599,166.63,113.9,187.09,198.91,217.24,332.29,419.5,-29.15,-180.9,-259.08,113.9,187.09,198.91,0,85.01,0.72
KLaL_cation_pi_RCCE_opt_neg1p2.xyz,Nucleus 59N :,-1.16151,-0.15861,-12.97253,166.17,113.15,187.81,197.54,421.95,308.81,377.66,-233.54,-253.72,-122.65,113.15,187.81,197.54,0,84.39,0.77
KLaL_cation_pi_RCCE_opt_neg1p1.xyz,Nucleus 3H :,1.85056,-3.65399,-14.42354,27.52,34.62,24.79,23.16,-83.55,78.93,20.59,109.75,-48.65,5.51,23.16,24.79,34.62,0,11.46,-0.71
KLaL_cation_pi_RCCE_opt_neg1p1.xyz,Nucleus 4H :,-1.00867,-3.16908,-13.28325,26.89,23.16,27.55,29.97,-61.15,12.44,96.89,86.28,15.5,-69.28,23.16,27.55,29.97,0,6.81,0.29
KLaL_cation_pi_RCCE_opt_neg1p1.xyz,Nucleus 7H :,2.41198,-2.20461,-16.88088,24.24,29.59,22.96,20.18,-55.22,60.01,97.0,79.98,-34.98,-74.05,20.18,22.96,29.59,0,9.41,-0.41
KLaL_cation_pi_RCCE_opt_neg1p1.xyz,Nucleus 9H :,3.34765,-1.9455,-17.38756,24.77,20.53,26.48,27.31,11.43,82.09,65.33,14.44,-56.05,-42.92,20.53,26.48,27.31,0,6.78,0.76
KLaL_cation_pi_RCCE_opt_neg1p1.xyz,Nucleus 11H :,2.39691,-3.29532,-16.81784,24.18,29.56,20.14,22.83,139.77,27.06,58.52,-116.14,-2.74,-33.96,20.14,22.83,29.56,0,9.42,-0.43
KLaL_cation_pi_RCCE_opt_neg1p1.xyz,Nucleus 14H :,2.4252,-1.57784,-15.50033,26.28,22.9,29.47,26.46,97.71,58.41,12.01,-73.02,-30.66,14.38,22.9,26.46,29.47,0,6.57,0.08
KLaL_cation_pi_RCCE_opt_neg1p1.xyz,Nucleus 15H :,2.68791,-0.21348,-15.39687,27.75,34.9,25.09,23.27,137.32,35.45,57.83,-110.68,-2.4,-34.27,23.27,25.09,34.9,0,11.63,-0.69
KLaL_cation_pi_RCCE_opt_neg1p1.xyz,Nucleus 18H :,2.98968,0.34051,-16.28164,23.52,27.94,22.73,19.88,123.77,86.69,35.51,-101.88,-65.13,-8.41,19.88,22.73,27.94,0,8.06,-0.29
KLaL_cation_pi_RCCE_opt_neg1p1.xyz,Nucleus 20H :,2.57849,0.43438,-14.17723,23.92,20.08,26.03,25.66,35.13,82.67,104.0,-9.72,-56.67,-83.65,20.08,25.66,26.03,0,5.95,0.88
KLaL_cation_pi_RCCE_opt_neg1p1.xyz,Nucleus 22H :,2.82822,1.48929,-14.10622,23.8,23.25,19.83,28.32,116.72,24.51,68.33,-93.66,3.25,-47.74,19.83,23.25,28.32,0,8.49,-0.19
KLaL_cation_pi_RCCE_opt_neg1p1.xyz,Nucleus 29H :,2.14561,-0.24168,-13.06379,27.4,34.52,24.71,22.96,128.6,6.72,24.68,-100.46,24.17,-1.53,22.96,24.71,34.52,0,11.56,-0.7
KLaL_cation_pi_RCCE_opt_neg1p1.xyz,Nucleus 30H :,2.02109,0.28044,-12.11936,27.01,23.2,27.62,30.22,0.58,94.12,52.33,26.77,-68.59,-24.16,23.2,27.62,30.22,0,7.02,0.26
KLaL_cation_pi_RCCE_opt_neg1p1.xyz,Nucleus 33H :,1.85668,-1.6211,-13.12241,24.03,29.41,22.6,20.08,130.82,27.83,4.08,-106.6,-3.68,19.65,20.08,22.6,29.41,0,9.33,-0.46
KLaL_cation_pi_RCCE_opt_neg1p1.xyz,Nucleus 35H :,1.26442,-2.28521,-11.89554,24.54,20.22,26.15,27.26,87.13,-17.47,11.54,-61.07,41.79,11.71,20.22,26.15,27.26,0,7.04,0.69
KLaL_cation_pi_RCCE_opt_neg1p1.xyz,Nucleus 37H :,1.23472,-3.36627,-12.0504,24.1,29.54,20.13,22.63,-86.84,90.8,18.12,111.65,-67.4,5.98,20.13,22.63,29.54,0,9.41,-0.47
KLaL_cation_pi_RCCE_opt_neg1p1.xyz,Nucleus 40H :,1.91674,-2.09261,-11.03742,27.15,23.51,30.24,27.7,-76.2,64.77,-12.68,-35.84,99.89,41.52,23.51,27.7,30.24,0,6.73,0.25
KLaL_cation_pi_RCCE_opt_neg1p1.xyz,Nucleus 41H :,-0.11608,-1.76989,-11.58662,27.38,34.6,24.65,22.88,-120.55,58.25,-28.2,144.97,-24.47,52.13,22.88,24.65,34.6,0,11.72,-0.7
KLaL_cation_pi_RCCE_opt_neg1p1.xyz,Nucleus 44H :,-0.34726,-0.74504,-10.66249,23.66,28.16,22.93,19.88,-86.98,-28.05,63.58,108.11,51.81,-37.5,19.88,22.93,28.16,0,8.28,-0.26
KLaL_cation_pi_RCCE_opt_neg1p1.xyz,Nucleus 46H :,0.48968,-0.37756,-10.07614,23.88,20.02,25.99,25.62,70.32,-17.55,-73.2,-44.95,43.54,93.48,20.02,25.62,25.99,0,5.97,0.87
KLaL_cation_pi_RCCE_opt_neg1p1.xyz,Nucleus 48H :,-1.61623,-0.22215,-10.4753,23.62,28.1,22.98,19.77,67.2,-44.41,-6.05,-40.8,66.61,28.31,19.77,22.98,28.1,0,8.33,-0.23
KLaL_cation_pi_RCCE_opt_neg1p1.xyz,Nucleus 53H :,-1.78286,0.55559,-9.73755,20.35,35.43,16.01,9.61,-37.29,5.15,100.57,48.32,9.77,-65.45,9.61,16.01,35.43,0,25.82,-0.5
KLaL_cation_pi_RCCE_opt_neg1p1.xyz,Nucleus 55H :,-2.67282,-0.71904,-11.20753,30.16,24.97,29.32,36.18,-14.55,33.34,105.17,40.21,-3.16,-70.53,24.97,29.32,36.18,0,11.21,-0.22
KLaL_cation_pi_RCCE_opt_neg1p1.xyz,Nucleus 56H :,-3.67284,-0.32653,-11.04041,31.52,46.19,24.31,24.07,-19.02,41.93,143.34,43.3,4.18,-119.14,24.07,24.31,46.19,0,22.12,-0.98
KLaL_cation_pi_RCCE_opt_neg1p1.xyz,Nucleus 58H :,-2.50759,-1.75085,-12.13052,21.4,34.9,18.39,10.92,137.12,59.5,56.5,-123.38,-41.45,-24.07,10.92,18.39,34.9,0,23.98,-0.38
KLaL_cation_pi_RCCE_opt_neg1p1.xyz,Nucleus 60H :,-1.21105,-2.26606,-12.34584,30.13,24.94,29.34,36.12,104.16,78.23,23.32,-77.97,-47.56,10.22,24.94,29.34,36.12,0,11.18,-0.21
KLaL_cation_pi_RCCE_opt_neg1p1.xyz,Nucleus 61H :,2.06614,-2.26271,-14.33433,31.5,46.29,24.18,24.02,114.71,103.44,-18.74,42.78,-86.95,-60.75,24.02,24.18,46.29,0,22.27,-0.99
KLaL_cation_pi_RCCE_opt_neg1p1.xyz,Nucleus 62H :,-3.05617,-3.70143,-15.43508,26.31,37.36,19.38,22.2,25.38,49.67,63.21,-42.19,-13.23,-3.89,19.38,22.2,37.36,0,17.98,-0.69
KLaL_cation_pi_RCCE_opt_neg1p1.xyz,Nucleus 63H :,-0.20716,-3.15713,-16.57412,24.03,34.67,22.18,15.24,86.78,35.57,12.75,-53.25,-13.78,4.04,15.24,22.18,34.67,0,19.43,-0.29
KLaL_cation_pi_RCCE_opt_neg1p1.xyz,Nucleus 64H :,-3.64618,-2.26946,-12.97424,27.59,42.23,19.22,21.31,78.33,-22.7,13.52,-37.97,43.78,7.8,19.22,21.31,42.23,0,23.01,-0.82
KLaL_cation_pi_RCCE_opt_neg1p1.xyz,Nucleus 65H :,-4.58558,-2.02912,-12.46536,23.82,35.12,14.24,22.1,15.68,58.56,37.8,14.73,-39.49,-15.83,14.24,22.1,35.12,0,20.88,-0.25
KLaL_cation_pi_RCCE_opt_neg1p1.xyz,Nucleus 2C :,-3.63086,-3.36289,-13.04152,152.22,134.85,164.4,157.41,318.24,189.48,229.76,-166.09,-25.28,-89.44,134.85,157.41,164.4,0,29.55,0.53
KLaL_cation_pi_RCCE_opt_neg1p1.xyz,Nucleus 5C :,-3.67186,-1.63971,-14.35326,47.44,162.9,20.93,-41.51,312.49,258.8,282.54,-108.05,-288.18,-315.29,-41.51,20.93,162.9,0,204.41,-0.39
KLaL_cation_pi_RCCE_opt_neg1p1.xyz,Nucleus 6C :,-3.9616,-0.28059,-14.4534,42.56,165.87,-64.87,26.67,202.3,315.08,292.71,-55.83,-367.38,-259.21,-64.87,26.67,165.87,0,230.74,-0.21
KLaL_cation_pi_RCCE_opt_neg1p1.xyz,Nucleus 8C :,-4.26639,0.26235,-13.56389,54.41,177.39,-53.41,39.25,229.91,327.35,281.58,-76.35,-264.01,-335.24,-53.41,39.25,177.39,0,230.8,-0.2
KLaL_cation_pi_RCCE_opt_neg1p1.xyz,Nucleus 10C :,-3.86508,0.37227,-15.67146,41.08,166.34,24.38,-67.48,234.57,337.6,290.38,-113.78,-349.89,-275.65,-67.48,24.38,166.34,0,233.82,-0.21
KLaL_cation_pi_RCCE_opt_neg1p1.xyz,Nucleus 12C :,-4.13466,1.42199,-15.74103,46.53,164.37,-38.1,13.33,227.62,289.85,263.7,-70.82,-327.93,-242.85,-38.1,13.33,164.37,0,202.47,-0.49
KLaL_cation_pi_RCCE_opt_neg1p1.xyz,Nucleus 13C :,-3.41889,-0.29236,-16.78652,152.52,133.87,165.16,158.54,334.25,243.45,267.3,-169.84,-85.79,-131.81,133.87,158.54,165.16,0,31.29,0.58
KLaL_cation_pi_RCCE_opt_neg1p1.xyz,Nucleus 16C :,-3.30176,0.23385,-17.72915,40.76,162.77,-35.66,-4.82,329.82,241.99,260.41,-84.82,-362.2,-262.9,-35.66,-4.82,162.77,0,198.43,-0.69
KLaL_cation_pi_RCCE_opt_neg1p1.xyz,Nucleus 17C :,-3.10266,-1.66591,-16.73126,43.91,-59.78,33.89,157.62,342.8,283.56,259.49,-377.18,-251.8,-125.15,-59.78,33.89,157.62,0,217.4,-0.14
KLaL_cation_pi_RCCE_opt_neg1p1.xyz,Nucleus 19C :,-2.49736,-2.31516,-17.95972,53.76,177.07,37.72,-53.52,320.96,245.28,280.9,-102.85,-282.59,-300.44,-53.52,37.72,177.07,0,230.59,-0.21
KLaL_cation_pi_RCCE_opt_neg1p1.xyz,Nucleus 21C :,-2.47907,-3.407,-17.86462,48.41,-52.87,40.0,158.11,347.08,257.22,267.55,-377.34,-109.01,-240.25,-52.87,40.0,158.11,0,210.98,-0.12
KLaL_cation_pi_RCCE_opt_neg1p1.xyz,Nucleus 23C :,-3.14888,-2.11605,-18.81737,44.68,-39.67,15.8,157.91,321.93,262.06,277.14,-350.19,-256.51,-120.38,-39.67,15.8,157.91,0,197.58,-0.44
KLaL_cation_pi_RCCE_opt_neg1p1.xyz,Nucleus 24C :,-1.12737,-1.77181,-18.26735,25.95,121.81,29.13,-73.08,245.27,309.54,335.47,-183.38,-295.15,-333.88,-73.08,29.13,121.81,0,194.89,0.05
KLaL_cation_pi_RCCE_opt_neg1p1.xyz,Nucleus 25C :,-0.91658,-0.74033,-19.18898,21.56,111.4,-65.86,19.14,208.46,286.78,255.14,-97.87,-328.71,-259.1,-65.86,19.14,111.4,0,177.26,-0.04
KLaL_cation_pi_RCCE_opt_neg1p1.xyz,Nucleus 28C :,-1.75776,-0.38293,-19.77633,153.08,135.41,164.96,158.86,198.37,322.98,269.35,-159.39,-59.96,-112.11,135.41,158.86,164.96,0,29.55,0.59
KLaL_cation_pi_RCCE_opt_neg1p1.xyz,Nucleus 31C :,0.34176,-0.19192,-19.37488,44.88,164.32,12.83,-42.51,284.74,195.22,233.37,-55.95,-222.99,-299.75,-42.51,12.83,164.32,0,206.83,-0.46
KLaL_cation_pi_RCCE_opt_neg1p1.xyz,Nucleus 32C :,0.49023,0.59144,-20.11041,40.79,166.31,-65.68,21.75,321.18,216.3,264.65,-116.54,-259.46,-303.74,-65.68,21.75,166.31,0,231.99,-0.25
KLaL_cation_pi_RCCE_opt_neg1p1.xyz,Nucleus 34C :,1.40802,-0.66952,-18.64383,50.44,178.68,-58.37,31.01,320.41,194.05,245.55,-54.54,-336.32,-217.83,-58.37,31.01,178.68,0,237.05,-0.25
KLaL_cation_pi_RCCE_opt_neg1p1.xyz,Nucleus 36C :,2.40209,-0.26185,-18.80495,41.63,166.86,22.54,-64.52,160.97,332.29,254.08,-43.19,-372.25,-207.01,-64.52,22.54,166.86,0,231.38,-0.25
KLaL_cation_pi_RCCE_opt_neg1p1.xyz,Nucleus 38C :,1.26331,-1.70665,-17.72336,45.56,164.04,-42.45,15.09,197.19,308.84,349.9,-115.16,-272.27,-331.82,-42.45,15.09,164.04,0,206.49,-0.44
KLaL_cation_pi_RCCE_opt_neg1p1.xyz,Nucleus 39C :,-0.02275,-2.248,-17.50932,153.96,136.27,166.15,159.45,146.93,273.47,221.71,15.67,-114.19,-81.73,136.27,159.45,166.15,0,29.88,0.55
KLaL_cation_pi_RCCE_opt_neg1p1.xyz,Nucleus 42C :,-3.29932,-2.31449,-15.5209,42.78,157.99,-41.63,11.98,197.12,232.0,287.55,-283.98,-242.34,-62.0,-41.63,11.98,157.99,0,199.62,-0.46
KLaL_cation_pi_RCCE_opt_neg1p1.xyz,Nucleus 43C :,-0.634,-1.53327,-14.92549,45.65,-57.04,36.03,157.97,164.66,215.16,294.34,-311.47,-165.27,-60.46,-57.04,36.03,157.97,0,215.01,-0.13
KLaL_cation_pi_RCCE_opt_neg1p1.xyz,Nucleus 45C :,-0.61955,-2.02075,-14.04083,53.15,177.32,36.34,-54.21,286.62,247.3,222.61,-46.25,-210.94,-339.89,-54.21,36.34,177.32,0,231.53,-0.22
KLaL_cation_pi_RCCE_opt_neg1p1.xyz,Nucleus 47C :,-0.34639,0.44638,-16.01492,46.18,-55.59,36.37,157.75,193.57,294.75,240.19,-305.01,-203.36,-81.62,-55.59,36.37,157.75,0,213.34,-0.14
KLaL_cation_pi_RCCE_opt_neg1p1.xyz,Nucleus 49C :,-0.35573,1.45022,-16.04481,44.69,163.1,-30.83,1.81,219.69,260.46,293.82,-91.41,-245.29,-303.19,-30.83,1.81,163.1,0,193.93,-0.66
KLaL_cation_pi_RCCE_opt_neg1p1.xyz,Nucleus 50C :,-0.07021,-0.04149,-16.85674,26.89,-73.19,31.76,122.1,127.58,242.98,296.2,-16.69,-218.07,-351.33,-73.19,31.76,122.1,0,195.29,0.07
KLaL_cation_pi_RCCE_opt_neg1p1.xyz,Nucleus 51C :,-0.64706,-0.21677,-14.92389,27.44,-65.35,106.06,41.61,140.37,289.83,304.18,-71.89,-225.42,-354.75,-65.35,41.61,106.06,0,171.41,0.25
KLaL_cation_pi_RCCE_opt_neg1p1.xyz,Nucleus 57C :,-0.16135,-2.00342,-15.68304,30.33,133.32,-28.48,-13.85,333.58,246.29,262.35,-113.93,-355.65,-281.65,-28.48,-13.85,133.32,0,161.8,-0.82
KLaL_cation_pi_RCCE_opt_neg1p1.xyz,Nucleus 52N :,-0.9608,0.43763,-13.83124,130.17,203.69,67.98,118.84,303.44,353.43,427.37,-110.15,-250.88,-332.7,67.98,118.84,203.69,0,135.71,-0.25
KLaL_cation_pi_RCCE_opt_neg1p1.xyz,Nucleus 54N :,-0.9621,1.44135,-13.79599,168.92,116.01,188.04,202.7,215.51,330.89,417.35,-26.74,-176.56,-253.69,116.01,188.04,202.7,0,86.69,0.66
KLaL_cation_pi_RCCE_opt_neg1p1.xyz,Nucleus 59N :,-1.16151,-0.05861,-12.97253,168.5,115.26,188.5,201.75,423.53,310.04,378.07,-234.47,-252.52,-119.13,115.26,188.5,201.75,0,86.49,0.69
KLaL_cation_pi_RCCE_opt_neg1p0.xyz,Nucleus 3H :,1.85056,-3.65399,-14.42354,27.54,34.65,24.78,23.18,-83.32,79.09,21.82,109.51,-48.84,4.34,23.18,24.78,34.65,0,11.47,-0.72
KLaL_cation_pi_RCCE_opt_neg1p0.xyz,Nucleus 4H :,-1.00867,-3.16908,-13.28325,26.89,23.16,27.53,29.97,-60.85,13.41,95.72,85.95,14.53,-68.09,23.16,27.53,29.97,0,6.81,0.28
KLaL_cation_pi_RCCE_opt_neg1p0.xyz,Nucleus 7H :,2.41198,-2.20461,-16.88088,24.26,29.55,23.02,20.2,-55.69,60.43,97.51,80.48,-35.41,-74.55,20.2,23.02,29.55,0,9.35,-0.4
KLaL_cation_pi_RCCE_opt_neg1p0.xyz,Nucleus 9H :,3.34765,-1.9455,-17.38756,24.77,20.55,26.48,27.28,10.69,83.13,65.94,15.19,-57.04,-43.6,20.55,26.48,27.28,0,6.73,0.76
KLaL_cation_pi_RCCE_opt_neg1p0.xyz,Nucleus 11H :,2.39691,-3.29532,-16.81784,24.18,29.51,20.15,22.88,140.49,27.52,58.26,-116.8,-3.27,-33.66,20.15,22.88,29.51,0,9.36,-0.42
KLaL_cation_pi_RCCE_opt_neg1p0.xyz,Nucleus 14H :,2.4252,-1.57784,-15.50033,26.27,22.89,29.46,26.45,97.53,59.29,12.74,-72.92,13.66,-31.5,22.89,26.45,29.46,0,6.57,0.08
KLaL_cation_pi_RCCE_opt_neg1p0.xyz,Nucleus 15H :,2.68791,-0.21348,-15.39687,27.76,34.92,25.08,23.28,137.43,35.53,57.74,-110.8,-2.45,-34.17,23.28,25.08,34.92,0,11.64,-0.69
KLaL_cation_pi_RCCE_opt_neg1p0.xyz,Nucleus 18H :,2.98968,0.34051,-16.28164,23.52,27.94,22.73,19.89,124.08,86.6,35.57,-102.18,-65.05,-8.46,19.89,22.73,27.94,0,8.05,-0.29
KLaL_cation_pi_RCCE_opt_neg1p0.xyz,Nucleus 20H :,2.57849,0.43438,-14.17723,23.96,20.11,26.04,25.72,35.15,83.47,103.81,-57.46,-83.44,-9.66,20.11,25.72,26.04,0,5.93,0.89
KLaL_cation_pi_RCCE_opt_neg1p0.xyz,Nucleus 22H :,2.82822,1.48929,-14.10622,23.81,23.24,19.86,28.33,117.27,24.5,68.36,-94.18,3.28,-47.79,19.86,23.24,28.33,0,8.47,-0.2
KLaL_cation_pi_RCCE_opt_neg1p0.xyz,Nucleus 29H :,2.14561,-0.24168,-13.06379,27.41,34.55,24.7,22.97,129.12,6.65,24.33,-100.97,24.27,-1.17,22.97,24.7,34.55,0,11.58,-0.7
KLaL_cation_pi_RCCE_opt_neg1p0.xyz,Nucleus 30H :,2.02109,0.28044,-12.11936,27.01,23.2,27.61,30.23,0.7,94.32,52.93,26.66,-68.74,-24.83,23.2,27.61,30.23,0,7.03,0.26
KLaL_cation_pi_RCCE_opt_neg1p0.xyz,Nucleus 33H :,1.85668,-1.6211,-13.12241,24.05,29.37,22.68,20.11,131.47,27.33,4.18,-107.27,-3.13,19.58,20.11,22.68,29.37,0,9.26,-0.44
KLaL_cation_pi_RCCE_opt_neg1p0.xyz,Nucleus 35H :,1.26442,-2.28521,-11.89554,24.53,20.24,26.14,27.22,87.4,-18.57,11.07,-61.34,42.89,12.15,20.24,26.14,27.22,0,6.98,0.69
KLaL_cation_pi_RCCE_opt_neg1p0.xyz,Nucleus 37H :,1.23472,-3.36627,-12.0504,24.13,29.51,20.16,22.71,-87.85,89.88,17.6,112.63,-66.44,6.55,20.16,22.71,29.51,0,9.35,-0.46
KLaL_cation_pi_RCCE_opt_neg1p0.xyz,Nucleus 40H :,1.91674,-2.09261,-11.03742,27.15,23.51,30.25,27.69,-75.79,64.02,-14.04,-35.1,99.47,42.88,23.51,27.69,30.25,0,6.74,0.24
KLaL_cation_pi_RCCE_opt_neg1p0.xyz,Nucleus 41H :,-0.11608,-1.76989,-11.58662,27.38,34.63,24.63,22.89,-120.23,58.35,-29.17,144.66,-24.53,53.08,22.89,24.63,34.63,0,11.74,-0.7
KLaL_cation_pi_RCCE_opt_neg1p0.xyz,Nucleus 44H :,-0.34726,-0.74504,-10.66249,23.67,28.18,22.93,19.89,-86.71,-29.58,63.35,-37.26,107.91,53.29,19.89,22.93,28.18,0,8.29,-0.27
KLaL_cation_pi_RCCE_opt_neg1p0.xyz,Nucleus 46H :,0.48968,-0.37756,-10.07614,23.91,20.05,26.0,25.68,70.23,-18.77,-72.95,-44.79,44.77,93.25,20.05,25.68,26.0,0,5.95,0.89
KLaL_cation_pi_RCCE_opt_neg1p0.xyz,Nucleus 48H :,-1.61623,-0.22215,-10.4753,23.63,28.11,22.98,19.8,67.21,-44.71,-6.03,-40.75,67.01,28.15,19.8,22.98,28.11,0,8.31,-0.23
KLaL_cation_pi_RCCE_opt_neg1p0.xyz,Nucleus 53H :,-1.78286,0.55559,-9.73755,22.21,34.97,19.28,12.37,-26.23,11.5,100.9,39.37,7.13,-66.05,12.37,19.28,34.97,0,22.6,-0.39
KLaL_cation_pi_RCCE_opt_neg1p0.xyz,Nucleus 55H :,-2.67282,-0.71904,-11.20753,30.03,24.71,28.94,36.43,-16.92,32.24,103.72,42.38,-2.37,-68.97,24.71,28.94,36.43,0,11.72,-0.28
KLaL_cation_pi_RCCE_opt_neg1p0.xyz,Nucleus 56H :,-3.67284,-0.32653,-11.04041,31.59,45.58,24.4,24.78,-27.11,42.0,138.19,51.55,3.46,-113.32,24.4,24.78,45.58,0,21.18,-0.96
KLaL_cation_pi_RCCE_opt_neg1p0.xyz,Nucleus 58H :,-2.50759,-1.75085,-12.13052,23.12,34.52,21.33,13.5,139.09,59.85,55.27,-123.85,-37.75,-23.24,13.5,21.33,34.52,0,21.02,-0.26
KLaL_cation_pi_RCCE_opt_neg1p0.xyz,Nucleus 60H :,-1.21105,-2.26606,-12.34584,30.0,24.68,28.95,36.38,104.57,77.78,23.21,-78.52,-47.39,10.36,24.68,28.95,36.38,0,11.7,-0.27
KLaL_cation_pi_RCCE_opt_neg1p0.xyz,Nucleus 61H :,2.06614,-2.26271,-14.33433,31.56,45.67,24.35,24.67,120.13,103.55,-15.22,39.92,-94.0,-59.68,24.35,24.67,45.67,0,21.32,-0.97
KLaL_cation_pi_RCCE_opt_neg1p0.xyz,Nucleus 62H :,-3.05617,-3.70143,-15.43508,26.27,37.35,19.31,22.14,25.92,49.38,62.85,-41.5,-13.41,-4.45,19.31,22.14,37.35,0,18.04,-0.69
KLaL_cation_pi_RCCE_opt_neg1p0.xyz,Nucleus 63H :,-0.20716,-3.15713,-16.57412,24.13,34.95,22.13,15.32,87.24,34.46,11.49,-53.5,-12.85,5.57,15.32,22.13,34.95,0,19.63,-0.31
KLaL_cation_pi_RCCE_opt_neg1p0.xyz,Nucleus 64H :,-3.64618,-2.26946,-12.97424,27.61,42.29,19.23,21.32,78.58,-22.88,12.77,-38.21,43.99,8.6,19.23,21.32,42.29,0,23.06,-0.82
KLaL_cation_pi_RCCE_opt_neg1p0.xyz,Nucleus 65H :,-4.58558,-2.02912,-12.46536,23.9,35.41,14.28,22.01,18.71,56.77,37.1,12.15,-38.28,-14.74,14.28,22.01,35.41,0,21.13,-0.27
KLaL_cation_pi_RCCE_opt_neg1p0.xyz,Nucleus 2C :,-3.63086,-3.36289,-13.04152,152.24,134.93,164.31,157.48,317.98,189.28,230.39,-165.78,-25.17,-89.99,134.93,157.48,164.31,0,29.38,0.54
KLaL_cation_pi_RCCE_opt_neg1p0.xyz,Nucleus 5C :,-3.67186,-1.63971,-14.35326,47.14,163.04,20.32,-41.95,312.06,260.22,280.76,-108.44,-287.85,-315.34,-41.95,20.32,163.04,0,204.99,-0.39
KLaL_cation_pi_RCCE_opt_neg1p0.xyz,Nucleus 6C :,-3.9616,-0.28059,-14.4534,42.81,165.87,-64.21,26.78,201.22,316.29,291.93,-54.94,-367.57,-258.48,-64.21,26.78,165.87,0,230.08,-0.21
KLaL_cation_pi_RCCE_opt_neg1p0.xyz,Nucleus 8C :,-4.26639,0.26235,-13.56389,54.17,177.41,-53.69,38.8,228.71,328.43,282.33,-75.66,-264.61,-336.69,-53.69,38.8,177.41,0,231.1,-0.2
KLaL_cation_pi_RCCE_opt_neg1p0.xyz,Nucleus 10C :,-3.86508,0.37227,-15.67146,41.28,166.37,24.49,-67.03,233.16,339.37,292.64,-113.76,-350.42,-277.16,-67.03,24.49,166.37,0,233.4,-0.22
KLaL_cation_pi_RCCE_opt_neg1p0.xyz,Nucleus 12C :,-4.13466,1.42199,-15.74103,46.24,164.54,-38.53,12.7,228.25,266.67,291.16,-71.69,-329.51,-246.17,-38.53,12.7,164.54,0,203.07,-0.5
KLaL_cation_pi_RCCE_opt_neg1p0.xyz,Nucleus 13C :,-3.41889,-0.29236,-16.78652,152.55,133.96,165.11,158.57,335.64,243.84,268.67,-171.23,-86.34,-132.93,133.96,158.57,165.11,0,31.15,0.58
KLaL_cation_pi_RCCE_opt_neg1p0.xyz,Nucleus 16C :,-3.30176,0.23385,-17.72915,41.18,162.63,-34.52,-4.56,327.67,242.06,261.08,-86.43,-359.48,-261.36,-34.52,-4.56,162.63,0,197.15,-0.7
KLaL_cation_pi_RCCE_opt_neg1p0.xyz,Nucleus 17C :,-3.10266,-1.66591,-16.73126,43.99,-59.8,34.24,157.53,343.65,283.55,259.31,-377.77,-251.52,-125.25,-59.8,34.24,157.53,0,217.33,-0.13
KLaL_cation_pi_RCCE_opt_neg1p0.xyz,Nucleus 19C :,-2.49736,-2.31516,-17.95972,54.47,176.98,39.08,-52.64,321.48,244.98,281.76,-103.63,-281.8,-299.38,-52.64,39.08,176.98,0,229.62,-0.2
KLaL_cation_pi_RCCE_opt_neg1p0.xyz,Nucleus 21C :,-2.47907,-3.407,-17.86462,48.51,-52.89,40.38,158.03,348.37,256.51,267.07,-377.93,-108.43,-240.08,-52.89,40.38,158.03,0,210.92,-0.12
KLaL_cation_pi_RCCE_opt_neg1p0.xyz,Nucleus 23C :,-3.14888,-2.11605,-18.81737,45.06,-38.43,15.91,157.71,321.46,263.37,275.06,-349.41,-256.07,-119.21,-38.43,15.91,157.71,0,196.14,-0.45
KLaL_cation_pi_RCCE_opt_neg1p0.xyz,Nucleus 24C :,-1.12737,-1.77181,-18.26735,25.5,121.89,26.76,-72.14,245.07,308.47,331.75,-183.38,-293.29,-332.11,-72.14,26.76,121.89,0,194.03,0.02
KLaL_cation_pi_RCCE_opt_neg1p0.xyz,Nucleus 25C :,-0.91658,-0.74033,-19.18898,21.71,111.46,-65.27,18.93,209.2,287.76,255.34,-98.48,-329.35,-259.36,-65.27,18.93,111.46,0,176.73,-0.05
KLaL_cation_pi_RCCE_opt_neg1p0.xyz,Nucleus 28C :,-1.75776,-0.38293,-19.77633,153.09,135.4,164.94,158.92,199.42,324.21,268.77,-160.79,-60.76,-111.58,135.4,158.92,164.94,0,29.54,0.59
KLaL_cation_pi_RCCE_opt_neg1p0.xyz,Nucleus 31C :,0.34176,-0.19192,-19.37488,44.58,164.49,12.39,-43.15,284.9,195.21,234.84,-56.13,-224.86,-300.23,-43.15,12.39,164.49,0,207.64,-0.47
KLaL_cation_pi_RCCE_opt_neg1p0.xyz,Nucleus 32C :,0.49023,0.59144,-20.11041,41.12,166.31,-64.86,21.92,321.45,215.95,265.06,-116.65,-259.26,-303.19,-64.86,21.92,166.31,0,231.17,-0.25
KLaL_cation_pi_RCCE_opt_neg1p0.xyz,Nucleus 34C :,1.40802,-0.66952,-18.64383,50.12,178.69,-58.9,30.56,321.11,191.85,245.16,-53.47,-336.72,-217.58,-58.9,30.56,178.69,0,237.59,-0.25
KLaL_cation_pi_RCCE_opt_neg1p0.xyz,Nucleus 36C :,2.40209,-0.26185,-18.80495,41.94,166.88,22.74,-63.81,159.84,330.9,253.43,-42.12,-369.55,-206.69,-63.81,22.74,166.88,0,230.69,-0.25
KLaL_cation_pi_RCCE_opt_neg1p0.xyz,Nucleus 38C :,1.26331,-1.70665,-17.72336,45.3,164.2,-42.98,14.69,198.48,308.91,344.04,-116.02,-272.88,-326.62,-42.98,14.69,164.2,0,207.18,-0.44
KLaL_cation_pi_RCCE_opt_neg1p0.xyz,Nucleus 39C :,-0.02275,-2.248,-17.50932,153.97,136.29,166.13,159.49,147.82,273.26,217.38,15.05,-113.82,-77.78,136.29,159.49,166.13,0,29.84,0.55
KLaL_cation_pi_RCCE_opt_neg1p0.xyz,Nucleus 42C :,-3.29932,-2.31449,-15.5209,43.15,157.84,-40.45,12.06,190.59,235.84,285.06,-59.32,-245.55,-277.17,-40.45,12.06,157.84,0,198.29,-0.47
KLaL_cation_pi_RCCE_opt_neg1p0.xyz,Nucleus 43C :,-0.634,-1.43327,-14.92549,45.74,-57.06,36.37,157.91,162.38,213.79,293.78,-310.98,-162.35,-59.39,-57.06,36.37,157.91,0,214.97,-0.13
KLaL_cation_pi_RCCE_opt_neg1p0.xyz,Nucleus 45C :,-0.61955,-1.92075,-14.04083,53.8,177.24,37.59,-53.43,286.59,246.42,220.75,-44.6,-208.85,-338.91,-53.43,37.59,177.24,0,230.67,-0.21
KLaL_cation_pi_RCCE_opt_neg1p0.xyz,Nucleus 47C :,-0.34639,0.54638,-16.01492,46.28,-55.59,36.75,157.69,191.18,296.06,239.76,-305.79,-201.42,-80.94,-55.59,36.75,157.69,0,213.28,-0.13
KLaL_cation_pi_RCCE_opt_neg1p0.xyz,Nucleus 49C :,-0.35573,1.55022,-16.04481,45.03,162.97,-29.8,1.92,223.62,260.02,295.99,-91.07,-249.75,-303.72,-29.8,1.92,162.97,0,192.77,-0.67
KLaL_cation_pi_RCCE_opt_neg1p0.xyz,Nucleus 50C :,-0.07021,0.05851,-16.85674,26.45,-72.35,29.51,122.18,126.53,247.33,295.75,-15.82,-224.92,-349.54,-72.35,29.51,122.18,0,194.53,0.05
KLaL_cation_pi_RCCE_opt_neg1p0.xyz,Nucleus 51C :,-0.64706,-0.11677,-14.92389,27.63,-64.65,106.07,41.46,140.85,289.68,301.46,-72.07,-225.89,-351.14,-64.65,41.46,106.07,0,170.72,0.24
KLaL_cation_pi_RCCE_opt_neg1p0.xyz,Nucleus 57C :,-0.16135,-1.90342,-15.68304,30.42,132.74,-27.42,-14.07,334.2,246.41,262.43,-115.35,-280.59,-355.85,-27.42,-14.07,132.74,0,160.16,-0.83
KLaL_cation_pi_RCCE_opt_neg1p0.xyz,Nucleus 52N :,-0.9608,0.53763,-13.83124,134.49,202.62,71.18,129.67,300.84,352.84,426.81,-108.63,-326.93,-241.47,71.18,129.67,202.62,0,131.44,-0.11
KLaL_cation_pi_RCCE_opt_neg1p0.xyz,Nucleus 54N :,-0.9621,1.54135,-13.79599,170.87,117.9,188.56,206.15,215.17,329.42,414.99,-26.11,-172.33,-248.52,117.9,188.56,206.15,0,88.25,0.6
KLaL_cation_pi_RCCE_opt_neg1p0.xyz,Nucleus 59N :,-1.16151,0.04139,-12.97253,170.5,117.14,188.86,205.5,423.53,311.21,378.37,-234.01,-251.37,-116.22,117.14,188.86,205.5,0,88.36,0.62
KLaL_cation_pi_RCCE_opt_neg0p9.xyz,Nucleus 3H :,1.85056,-3.65399,-14.42354,27.55,34.67,24.77,23.2,-83.05,79.26,22.86,109.24,-49.07,3.4,23.2,24.77,34.67,0,11.47,-0.73
KLaL_cation_pi_RCCE_opt_neg0p9.xyz,Nucleus 4H :,-1.00867,-3.16908,-13.28325,26.88,23.16,27.51,29.97,-60.53,14.21,94.4,85.58,13.72,-66.75,23.16,27.51,29.97,0,6.81,0.28
KLaL_cation_pi_RCCE_opt_neg0p9.xyz,Nucleus 7H :,2.41198,-2.20461,-16.88088,24.27,29.5,23.08,20.22,-55.97,60.97,97.8,80.79,-35.96,-74.84,20.22,23.08,29.5,0,9.28,-0.38
KLaL_cation_pi_RCCE_opt_neg0p9.xyz,Nucleus 9H :,3.34765,-1.9455,-17.38756,24.77,20.58,26.48,27.25,9.97,84.16,66.53,15.92,-58.02,-44.26,20.58,26.48,27.25,0,6.67,0.77
KLaL_cation_pi_RCCE_opt_neg0p9.xyz,Nucleus 11H :,2.39691,-3.29532,-16.81784,24.19,29.46,20.17,22.93,141.11,57.99,28.01,-117.37,-3.84,-33.35,20.17,22.93,29.46,0,9.29,-0.41
KLaL_cation_pi_RCCE_opt_neg0p9.xyz,Nucleus 14H :,2.4252,-1.57784,-15.50033,26.26,22.88,29.46,26.44,97.28,60.22,13.54,-72.77,12.85,-32.35,22.88,26.44,29.46,0,6.58,0.08
KLaL_cation_pi_RCCE_opt_neg0p9.xyz,Nucleus 15H :,2.68791,-0.21348,-15.39687,27.77,34.94,25.07,23.3,137.49,35.65,57.68,-110.86,-2.54,-34.09,23.3,25.07,34.94,0,11.64,-0.7
KLaL_cation_pi_RCCE_opt_neg0p9.xyz,Nucleus 18H :,2.98968,0.34051,-16.28164,23.53,27.95,22.73,19.91,124.22,86.37,35.62,-102.29,-64.8,-8.52,19.91,22.73,27.95,0,8.04,-0.3
KLaL_cation_pi_RCCE_opt_neg0p9.xyz,Nucleus 20H :,2.57849,0.43438,-14.17723,23.99,20.15,26.05,25.77,35.17,84.11,103.56,-58.09,-83.16,-9.62,20.15,25.77,26.05,0,5.9,0.91
KLaL_cation_pi_RCCE_opt_neg0p9.xyz,Nucleus 22H :,2.82822,1.48929,-14.10622,23.82,23.24,19.88,28.35,117.77,24.52,68.34,-94.65,3.27,-47.78,19.88,23.24,28.35,0,8.47,-0.21
KLaL_cation_pi_RCCE_opt_neg0p9.xyz,Nucleus 29H :,2.14561,-0.24168,-13.06379,27.42,34.58,24.68,22.99,129.68,6.64,24.04,-101.54,24.3,-0.87,22.99,24.68,34.58,0,11.59,-0.71
KLaL_cation_pi_RCCE_opt_neg0p9.xyz,Nucleus 30H :,2.02109,0.28044,-12.11936,27.01,23.2,27.6,30.23,0.91,94.42,53.72,26.47,-68.81,-25.68,23.2,27.6,30.23,0,7.03,0.25
KLaL_cation_pi_RCCE_opt_neg0p9.xyz,Nucleus 33H :,1.85668,-1.6211,-13.12241,24.08,29.33,22.76,20.14,132.11,26.91,4.34,-107.93,-2.65,19.44,20.14,22.76,29.33,0,9.19,-0.43
KLaL_cation_pi_RCCE_opt_neg0p9.xyz,Nucleus 35H :,1.26442,-2.28521,-11.89554,24.53,20.26,26.14,27.18,87.64,-19.45,10.53,-61.58,43.79,12.65,20.26,26.14,27.18,0,6.92,0.7
KLaL_cation_pi_RCCE_opt_neg0p9.xyz,Nucleus 37H :,1.23472,-3.36627,-12.0504,24.15,29.47,20.18,22.79,-88.88,88.95,17.09,113.62,-65.48,7.14,20.18,22.79,29.47,0,9.29,-0.44
KLaL_cation_pi_RCCE_opt_neg0p9.xyz,Nucleus 40H :,1.91674,-2.09261,-11.03742,27.14,23.51,30.25,27.67,63.28,-75.38,-15.3,-34.38,99.06,44.15,23.51,27.67,30.25,0,6.74,0.24
KLaL_cation_pi_RCCE_opt_neg0p9.xyz,Nucleus 41H :,-0.11608,-1.76989,-11.58662,27.39,34.65,24.62,22.9,-119.89,58.4,-30.09,144.34,-24.56,53.98,22.9,24.62,34.65,0,11.75,-0.71
KLaL_cation_pi_RCCE_opt_neg0p9.xyz,Nucleus 44H :,-0.34726,-0.74504,-10.66249,23.68,28.19,22.92,19.92,-86.4,-30.9,63.09,-37.0,107.67,54.57,19.92,22.92,28.19,0,8.27,-0.28
KLaL_cation_pi_RCCE_opt_neg0p9.xyz,Nucleus 46H :,0.48968,-0.37756,-10.07614,23.94,20.08,26.01,25.73,70.19,-19.83,-72.62,-44.69,45.84,92.94,20.08,25.73,26.01,0,5.93,0.91
KLaL_cation_pi_RCCE_opt_neg0p9.xyz,Nucleus 48H :,-1.61623,-0.22215,-10.4753,23.64,28.11,22.98,19.82,67.19,-44.99,-5.85,-40.67,67.37,27.87,19.82,22.98,28.11,0,8.29,-0.24
KLaL_cation_pi_RCCE_opt_neg0p9.xyz,Nucleus 53H :,-1.78286,0.55559,-9.73755,23.8,34.83,21.97,14.59,-18.64,21.7,101.94,33.5,0.06,-67.16,14.59,21.97,34.83,0,20.24,-0.27
KLaL_cation_pi_RCCE_opt_neg0p9.xyz,Nucleus 55H :,-2.67282,-0.71904,-11.20753,29.88,24.45,28.57,36.63,-18.67,31.25,102.23,43.95,-1.7,-67.41,24.45,28.57,36.63,0,12.18,-0.32
KLaL_cation_pi_RCCE_opt_neg0p9.xyz,Nucleus 56H :,-3.67284,-0.32653,-11.04041,31.57,44.98,24.46,25.27,-34.09,41.91,133.38,58.59,2.9,-107.97,24.46,25.27,44.98,0,20.52,-0.92
KLaL_cation_pi_RCCE_opt_neg0p9.xyz,Nucleus 58H :,-2.50759,-1.75085,-12.13052,24.58,34.45,23.73,15.56,140.19,59.5,51.13,-123.7,-31.96,-21.43,15.56,23.73,34.45,0,18.89,-0.13
KLaL_cation_pi_RCCE_opt_neg0p9.xyz,Nucleus 60H :,-1.21105,-2.26606,-12.34584,29.86,24.42,28.57,36.59,104.43,77.16,23.13,-78.51,-47.07,10.44,24.42,28.57,36.59,0,12.17,-0.32
KLaL_cation_pi_RCCE_opt_neg0p9.xyz,Nucleus 61H :,2.06614,-2.26271,-14.33433,31.55,45.06,24.41,25.17,-12.14,125.79,102.52,-100.14,37.36,-58.75,24.41,25.17,45.06,0,20.65,-0.93
KLaL_cation_pi_RCCE_opt_neg0p9.xyz,Nucleus 62H :,-3.05617,-3.70143,-15.43508,26.22,37.33,19.23,22.09,26.43,48.83,62.57,-40.69,-13.57,-4.91,19.23,22.09,37.33,0,18.1,-0.68
KLaL_cation_pi_RCCE_opt_neg0p9.xyz,Nucleus 63H :,-0.20716,-3.15713,-16.57412,24.22,35.17,22.1,15.4,87.81,33.47,10.55,-53.93,-12.0,6.77,15.4,22.1,35.17,0,19.77,-0.32
KLaL_cation_pi_RCCE_opt_neg0p9.xyz,Nucleus 64H :,-3.64618,-2.26946,-12.97424,27.64,42.34,19.24,21.34,78.76,-23.02,11.99,-38.38,44.14,9.42,19.24,21.34,42.34,0,23.1,-0.82
KLaL_cation_pi_RCCE_opt_neg0p9.xyz,Nucleus 65H :,-4.58558,-2.02912,-12.46536,23.97,35.66,14.32,21.93,21.0,55.35,36.38,10.28,-37.3,-13.8,14.32,21.93,35.66,0,21.34,-0.29
KLaL_cation_pi_RCCE_opt_neg0p9.xyz,Nucleus 2C :,-3.63086,-3.36289,-13.04152,152.25,134.99,164.22,157.53,317.4,188.65,230.7,-165.16,-24.68,-90.17,134.99,157.53,164.22,0,29.23,0.54
KLaL_cation_pi_RCCE_opt_neg0p9.xyz,Nucleus 5C :,-3.67186,-1.63971,-14.35326,46.8,163.11,19.65,-42.37,311.22,261.56,278.7,-108.47,-287.11,-315.52,-42.37,19.65,163.11,0,205.48,-0.4
KLaL_cation_pi_RCCE_opt_neg0p9.xyz,Nucleus 6C :,-3.9616,-0.28059,-14.4534,43.12,165.87,-63.53,27.02,200.2,317.85,291.19,-54.41,-367.85,-257.63,-63.53,27.02,165.87,0,229.4,-0.21
KLaL_cation_pi_RCCE_opt_neg0p9.xyz,Nucleus 8C :,-4.26639,0.26235,-13.56389,53.96,177.41,-54.01,38.48,227.42,329.58,282.98,-74.89,-265.12,-338.09,-54.01,38.48,177.41,0,231.42,-0.2
KLaL_cation_pi_RCCE_opt_neg0p9.xyz,Nucleus 10C :,-3.86508,0.37227,-15.67146,41.5,166.38,24.69,-66.56,231.46,341.2,294.78,-113.33,-351.02,-278.58,-66.56,24.69,166.38,0,232.94,-0.22
KLaL_cation_pi_RCCE_opt_neg0p9.xyz,Nucleus 12C :,-4.13466,1.42199,-15.74103,45.93,164.65,-38.93,12.06,229.31,269.03,293.26,-73.06,-331.1,-249.65,-38.93,12.06,164.65,0,203.58,-0.5
KLaL_cation_pi_RCCE_opt_neg0p9.xyz,Nucleus 13C :,-3.41889,-0.29236,-16.78652,152.56,134.03,165.05,158.6,337.1,244.31,270.23,-172.66,-87.04,-134.27,134.03,158.6,165.05,0,31.02,0.58
KLaL_cation_pi_RCCE_opt_neg0p9.xyz,Nucleus 16C :,-3.30176,0.23385,-17.72915,41.55,162.46,-33.52,-4.29,325.27,241.39,261.72,-87.49,-356.54,-259.7,-33.52,-4.29,162.46,0,195.98,-0.7
KLaL_cation_pi_RCCE_opt_neg0p9.xyz,Nucleus 17C :,-3.10266,-1.66591,-16.73126,44.07,-59.82,34.59,157.45,344.04,283.57,259.07,-377.92,-251.15,-125.39,-59.82,34.59,157.45,0,217.27,-0.13
KLaL_cation_pi_RCCE_opt_neg0p9.xyz,Nucleus 19C :,-2.49736,-2.31516,-17.95972,55.13,176.9,40.35,-51.86,321.87,244.62,282.49,-104.33,-280.93,-298.34,-51.86,40.35,176.9,0,228.76,-0.19
KLaL_cation_pi_RCCE_opt_neg0p9.xyz,Nucleus 21C :,-2.47907,-3.407,-17.86462,48.59,-52.92,40.74,157.94,349.52,255.9,266.71,-378.44,-107.99,-239.93,-52.92,40.74,157.94,0,210.86,-0.11
KLaL_cation_pi_RCCE_opt_neg0p9.xyz,Nucleus 23C :,-3.14888,-2.11605,-18.81737,45.38,-37.33,15.98,157.5,321.24,263.8,273.42,-348.63,-255.79,-117.9,-37.33,15.98,157.5,0,194.83,-0.45
KLaL_cation_pi_RCCE_opt_neg0p9.xyz,Nucleus 24C :,-1.12737,-1.77181,-18.26735,25.11,121.97,24.63,-71.27,244.76,306.9,327.74,-182.83,-290.79,-330.45,-71.27,24.63,121.97,0,193.24,-0.01
KLaL_cation_pi_RCCE_opt_neg0p9.xyz,Nucleus 25C :,-0.91658,-0.74033,-19.18898,21.84,111.47,-64.61,18.67,210.2,288.61,255.81,-99.36,-330.04,-259.68,-64.61,18.67,111.47,0,176.08,-0.05
KLaL_cation_pi_RCCE_opt_neg0p9.xyz,Nucleus 28C :,-1.75776,-0.38293,-19.77633,153.09,135.39,164.92,158.97,201.13,325.44,268.23,-162.16,-62.19,-111.17,135.39,158.97,164.92,0,29.53,0.6
KLaL_cation_pi_RCCE_opt_neg0p9.xyz,Nucleus 31C :,0.34176,-0.19192,-19.37488,44.26,164.59,11.93,-43.73,285.11,195.46,236.77,-56.69,-226.94,-300.91,-43.73,11.93,164.59,0,208.32,-0.47
KLaL_cation_pi_RCCE_opt_neg0p9.xyz,Nucleus 32C :,0.49023,0.59144,-20.11041,41.48,166.3,-64.08,22.21,321.74,215.41,265.68,-116.7,-259.21,-302.49,-64.08,22.21,166.3,0,230.38,-0.25
KLaL_cation_pi_RCCE_opt_neg0p9.xyz,Nucleus 34C :,1.40802,-0.66952,-18.64383,49.86,178.7,-59.41,30.29,321.71,189.99,244.76,-52.48,-337.21,-217.2,-59.41,30.29,178.7,0,238.11,-0.25
KLaL_cation_pi_RCCE_opt_neg0p9.xyz,Nucleus 36C :,2.40209,-0.26185,-18.80495,42.25,166.89,23.03,-63.16,158.65,329.51,252.81,-40.98,-366.7,-206.53,-63.16,23.03,166.89,0,230.05,-0.25
KLaL_cation_pi_RCCE_opt_neg0p9.xyz,Nucleus 38C :,1.26331,-1.70665,-17.72336,45.06,164.3,-43.42,14.29,200.34,308.51,337.82,-116.82,-273.43,-321.26,-43.42,14.29,164.3,0,207.72,-0.44
KLaL_cation_pi_RCCE_opt_neg0p9.xyz,Nucleus 39C :,-0.02275,-2.248,-17.50932,153.99,136.32,166.11,159.53,148.62,273.1,212.98,14.46,-113.55,-73.65,136.32,159.53,166.11,0,29.79,0.56
KLaL_cation_pi_RCCE_opt_neg0p9.xyz,Nucleus 42C :,-3.29932,-2.31449,-15.5209,43.48,157.67,-39.39,12.16,184.64,239.26,283.0,-57.03,-271.26,-248.16,-39.39,12.16,157.67,0,197.06,-0.48
KLaL_cation_pi_RCCE_opt_neg0p9.xyz,Nucleus 43C :,-0.634,-1.33327,-14.92549,45.82,-57.07,36.69,157.84,160.67,212.55,293.17,-310.33,-160.17,-58.44,-57.07,36.69,157.84,0,214.91,-0.13
KLaL_cation_pi_RCCE_opt_neg0p9.xyz,Nucleus 45C :,-0.61955,-1.82075,-14.04083,54.4,177.17,38.77,-52.73,286.98,245.44,218.89,-42.9,-206.74,-338.45,-52.73,38.77,177.17,0,229.9,-0.2
KLaL_cation_pi_RCCE_opt_neg0p9.xyz,Nucleus 47C :,-0.34639,0.64638,-16.01492,46.38,-55.6,37.11,157.63,188.87,297.41,239.13,-306.66,-199.46,-80.13,-55.6,37.11,157.63,0,213.23,-0.13
KLaL_cation_pi_RCCE_opt_neg0p9.xyz,Nucleus 49C :,-0.35573,1.65022,-16.04481,45.32,162.82,-28.86,2.01,227.26,260.12,297.9,-91.23,-254.3,-303.78,-28.86,2.01,162.82,0,191.68,-0.68
KLaL_cation_pi_RCCE_opt_neg0p9.xyz,Nucleus 50C :,-0.07021,0.15851,-16.85674,26.06,-71.58,27.49,122.26,126.65,251.33,295.55,-15.91,-231.49,-347.97,-71.58,27.49,122.26,0,193.84,0.02
KLaL_cation_pi_RCCE_opt_neg0p9.xyz,Nucleus 51C :,-0.64706,-0.01677,-14.92389,27.8,-63.93,106.06,41.27,141.62,288.7,299.21,-72.48,-226.31,-347.35,-63.93,41.27,106.06,0,169.99,0.24
KLaL_cation_pi_RCCE_opt_neg0p9.xyz,Nucleus 57C :,-0.16135,-1.80342,-15.68304,30.47,132.4,-26.8,-14.19,334.44,245.97,263.23,-116.27,-280.08,-355.88,-26.8,-14.19,132.4,0,159.2,-0.84
KLaL_cation_pi_RCCE_opt_neg0p9.xyz,Nucleus 52N :,-0.9608,0.63763,-13.83124,138.45,201.5,74.96,138.88,298.99,352.59,426.91,-108.2,-322.1,-232.85,74.96,138.88,201.5,0,126.54,0.01
KLaL_cation_pi_RCCE_opt_neg0p9.xyz,Nucleus 54N :,-0.9621,1.64135,-13.79599,172.5,119.55,188.69,209.25,216.28,327.95,412.51,-27.31,-168.37,-243.56,119.55,188.69,209.25,0,89.7,0.54
KLaL_cation_pi_RCCE_opt_neg0p9.xyz,Nucleus 59N :,-1.16151,0.14139,-12.97253,172.18,118.81,188.89,208.83,422.07,312.16,378.6,-232.27,-250.34,-113.69,118.81,188.89,208.83,0,90.02,0.56
KLaL_cation_pi_RCCE_opt_neg0p8.xyz,Nucleus 3H :,1.85056,-3.65399,-14.42354,27.56,34.68,24.77,23.23,-82.86,79.44,23.63,109.06,-49.31,2.73,23.23,24.77,34.68,0,11.45,-0.73
KLaL_cation_pi_RCCE_opt_neg0p8.xyz,Nucleus 4H :,-1.00867,-3.16908,-13.28325,26.88,23.16,27.5,29.98,-60.31,14.86,93.03,85.32,13.09,-65.36,23.16,27.5,29.98,0,6.82,0.27
KLaL_cation_pi_RCCE_opt_neg0p8.xyz,Nucleus 7H :,2.41198,-2.20461,-16.88088,24.28,29.45,23.14,20.25,-56.37,61.51,97.95,81.22,-36.49,-74.98,20.25,23.14,29.45,0,9.2,-0.37
KLaL_cation_pi_RCCE_opt_neg0p8.xyz,Nucleus 9H :,3.34765,-1.9455,-17.38756,24.76,20.61,26.47,27.21,9.27,85.21,67.06,16.64,-59.03,-44.85,20.61,26.47,27.21,0,6.6,0.78
KLaL_cation_pi_RCCE_opt_neg0p8.xyz,Nucleus 11H :,2.39691,-3.29532,-16.81784,24.19,29.41,20.17,22.98,141.85,57.8,28.5,-118.06,-4.41,-33.11,20.17,22.98,29.41,0,9.24,-0.39
KLaL_cation_pi_RCCE_opt_neg0p8.xyz,Nucleus 14H :,2.4252,-1.57784,-15.50033,26.24,22.87,29.44,26.42,14.37,97.04,61.18,-72.63,12.03,-33.24,22.87,26.42,29.44,0,6.57,0.08
KLaL_cation_pi_RCCE_opt_neg0p8.xyz,Nucleus 15H :,2.68791,-0.21348,-15.39687,27.78,34.96,25.06,23.31,137.62,35.79,57.71,-111.01,-2.67,-34.11,23.31,25.06,34.96,0,11.65,-0.7
KLaL_cation_pi_RCCE_opt_neg0p8.xyz,Nucleus 18H :,2.98968,0.34051,-16.28164,23.54,27.97,22.73,19.93,124.3,86.12,35.69,-102.36,-64.54,-8.58,19.93,22.73,27.97,0,8.04,-0.3
KLaL_cation_pi_RCCE_opt_neg0p8.xyz,Nucleus 20H :,2.57849,0.43438,-14.17723,24.02,20.18,26.07,25.81,35.17,84.68,103.28,-58.64,-82.86,-9.57,20.18,25.81,26.07,0,5.89,0.91
KLaL_cation_pi_RCCE_opt_neg0p8.xyz,Nucleus 22H :,2.82822,1.48929,-14.10622,23.83,23.23,19.91,28.36,118.31,24.56,68.36,-95.18,3.24,-47.79,19.91,23.23,28.36,0,8.45,-0.21
KLaL_cation_pi_RCCE_opt_neg0p8.xyz,Nucleus 29H :,2.14561,-0.24168,-13.06379,27.43,34.6,24.68,23.01,130.35,6.63,23.87,-102.21,24.3,-0.67,23.01,24.68,34.6,0,11.59,-0.71
KLaL_cation_pi_RCCE_opt_neg0p8.xyz,Nucleus 30H :,2.02109,0.28044,-12.11936,27.01,23.2,27.6,30.23,1.19,94.47,54.67,26.2,-68.83,-26.68,23.2,27.6,30.23,0,7.03,0.25
KLaL_cation_pi_RCCE_opt_neg0p8.xyz,Nucleus 33H :,1.85668,-1.6211,-13.12241,24.09,29.28,22.84,20.16,132.85,26.54,4.52,-108.69,-2.19,19.24,20.16,22.84,29.28,0,9.12,-0.41
KLaL_cation_pi_RCCE_opt_neg0p8.xyz,Nucleus 35H :,1.26442,-2.28521,-11.89554,24.52,20.29,26.15,27.12,87.9,-20.21,9.95,-61.83,44.56,13.19,20.29,26.15,27.12,0,6.83,0.72
KLaL_cation_pi_RCCE_opt_neg0p8.xyz,Nucleus 37H :,1.23472,-3.36627,-12.0504,24.16,29.42,20.21,22.86,-90.11,88.07,16.61,114.8,-64.56,7.68,20.21,22.86,29.42,0,9.21,-0.42
KLaL_cation_pi_RCCE_opt_neg0p8.xyz,Nucleus 40H :,1.91674,-2.09261,-11.03742,27.14,23.52,30.25,27.66,62.62,-74.93,-16.41,-33.73,98.59,45.28,23.52,27.66,30.25,0,6.73,0.23
KLaL_cation_pi_RCCE_opt_neg0p8.xyz,Nucleus 41H :,-0.11608,-1.76989,-11.58662,27.39,34.66,24.61,22.9,-119.82,58.42,-30.97,144.28,-24.57,54.83,22.9,24.61,34.66,0,11.76,-0.71
KLaL_cation_pi_RCCE_opt_neg0p8.xyz,Nucleus 44H :,-0.34726,-0.74504,-10.66249,23.69,28.2,22.93,19.94,-86.18,-32.15,62.85,-36.76,107.51,55.79,19.94,22.93,28.2,0,8.26,-0.28
KLaL_cation_pi_RCCE_opt_neg0p8.xyz,Nucleus 46H :,0.48968,-0.37756,-10.07614,23.97,20.12,26.03,25.77,70.21,-20.87,-72.26,-44.66,46.89,92.6,20.12,25.77,26.03,0,5.91,0.91
KLaL_cation_pi_RCCE_opt_neg0p8.xyz,Nucleus 48H :,-1.61623,-0.22215,-10.4753,23.65,28.12,22.98,19.86,67.16,-45.35,-5.69,-40.6,67.81,27.63,19.86,22.98,28.12,0,8.26,-0.24
KLaL_cation_pi_RCCE_opt_neg0p8.xyz,Nucleus 53H :,-1.78286,0.55559,-9.73755,25.13,34.96,24.13,16.31,103.48,34.05,-13.49,-68.67,-9.97,29.99,16.31,24.13,34.96,0,18.65,-0.16
KLaL_cation_pi_RCCE_opt_neg0p8.xyz,Nucleus 55H :,-2.67282,-0.71904,-11.20753,29.74,24.19,28.22,36.8,-19.94,30.38,100.7,45.03,-1.12,-65.83,24.19,28.22,36.8,0,12.61,-0.36
KLaL_cation_pi_RCCE_opt_neg0p8.xyz,Nucleus 56H :,-3.67284,-0.32653,-11.04041,31.49,44.38,24.43,25.67,-40.1,41.73,128.83,64.56,2.45,-102.99,24.43,25.67,44.38,0,19.95,-0.88
KLaL_cation_pi_RCCE_opt_neg0p8.xyz,Nucleus 58H :,-2.50759,-1.75085,-12.13052,25.79,34.64,25.6,17.14,45.38,58.53,140.0,-26.38,-17.72,-122.43,17.14,25.6,34.64,0,17.5,-0.03
KLaL_cation_pi_RCCE_opt_neg0p8.xyz,Nucleus 60H :,-1.21105,-2.26606,-12.34584,29.72,24.17,28.22,36.77,103.92,76.43,23.05,-78.08,-46.65,10.48,24.17,28.22,36.77,0,12.6,-0.36
KLaL_cation_pi_RCCE_opt_neg0p8.xyz,Nucleus 61H :,2.06614,-2.26271,-14.33433,31.46,44.45,24.36,25.56,-9.38,130.84,101.36,-105.46,35.02,-58.01,24.36,25.56,44.45,0,20.09,-0.88
KLaL_cation_pi_RCCE_opt_neg0p8.xyz,Nucleus 62H :,-3.05617,-3.70143,-15.43508,26.18,37.32,19.16,22.07,26.82,48.0,62.48,-39.89,-13.69,-5.18,19.16,22.07,37.32,0,18.16,-0.68
KLaL_cation_pi_RCCE_opt_neg0p8.xyz,Nucleus 63H :,-0.20716,-3.15713,-16.57412,24.3,35.35,22.08,15.47,88.39,32.77,9.89,-54.43,-11.38,7.65,15.47,22.08,35.35,0,19.88,-0.34
KLaL_cation_pi_RCCE_opt_neg0p8.xyz,Nucleus 64H :,-3.64618,-2.26946,-12.97424,27.66,42.38,19.25,21.35,78.91,-23.05,11.25,-38.52,44.19,10.21,19.25,21.35,42.38,0,23.13,-0.82
KLaL_cation_pi_RCCE_opt_neg0p8.xyz,Nucleus 65H :,-4.58558,-2.02912,-12.46536,24.03,35.85,14.38,21.86,54.1,22.46,35.77,9.04,-36.3,-12.98,14.38,21.86,35.85,0,21.47,-0.3
KLaL_cation_pi_RCCE_opt_neg0p8.xyz,Nucleus 2C :,-3.63086,-3.36289,-13.04152,152.26,135.06,164.13,157.58,316.65,187.66,230.89,-164.39,-23.9,-90.14,135.06,157.58,164.13,0,29.07,0.55
KLaL_cation_pi_RCCE_opt_neg0p8.xyz,Nucleus 5C :,-3.67186,-1.63971,-14.35326,46.44,163.12,18.95,-42.76,310.11,262.73,276.64,-108.16,-286.13,-315.88,-42.76,18.95,163.12,0,205.88,-0.4
KLaL_cation_pi_RCCE_opt_neg0p8.xyz,Nucleus 6C :,-3.9616,-0.28059,-14.4534,43.45,165.85,-62.88,27.39,199.38,319.78,290.49,-54.32,-368.31,-256.67,-62.88,27.39,165.85,0,228.73,-0.21
KLaL_cation_pi_RCCE_opt_neg0p8.xyz,Nucleus 8C :,-4.26639,0.26235,-13.56389,53.8,177.41,-54.34,38.33,226.11,330.77,283.5,-74.07,-265.49,-339.42,-54.34,38.33,177.41,0,231.75,-0.2
KLaL_cation_pi_RCCE_opt_neg0p8.xyz,Nucleus 10C :,-3.86508,0.37227,-15.67146,41.75,166.38,24.97,-66.1,229.55,343.13,296.85,-112.63,-351.76,-279.9,-66.1,24.97,166.38,0,232.48,-0.22
KLaL_cation_pi_RCCE_opt_neg0p8.xyz,Nucleus 12C :,-4.13466,1.42199,-15.74103,45.62,164.71,-39.27,11.42,230.73,270.78,296.11,-74.84,-332.61,-253.31,-39.27,11.42,164.71,0,203.98,-0.5
KLaL_cation_pi_RCCE_opt_neg0p8.xyz,Nucleus 13C :,-3.41889,-0.29236,-16.78652,152.57,134.1,164.99,158.63,338.7,244.82,271.86,-174.2,-87.76,-135.7,134.1,158.63,164.99,0,30.89,0.59
KLaL_cation_pi_RCCE_opt_neg0p8.xyz,Nucleus 16C :,-3.30176,0.23385,-17.72915,41.87,162.28,-32.66,-4.0,322.98,240.18,262.29,-87.99,-353.74,-258.08,-32.66,-4.0,162.28,0,194.94,-0.71
KLaL_cation_pi_RCCE_opt_neg0p8.xyz,Nucleus 17C :,-3.10266,-1.66591,-16.73126,44.16,-59.83,34.93,157.37,344.15,283.57,258.78,-377.82,-250.7,-125.52,-59.83,34.93,157.37,0,217.2,-0.13
KLaL_cation_pi_RCCE_opt_neg0p8.xyz,Nucleus 19C :,-2.49736,-2.31516,-17.95972,55.72,176.81,41.54,-51.18,322.34,244.14,283.06,-104.96,-280.19,-297.2,-51.18,41.54,176.81,0,227.99,-0.19
KLaL_cation_pi_RCCE_opt_neg0p8.xyz,Nucleus 21C :,-2.47907,-3.407,-17.86462,48.66,-52.94,41.07,157.85,350.66,255.34,266.47,-378.98,-107.74,-239.77,-52.94,41.07,157.85,0,210.79,-0.11
KLaL_cation_pi_RCCE_opt_neg0p8.xyz,Nucleus 23C :,-3.14888,-2.11605,-18.81737,45.65,-36.37,16.04,157.29,321.41,263.15,272.76,-348.02,-255.66,-116.69,-36.37,16.04,157.29,0,193.66,-0.46
KLaL_cation_pi_RCCE_opt_neg0p8.xyz,Nucleus 24C :,-1.12737,-1.77181,-18.26735,24.74,122.03,22.72,-70.52,244.41,304.75,323.93,-181.93,-287.82,-329.12,-70.52,22.72,122.03,0,192.55,-0.03
KLaL_cation_pi_RCCE_opt_neg0p8.xyz,Nucleus 25C :,-0.91658,-0.74033,-19.18898,21.97,111.45,-63.91,18.36,211.32,289.26,256.68,-100.44,-330.82,-260.1,-63.91,18.36,111.45,0,175.36,-0.06
KLaL_cation_pi_RCCE_opt_neg0p8.xyz,Nucleus 28C :,-1.75776,-0.38293,-19.77633,153.1,135.38,164.89,159.02,326.68,203.27,267.87,-163.54,-63.98,-111.01,135.38,159.02,164.89,0,29.51,0.6
KLaL_cation_pi_RCCE_opt_neg0p8.xyz,Nucleus 31C :,0.34176,-0.19192,-19.37488,43.95,164.62,11.46,-44.24,196.03,285.4,239.03,-57.7,-229.09,-301.83,-44.24,11.46,164.62,0,208.86,-0.47
KLaL_cation_pi_RCCE_opt_neg0p8.xyz,Nucleus 32C :,0.49023,0.59144,-20.11041,41.84,166.29,-63.38,22.62,322.16,214.44,266.62,-116.79,-259.37,-301.52,-63.38,22.62,166.29,0,229.67,-0.25
KLaL_cation_pi_RCCE_opt_neg0p8.xyz,Nucleus 34C :,1.40802,-0.66952,-18.64383,49.68,178.69,-59.88,30.23,322.39,188.4,244.33,-51.59,-337.89,-216.6,-59.88,30.23,178.69,0,238.57,-0.24
KLaL_cation_pi_RCCE_opt_neg0p8.xyz,Nucleus 36C :,2.40209,-0.26185,-18.80495,42.56,166.88,23.4,-62.6,157.39,328.28,252.31,-39.97,-363.91,-206.41,-62.6,23.4,166.88,0,229.48,-0.25
KLaL_cation_pi_RCCE_opt_neg0p8.xyz,Nucleus 38C :,1.26331,-1.70665,-17.72336,44.82,164.32,-43.76,13.89,202.35,307.73,331.84,-117.24,-273.96,-316.27,-43.76,13.89,164.32,0,208.08,-0.45
KLaL_cation_pi_RCCE_opt_neg0p8.xyz,Nucleus 39C :,-0.02275,-2.248,-17.50932,154.0,136.35,166.11,159.53,149.02,273.0,209.04,14.17,-113.42,-69.83,136.35,159.53,166.11,0,29.76,0.56
KLaL_cation_pi_RCCE_opt_neg0p8.xyz,Nucleus 42C :,-3.29932,-2.31449,-15.5209,43.78,157.49,-38.43,12.29,179.77,242.31,281.22,-55.63,-266.5,-249.82,-38.43,12.29,157.49,0,195.92,-0.48
KLaL_cation_pi_RCCE_opt_neg0p8.xyz,Nucleus 43C :,-0.634,-1.23327,-14.92549,45.9,-57.07,37.0,157.77,159.2,211.4,292.65,-309.71,-158.3,-57.55,-57.07,37.0,157.77,0,214.84,-0.12
KLaL_cation_pi_RCCE_opt_neg0p8.xyz,Nucleus 45C :,-0.61955,-1.72075,-14.04083,54.97,177.1,39.89,-52.09,287.77,244.18,217.56,-41.64,-204.44,-338.54,-52.09,39.89,177.1,0,229.19,-0.2
KLaL_cation_pi_RCCE_opt_neg0p8.xyz,Nucleus 47C :,-0.34639,0.74638,-16.01492,46.47,-55.6,37.45,157.56,186.56,298.8,238.39,-307.55,-197.52,-79.27,-55.6,37.45,157.56,0,213.16,-0.13
KLaL_cation_pi_RCCE_opt_neg0p8.xyz,Nucleus 49C :,-0.35573,1.75022,-16.04481,45.59,162.66,-28.02,2.13,230.64,260.54,299.66,-91.83,-258.46,-303.79,-28.02,2.13,162.66,0,190.68,-0.68
KLaL_cation_pi_RCCE_opt_neg0p8.xyz,Nucleus 50C :,-0.07021,0.25851,-16.85674,25.71,-70.91,25.7,122.34,127.22,255.1,295.29,-16.48,-237.82,-346.18,-70.91,25.7,122.34,0,193.25,-0.0
KLaL_cation_pi_RCCE_opt_neg0p8.xyz,Nucleus 51C :,-0.64706,0.08323,-14.92389,27.95,-63.2,106.02,41.03,142.39,297.76,286.99,-72.91,-226.67,-343.69,-63.2,41.03,106.02,0,169.22,0.23
KLaL_cation_pi_RCCE_opt_neg0p8.xyz,Nucleus 57C :,-0.16135,-1.70342,-15.68304,30.48,132.24,-26.58,-14.23,334.24,245.04,264.61,-116.68,-280.11,-355.67,-26.58,-14.23,132.24,0,158.82,-0.84
KLaL_cation_pi_RCCE_opt_neg0p8.xyz,Nucleus 52N :,-0.9608,0.73763,-13.83124,142.21,200.53,79.04,147.05,298.05,352.64,427.37,-108.79,-317.78,-224.88,79.04,147.05,200.53,0,121.49,0.12
KLaL_cation_pi_RCCE_opt_neg0p8.xyz,Nucleus 54N :,-0.9621,1.74135,-13.79599,173.82,120.97,188.49,212.01,218.34,326.56,409.88,-29.76,-164.82,-238.73,120.97,188.49,212.01,0,91.04,0.48
KLaL_cation_pi_RCCE_opt_neg0p8.xyz,Nucleus 59N :,-1.16151,0.24139,-12.97253,173.54,120.24,188.62,211.76,419.67,312.9,378.75,-229.8,-249.43,-111.47,120.24,188.62,211.76,0,91.52,0.49
KLaL_cation_pi_RCCE_opt_neg0p7.xyz,Nucleus 3H :,1.85056,-3.65399,-14.42354,27.56,34.68,24.77,23.23,-82.88,79.43,23.59,109.08,-49.3,2.77,23.23,24.77,34.68,0,11.45,-0.73
KLaL_cation_pi_RCCE_opt_neg0p7.xyz,Nucleus 4H :,-1.00867,-3.16908,-13.28325,26.88,23.17,27.49,29.97,-60.37,14.86,93.1,85.38,13.09,-65.44,23.17,27.49,29.97,0,6.8,0.27
KLaL_cation_pi_RCCE_opt_neg0p7.xyz,Nucleus 7H :,2.41198,-2.20461,-16.88088,24.28,29.45,23.14,20.25,-56.38,61.55,97.96,81.23,-36.53,-75.0,20.25,23.14,29.45,0,9.2,-0.37
KLaL_cation_pi_RCCE_opt_neg0p7.xyz,Nucleus 9H :,3.34765,-1.9455,-17.38756,24.77,20.61,26.47,27.22,9.23,85.23,67.07,16.67,-59.05,-44.86,20.61,26.47,27.22,0,6.61,0.77
KLaL_cation_pi_RCCE_opt_neg0p7.xyz,Nucleus 11H :,2.39691,-3.29532,-16.81784,24.19,29.41,20.17,22.98,141.9,57.79,28.5,-118.11,-4.41,-33.11,20.17,22.98,29.41,0,9.24,-0.39
KLaL_cation_pi_RCCE_opt_neg0p7.xyz,Nucleus 14H :,2.4252,-1.57784,-15.50033,26.25,22.87,29.44,26.43,14.34,97.09,61.15,-72.69,12.06,-33.21,22.87,26.43,29.44,0,6.57,0.08
KLaL_cation_pi_RCCE_opt_neg0p7.xyz,Nucleus 15H :,2.68791,-0.21348,-15.39687,27.77,34.96,25.05,23.29,137.63,35.8,57.72,-111.03,-2.68,-34.14,23.29,25.05,34.96,0,11.67,-0.7
KLaL_cation_pi_RCCE_opt_neg0p7.xyz,Nucleus 18H :,2.98968,0.34051,-16.28164,23.54,27.96,22.74,19.93,124.36,86.1,35.68,-102.42,-64.52,-8.58,19.93,22.74,27.96,0,8.03,-0.3
KLaL_cation_pi_RCCE_opt_neg0p7.xyz,Nucleus 20H :,2.57849,0.43438,-14.17723,24.02,20.17,26.07,25.81,35.17,84.73,103.26,-58.69,-82.85,-9.57,20.17,25.81,26.07,0,5.9,0.91
KLaL_cation_pi_RCCE_opt_neg0p7.xyz,Nucleus 22H :,2.82822,1.48929,-14.10622,23.83,23.23,19.91,28.36,118.39,24.56,68.35,-95.26,3.24,-47.79,19.91,23.23,28.36,0,8.45,-0.21
KLaL_cation_pi_RCCE_opt_neg0p7.xyz,Nucleus 29H :,2.14561,-0.24168,-13.06379,27.42,34.6,24.67,23.0,130.41,6.65,23.82,-102.27,24.28,-0.62,23.0,24.67,34.6,0,11.6,-0.71
KLaL_cation_pi_RCCE_opt_neg0p7.xyz,Nucleus 30H :,2.02109,0.28044,-12.11936,27.0,23.19,27.6,30.22,1.18,94.54,54.65,26.22,-68.91,-26.65,23.19,27.6,30.22,0,7.03,0.26
KLaL_cation_pi_RCCE_opt_neg0p7.xyz,Nucleus 33H :,1.85668,-1.6211,-13.12241,24.09,29.27,22.83,20.17,132.96,26.49,4.53,-108.81,-2.14,19.24,20.17,22.83,29.27,0,9.1,-0.42
KLaL_cation_pi_RCCE_opt_neg0p7.xyz,Nucleus 35H :,1.26442,-2.28521,-11.89554,24.52,20.29,26.14,27.13,87.92,-20.27,9.95,-61.85,44.62,13.2,20.29,26.14,27.13,0,6.84,0.71
KLaL_cation_pi_RCCE_opt_neg0p7.xyz,Nucleus 37H :,1.23472,-3.36627,-12.0504,24.17,29.42,20.22,22.86,-90.24,88.1,16.6,114.95,-64.59,7.69,20.22,22.86,29.42,0,9.2,-0.43
KLaL_cation_pi_RCCE_opt_neg0p7.xyz,Nucleus 40H :,1.91674,-2.09261,-11.03742,27.15,23.53,30.26,27.66,62.64,-75.03,-16.39,-33.75,98.7,45.27,23.53,27.66,30.26,0,6.73,0.23
KLaL_cation_pi_RCCE_opt_neg0p7.xyz,Nucleus 41H :,-0.11608,-1.76989,-11.58662,27.4,34.66,24.62,22.91,-119.87,58.43,-31.01,144.33,-24.58,54.89,22.91,24.62,34.66,0,11.75,-0.71
KLaL_cation_pi_RCCE_opt_neg0p7.xyz,Nucleus 44H :,-0.34726,-0.74504,-10.66249,23.69,28.21,22.92,19.94,-86.26,-32.17,62.86,-36.77,107.6,55.81,19.94,22.92,28.21,0,8.27,-0.28
KLaL_cation_pi_RCCE_opt_neg0p7.xyz,Nucleus 46H :,0.48968,-0.37756,-10.07614,23.98,20.13,26.03,25.77,70.22,-20.92,-72.21,-44.67,46.93,92.56,20.13,25.77,26.03,0,5.9,0.91
KLaL_cation_pi_RCCE_opt_neg0p7.xyz,Nucleus 48H :,-1.61623,-0.22215,-10.4753,23.65,28.12,22.97,19.85,67.19,-45.4,-5.66,-40.63,67.86,27.6,19.85,22.97,28.12,0,8.27,-0.25
KLaL_cation_pi_RCCE_opt_neg0p7.xyz,Nucleus 53H :,-1.78286,0.55559,-9.73755,25.13,34.96,24.14,16.3,103.53,34.1,-13.43,-68.71,-10.0,29.91,16.3,24.14,34.96,0,18.66,-0.16
KLaL_cation_pi_RCCE_opt_neg0p7.xyz,Nucleus 55H :,-2.67282,-0.71904,-11.20753,29.73,24.18,28.22,36.8,-19.95,30.4,100.7,45.03,-1.14,-65.84,24.18,28.22,36.8,0,12.62,-0.36
KLaL_cation_pi_RCCE_opt_neg0p7.xyz,Nucleus 56H :,-3.67284,-0.32653,-11.04041,31.47,44.38,24.38,25.65,-40.06,41.76,128.77,64.48,2.4,-102.95,24.38,25.65,44.38,0,20.0,-0.87
KLaL_cation_pi_RCCE_opt_neg0p7.xyz,Nucleus 58H :,-2.50759,-1.75085,-12.13052,25.79,34.64,25.58,17.15,45.36,58.56,139.9,-26.43,-17.7,-122.33,17.15,25.58,34.64,0,17.49,-0.04
KLaL_cation_pi_RCCE_opt_neg0p7.xyz,Nucleus 60H :,-1.21105,-2.26606,-12.34584,29.72,24.18,28.22,36.77,103.93,76.45,23.06,-78.09,-46.67,10.48,24.18,28.22,36.77,0,12.59,-0.36
KLaL_cation_pi_RCCE_opt_neg0p7.xyz,Nucleus 61H :,2.06614,-2.26271,-14.33433,31.48,44.45,24.4,25.58,-9.36,130.86,101.36,-105.43,35.01,-58.02,24.4,25.58,44.45,0,20.05,-0.88
KLaL_cation_pi_RCCE_opt_neg0p7.xyz,Nucleus 62H :,-3.05617,-3.70143,-15.43508,26.19,37.33,19.16,22.07,26.83,48.05,62.48,-39.89,-13.72,-5.2,19.16,22.07,37.33,0,18.17,-0.68
KLaL_cation_pi_RCCE_opt_neg0p7.xyz,Nucleus 63H :,-0.20716,-3.15713,-16.57412,24.29,35.35,22.06,15.46,88.41,32.77,9.85,-54.46,-11.41,7.7,15.46,22.06,35.35,0,19.89,-0.34
KLaL_cation_pi_RCCE_opt_neg0p7.xyz,Nucleus 64H :,-3.64618,-2.26946,-12.97424,27.67,42.37,19.28,21.36,78.93,-23.1,11.23,-38.55,44.27,10.23,19.28,21.36,42.37,0,23.09,-0.82
KLaL_cation_pi_RCCE_opt_neg0p7.xyz,Nucleus 65H :,-4.58558,-2.02912,-12.46536,24.02,35.85,14.35,21.86,54.02,22.47,35.8,9.01,-36.21,-13.02,14.35,21.86,35.85,0,21.5,-0.3
KLaL_cation_pi_RCCE_opt_neg0p7.xyz,Nucleus 2C :,-3.63086,-3.36289,-13.04152,152.23,135.03,164.09,157.57,316.68,187.38,230.98,-164.48,-23.65,-90.2,135.03,157.57,164.09,0,29.06,0.55
KLaL_cation_pi_RCCE_opt_neg0p7.xyz,Nucleus 5C :,-3.67186,-1.63971,-14.35326,46.44,163.12,18.94,-42.75,310.11,262.76,276.7,-108.23,-286.15,-315.86,-42.75,18.94,163.12,0,205.87,-0.4
KLaL_cation_pi_RCCE_opt_neg0p7.xyz,Nucleus 6C :,-3.9616,-0.28059,-14.4534,43.45,165.85,-62.88,27.39,199.19,319.83,290.45,-54.12,-368.35,-256.64,-62.88,27.39,165.85,0,228.73,-0.21
KLaL_cation_pi_RCCE_opt_neg0p7.xyz,Nucleus 8C :,-4.26639,0.26235,-13.56389,53.8,177.4,-54.34,38.33,226.06,330.8,283.57,-74.1,-265.52,-339.43,-54.34,38.33,177.4,0,231.74,-0.2
KLaL_cation_pi_RCCE_opt_neg0p7.xyz,Nucleus 10C :,-3.86508,0.37227,-15.67146,41.74,166.36,24.97,-66.1,229.54,343.23,296.88,-112.69,-351.82,-279.91,-66.1,24.97,166.36,0,232.46,-0.22
KLaL_cation_pi_RCCE_opt_neg0p7.xyz,Nucleus 12C :,-4.13466,1.42199,-15.74103,45.62,164.7,-39.27,11.42,230.72,270.75,296.08,-74.8,-332.61,-253.3,-39.27,11.42,164.7,0,203.97,-0.5
KLaL_cation_pi_RCCE_opt_neg0p7.xyz,Nucleus 13C :,-3.41889,-0.29236,-16.78652,152.58,134.11,165.01,158.63,338.84,244.83,271.73,-174.31,-87.78,-135.57,134.11,158.63,165.01,0,30.9,0.59
KLaL_cation_pi_RCCE_opt_neg0p7.xyz,Nucleus 16C :,-3.30176,0.23385,-17.72915,41.87,162.27,-32.66,-3.99,323.1,240.08,262.3,-88.01,-353.84,-257.99,-32.66,-3.99,162.27,0,194.93,-0.71
KLaL_cation_pi_RCCE_opt_neg0p7.xyz,Nucleus 17C :,-3.10266,-1.66591,-16.73126,44.16,-59.82,34.93,157.38,344.29,283.58,258.76,-377.93,-250.68,-125.53,-59.82,34.93,157.38,0,217.2,-0.13
KLaL_cation_pi_RCCE_opt_neg0p7.xyz,Nucleus 19C :,-2.49736,-2.31516,-17.95972,55.73,176.83,41.54,-51.18,322.47,244.1,283.1,-105.0,-280.32,-297.16,-51.18,41.54,176.83,0,228.01,-0.19
KLaL_cation_pi_RCCE_opt_neg0p7.xyz,Nucleus 21C :,-2.47907,-3.407,-17.86462,48.66,-52.94,41.07,157.86,350.88,255.42,266.58,-379.17,-107.94,-239.77,-52.94,41.07,157.86,0,210.8,-0.11
KLaL_cation_pi_RCCE_opt_neg0p7.xyz,Nucleus 23C :,-3.14888,-2.11605,-18.81737,45.66,-36.35,16.04,157.28,321.59,263.26,272.8,-348.13,-255.76,-116.81,-36.35,16.04,157.28,0,193.63,-0.46
KLaL_cation_pi_RCCE_opt_neg0p7.xyz,Nucleus 24C :,-1.12737,-1.77181,-18.26735,24.75,122.02,22.74,-70.51,244.35,304.72,323.89,-181.97,-287.84,-328.92,-70.51,22.74,122.02,0,192.53,-0.03
KLaL_cation_pi_RCCE_opt_neg0p7.xyz,Nucleus 25C :,-0.91658,-0.74033,-19.18898,21.98,111.46,-63.89,18.36,211.26,289.31,256.71,-100.36,-330.9,-260.1,-63.89,18.36,111.46,0,175.35,-0.06
KLaL_cation_pi_RCCE_opt_neg0p7.xyz,Nucleus 28C :,-1.75776,-0.38293,-19.77633,153.11,135.39,164.91,159.04,326.95,203.19,267.83,-163.77,-63.92,-110.94,135.39,159.04,164.91,0,29.52,0.6
KLaL_cation_pi_RCCE_opt_neg0p7.xyz,Nucleus 31C :,0.34176,-0.19192,-19.37488,43.94,164.62,11.45,-44.26,196.12,285.4,238.99,-57.79,-229.08,-301.83,-44.26,11.45,164.62,0,208.88,-0.47
KLaL_cation_pi_RCCE_opt_neg0p7.xyz,Nucleus 32C :,0.49023,0.59144,-20.11041,41.83,166.27,-63.38,22.61,322.22,214.34,266.57,-116.74,-259.34,-301.54,-63.38,22.61,166.27,0,229.65,-0.25
KLaL_cation_pi_RCCE_opt_neg0p7.xyz,Nucleus 34C :,1.40802,-0.66952,-18.64383,49.68,178.68,-59.88,30.23,322.54,188.42,244.27,-51.72,-337.92,-216.56,-59.88,30.23,178.68,0,238.56,-0.24
KLaL_cation_pi_RCCE_opt_neg0p7.xyz,Nucleus 36C :,2.40209,-0.26185,-18.80495,42.56,166.88,23.41,-62.6,157.32,328.45,252.27,-40.07,-363.98,-206.3,-62.6,23.41,166.88,0,229.48,-0.25
KLaL_cation_pi_RCCE_opt_neg0p7.xyz,Nucleus 38C :,1.26331,-1.70665,-17.72336,44.81,164.33,-43.77,13.87,202.31,307.71,331.89,-117.18,-273.97,-316.34,-43.77,13.87,164.33,0,208.1,-0.45
KLaL_cation_pi_RCCE_opt_neg0p7.xyz,Nucleus 39C :,-0.02275,-2.248,-17.50932,153.97,136.33,166.06,159.52,148.79,273.07,208.96,14.41,-113.5,-69.82,136.33,159.52,166.06,0,29.73,0.56
KLaL_cation_pi_RCCE_opt_neg0p7.xyz,Nucleus 42C :,-3.29932,-2.31449,-15.5209,43.77,157.49,-38.45,12.27,179.72,242.23,281.25,-55.66,-266.37,-249.86,-38.45,12.27,157.49,0,195.94,-0.48
KLaL_cation_pi_RCCE_opt_neg0p7.xyz,Nucleus 43C :,-0.634,-1.23327,-14.92549,45.9,-57.08,37.0,157.77,159.03,211.4,292.7,-309.7,-158.19,-57.56,-57.08,37.0,157.77,0,214.85,-0.12
KLaL_cation_pi_RCCE_opt_neg0p7.xyz,Nucleus 45C :,-0.61955,-1.72075,-14.04083,54.96,177.08,39.88,-52.09,287.85,244.07,217.51,-41.61,-204.33,-338.62,-52.09,39.88,177.08,0,229.17,-0.2
KLaL_cation_pi_RCCE_opt_neg0p7.xyz,Nucleus 47C :,-0.34639,0.74638,-16.01492,46.46,-55.61,37.44,157.56,186.43,298.86,238.22,-307.58,-197.46,-79.09,-55.61,37.44,157.56,0,213.17,-0.13
KLaL_cation_pi_RCCE_opt_neg0p7.xyz,Nucleus 49C :,-0.35573,1.75022,-16.04481,45.58,162.66,-28.04,2.12,230.49,260.49,299.79,-91.81,-258.37,-303.85,-28.04,2.12,162.66,0,190.7,-0.68
KLaL_cation_pi_RCCE_opt_neg0p7.xyz,Nucleus 50C :,-0.07021,0.25851,-16.85674,25.68,-70.95,25.67,122.32,127.26,255.15,295.43,-16.48,-237.85,-346.46,-70.95,25.67,122.32,0,193.27,-0.0
KLaL_cation_pi_RCCE_opt_neg0p7.xyz,Nucleus 51C :,-0.64706,0.08323,-14.92389,27.94,-63.23,106.02,41.03,142.29,297.7,287.16,-72.87,-226.67,-343.79,-63.23,41.03,106.02,0,169.25,0.23
KLaL_cation_pi_RCCE_opt_neg0p7.xyz,Nucleus 57C :,-0.16135,-1.70342,-15.68304,30.47,132.23,-26.59,-14.22,334.23,245.08,264.68,-116.76,-280.15,-355.67,-26.59,-14.22,132.23,0,158.82,-0.84
KLaL_cation_pi_RCCE_opt_neg0p7.xyz,Nucleus 52N :,-0.9608,0.73763,-13.83124,142.23,200.55,79.08,147.07,298.02,352.65,427.32,-108.77,-317.72,-224.8,79.08,147.07,200.55,0,121.47,0.12
KLaL_cation_pi_RCCE_opt_neg0p7.xyz,Nucleus 54N :,-0.9621,1.74135,-13.79599,173.81,120.95,188.48,212.0,218.29,326.57,409.85,-29.72,-164.86,-238.7,120.95,188.48,212.0,0,91.05,0.48
KLaL_cation_pi_RCCE_opt_neg0p7.xyz,Nucleus 59N :,-1.16151,0.24139,-12.97253,173.54,120.24,188.61,211.76,419.76,312.91,378.76,-229.9,-249.45,-111.49,120.24,188.61,211.76,0,91.52,0.49
KLaL_cation_pi_RCCE_opt_neg0p6.xyz,Nucleus 3H :,1.85056,-3.65399,-14.42354,27.57,34.69,24.77,23.25,-82.65,79.49,24.24,108.85,-49.45,2.22,23.25,24.77,34.69,0,11.44,-0.73
KLaL_cation_pi_RCCE_opt_neg0p6.xyz,Nucleus 4H :,-1.00867,-3.16908,-13.28325,26.87,23.17,27.48,29.97,-60.1,15.32,91.69,85.07,12.65,-64.01,23.17,27.48,29.97,0,6.8,0.27
KLaL_cation_pi_RCCE_opt_neg0p6.xyz,Nucleus 7H :,2.41198,-2.20461,-16.88088,24.29,29.39,23.2,20.28,-56.56,62.12,97.95,81.44,-37.1,-74.98,20.28,23.2,29.39,0,9.11,-0.36
KLaL_cation_pi_RCCE_opt_neg0p6.xyz,Nucleus 9H :,3.34765,-1.9455,-17.38756,24.76,20.65,26.47,27.17,8.56,86.27,67.56,17.36,-60.06,-45.4,20.65,26.47,27.17,0,6.52,0.79
KLaL_cation_pi_RCCE_opt_neg0p6.xyz,Nucleus 11H :,2.39691,-3.29532,-16.81784,24.19,29.36,20.19,23.03,142.46,57.61,28.98,-118.61,-4.97,-32.88,20.19,23.03,29.36,0,9.17,-0.38
KLaL_cation_pi_RCCE_opt_neg0p6.xyz,Nucleus 14H :,2.4252,-1.57784,-15.50033,26.24,22.87,29.44,26.41,15.14,96.74,62.17,-72.43,11.25,-34.15,22.87,26.41,29.44,0,6.57,0.08
KLaL_cation_pi_RCCE_opt_neg0p6.xyz,Nucleus 15H :,2.68791,-0.21348,-15.39687,27.78,34.97,25.05,23.32,137.62,35.95,57.78,-111.01,-2.82,-34.17,23.32,25.05,34.97,0,11.65,-0.7
KLaL_cation_pi_RCCE_opt_neg0p6.xyz,Nucleus 18H :,2.98968,0.34051,-16.28164,23.56,27.98,22.73,19.96,124.28,85.85,35.74,-102.33,-64.25,-8.64,19.96,22.73,27.98,0,8.02,-0.31
KLaL_cation_pi_RCCE_opt_neg0p6.xyz,Nucleus 20H :,2.57849,0.43438,-14.17723,24.05,20.22,26.09,25.85,35.14,85.18,103.01,-59.13,-82.56,-9.49,20.22,25.85,26.09,0,5.87,0.92
KLaL_cation_pi_RCCE_opt_neg0p6.xyz,Nucleus 22H :,2.82822,1.48929,-14.10622,23.85,23.22,19.94,28.38,118.75,24.61,68.45,-95.59,3.2,-47.88,19.94,23.22,28.38,0,8.44,-0.22
KLaL_cation_pi_RCCE_opt_neg0p6.xyz,Nucleus 29H :,2.14561,-0.24168,-13.06379,27.44,34.61,24.67,23.03,130.9,6.71,23.89,-102.75,24.2,-0.64,23.03,24.67,34.61,0,11.58,-0.72
KLaL_cation_pi_RCCE_opt_neg0p6.xyz,Nucleus 30H :,2.02109,0.28044,-12.11936,27.01,23.2,27.59,30.23,1.59,94.35,55.76,25.81,-68.72,-27.78,23.2,27.59,30.23,0,7.03,0.25
KLaL_cation_pi_RCCE_opt_neg0p6.xyz,Nucleus 33H :,1.85668,-1.6211,-13.12241,24.11,29.22,22.91,20.2,133.35,26.02,4.67,-109.19,-1.58,19.07,20.2,22.91,29.22,0,9.02,-0.4
KLaL_cation_pi_RCCE_opt_neg0p6.xyz,Nucleus 35H :,1.26442,-2.28521,-11.89554,24.52,20.33,26.15,27.07,88.21,-21.01,9.35,-62.14,45.38,13.75,20.33,26.15,27.07,0,6.74,0.73
KLaL_cation_pi_RCCE_opt_neg0p6.xyz,Nucleus 37H :,1.23472,-3.36627,-12.0504,24.18,29.37,20.23,22.93,-91.17,87.23,16.24,115.85,-63.69,8.08,20.23,22.93,29.37,0,9.14,-0.41
KLaL_cation_pi_RCCE_opt_neg0p6.xyz,Nucleus 40H :,1.91674,-2.09261,-11.03742,27.14,23.52,30.25,27.64,62.0,-74.42,-17.54,-33.13,98.06,46.44,23.52,27.64,30.25,0,6.73,0.22
KLaL_cation_pi_RCCE_opt_neg0p6.xyz,Nucleus 41H :,-0.11608,-1.76989,-11.58662,27.4,34.67,24.6,22.92,-119.67,58.38,-31.91,144.14,-24.53,55.77,22.92,24.6,34.67,0,11.75,-0.71
KLaL_cation_pi_RCCE_opt_neg0p6.xyz,Nucleus 44H :,-0.34726,-0.74504,-10.66249,23.7,28.22,22.92,19.96,62.61,-85.91,-33.34,-36.51,107.3,56.96,19.96,22.92,28.22,0,8.26,-0.28
KLaL_cation_pi_RCCE_opt_neg0p6.xyz,Nucleus 46H :,0.48968,-0.37756,-10.07614,24.0,20.15,26.04,25.8,70.3,-21.86,-71.83,-44.7,47.89,92.19,20.15,25.8,26.04,0,5.89,0.92
KLaL_cation_pi_RCCE_opt_neg0p6.xyz,Nucleus 48H :,-1.61623,-0.22215,-10.4753,23.66,28.13,22.97,19.89,67.09,-45.58,-5.57,-40.5,68.11,27.46,19.89,22.97,28.13,0,8.24,-0.25
KLaL_cation_pi_RCCE_opt_neg0p6.xyz,Nucleus 53H :,-1.78286,0.55559,-9.73755,26.24,35.29,25.81,17.61,105.22,46.66,-9.65,-70.28,-20.8,27.56,17.61,25.81,35.29,0,17.68,-0.07
KLaL_cation_pi_RCCE_opt_neg0p6.xyz,Nucleus 55H :,-2.67282,-0.71904,-11.20753,29.59,23.94,27.89,36.94,-20.91,29.58,99.13,45.82,-0.61,-64.23,23.94,27.89,36.94,0,13.0,-0.39
KLaL_cation_pi_RCCE_opt_neg0p6.xyz,Nucleus 56H :,-3.67284,-0.32653,-11.04041,31.36,43.79,24.32,25.97,-45.06,41.42,124.55,69.41,2.11,-98.36,24.32,25.97,43.79,0,19.47,-0.83
KLaL_cation_pi_RCCE_opt_neg0p6.xyz,Nucleus 58H :,-2.50759,-1.75085,-12.13052,26.79,35.02,27.04,18.32,38.71,57.22,138.64,-11.28,-22.78,-120.13,18.32,27.04,35.02,0,16.7,0.04
KLaL_cation_pi_RCCE_opt_neg0p6.xyz,Nucleus 60H :,-1.21105,-2.26606,-12.34584,29.58,23.92,27.89,36.92,103.15,75.6,22.97,-77.4,-46.13,10.52,23.92,27.89,36.92,0,13.0,-0.39
KLaL_cation_pi_RCCE_opt_neg0p6.xyz,Nucleus 61H :,2.06614,-2.26271,-14.33433,31.33,43.86,24.25,25.87,-6.95,134.99,100.26,-109.83,32.92,-57.42,24.25,25.87,43.86,0,19.61,-0.84
KLaL_cation_pi_RCCE_opt_neg0p6.xyz,Nucleus 62H :,-3.05617,-3.70143,-15.43508,26.15,37.32,19.08,22.04,26.94,46.89,62.69,-39.24,-13.65,-5.18,19.08,22.04,37.32,0,18.24,-0.68
KLaL_cation_pi_RCCE_opt_neg0p6.xyz,Nucleus 63H :,-0.20716,-3.15713,-16.57412,24.36,35.49,22.06,15.54,88.86,32.39,9.4,-54.85,-11.04,8.33,15.54,22.06,35.49,0,19.95,-0.35
KLaL_cation_pi_RCCE_opt_neg0p6.xyz,Nucleus 64H :,-3.64618,-2.26946,-12.97424,27.68,42.41,19.27,21.37,78.96,-22.95,10.53,-38.57,44.1,10.97,19.27,21.37,42.41,0,23.14,-0.82
KLaL_cation_pi_RCCE_opt_neg0p6.xyz,Nucleus 65H :,-4.58558,-2.02912,-12.46536,24.08,36.01,14.41,21.82,52.96,23.11,35.24,8.27,-35.25,-12.08,14.41,21.82,36.01,0,21.6,-0.31
KLaL_cation_pi_RCCE_opt_neg0p6.xyz,Nucleus 2C :,-3.63086,-3.36289,-13.04152,152.25,135.1,164.04,157.62,315.49,186.07,231.07,-163.28,-22.6,-89.99,135.1,157.62,164.04,0,28.94,0.56
KLaL_cation_pi_RCCE_opt_neg0p6.xyz,Nucleus 5C :,-3.67186,-1.63971,-14.35326,46.07,163.08,18.23,-43.09,308.63,263.47,274.69,-107.44,-284.9,-316.24,-43.09,18.23,163.08,0,206.17,-0.41
KLaL_cation_pi_RCCE_opt_neg0p6.xyz,Nucleus 6C :,-3.9616,-0.28059,-14.4534,43.8,165.81,-62.26,27.85,198.84,322.0,289.92,-54.8,-368.88,-255.68,-62.26,27.85,165.81,0,228.07,-0.21
KLaL_cation_pi_RCCE_opt_neg0p6.xyz,Nucleus 8C :,-4.26639,0.26235,-13.56389,53.7,177.41,-54.67,38.36,224.78,332.1,283.95,-73.26,-265.83,-340.64,-54.67,38.36,177.41,0,232.08,-0.2
KLaL_cation_pi_RCCE_opt_neg0p6.xyz,Nucleus 10C :,-3.86508,0.37227,-15.67146,42.0,166.37,25.33,-65.69,227.48,344.9,298.61,-111.41,-352.49,-281.07,-65.69,25.33,166.37,0,232.06,-0.22
KLaL_cation_pi_RCCE_opt_neg0p6.xyz,Nucleus 12C :,-4.13466,1.42199,-15.74103,45.31,164.71,-39.55,10.76,232.23,271.87,299.46,-76.68,-333.85,-257.1,-39.55,10.76,164.71,0,204.26,-0.51
KLaL_cation_pi_RCCE_opt_neg0p6.xyz,Nucleus 13C :,-3.41889,-0.29236,-16.78652,152.57,134.16,164.92,158.64,340.15,245.31,273.71,-175.61,-88.51,-137.32,134.16,158.64,164.92,0,30.76,0.59
KLaL_cation_pi_RCCE_opt_neg0p6.xyz,Nucleus 16C :,-3.30176,0.23385,-17.72915,42.18,162.11,-31.91,-3.65,320.98,238.7,262.63,-88.09,-351.22,-256.46,-31.91,-3.65,162.11,0,194.02,-0.71
KLaL_cation_pi_RCCE_opt_neg0p6.xyz,Nucleus 17C :,-3.10266,-1.66591,-16.73126,44.23,-59.83,35.24,157.29,344.07,283.5,258.43,-377.58,-250.12,-125.59,-59.83,35.24,157.29,0,217.12,-0.12
KLaL_cation_pi_RCCE_opt_neg0p6.xyz,Nucleus 19C :,-2.49736,-2.31516,-17.95972,56.26,176.74,42.63,-50.58,322.97,243.48,283.59,-105.6,-279.73,-295.92,-50.58,42.63,176.74,0,227.32,-0.18
KLaL_cation_pi_RCCE_opt_neg0p6.xyz,Nucleus 21C :,-2.47907,-3.407,-17.86462,48.73,-52.96,41.37,157.78,351.64,254.87,266.32,-379.33,-107.66,-239.64,-52.96,41.37,157.78,0,210.74,-0.1
KLaL_cation_pi_RCCE_opt_neg0p6.xyz,Nucleus 23C :,-3.14888,-2.11605,-18.81737,45.89,-35.52,16.11,157.09,322.17,261.84,272.99,-347.8,-256.0,-115.51,-35.52,16.11,157.09,0,192.61,-0.46
KLaL_cation_pi_RCCE_opt_neg0p6.xyz,Nucleus 24C :,-1.12737,-1.77181,-18.26735,24.4,122.06,21.04,-69.9,244.18,302.03,320.5,-180.37,-284.88,-328.26,-69.9,21.04,122.06,0,191.96,-0.05
KLaL_cation_pi_RCCE_opt_neg0p6.xyz,Nucleus 25C :,-0.91658,-0.74033,-19.18898,22.07,111.41,-63.2,18.0,212.6,289.69,257.95,-101.72,-331.75,-260.55,-63.2,18.0,111.41,0,174.61,-0.07
KLaL_cation_pi_RCCE_opt_neg0p6.xyz,Nucleus 28C :,-1.75776,-0.38293,-19.77633,153.09,135.37,164.87,159.03,327.82,205.82,267.65,-164.78,-66.17,-111.07,135.37,159.03,164.87,0,29.5,0.6
KLaL_cation_pi_RCCE_opt_neg0p6.xyz,Nucleus 31C :,0.34176,-0.19192,-19.37488,43.62,164.6,10.95,-44.68,197.15,285.62,241.51,-59.35,-231.23,-302.84,-44.68,10.95,164.6,0,209.28,-0.47
KLaL_cation_pi_RCCE_opt_neg0p6.xyz,Nucleus 32C :,0.49023,0.59144,-20.11041,42.2,166.25,-62.78,23.12,212.73,322.61,267.54,-116.4,-259.61,-300.28,-62.78,23.12,166.25,0,229.03,-0.25
KLaL_cation_pi_RCCE_opt_neg0p6.xyz,Nucleus 34C :,1.40802,-0.66952,-18.64383,49.58,178.67,-60.3,30.38,323.28,186.8,243.93,-50.74,-338.74,-215.78,-60.3,30.38,178.67,0,238.97,-0.24
KLaL_cation_pi_RCCE_opt_neg0p6.xyz,Nucleus 36C :,2.40209,-0.26185,-18.80495,42.85,166.85,23.85,-62.14,155.7,327.41,251.7,-39.04,-361.21,-206.0,-62.14,23.85,166.85,0,228.99,-0.25
KLaL_cation_pi_RCCE_opt_neg0p6.xyz,Nucleus 38C :,1.26331,-1.70665,-17.72336,44.58,164.3,-44.02,13.46,204.52,306.17,325.87,-116.93,-274.26,-311.62,-44.02,13.46,164.3,0,208.32,-0.45
KLaL_cation_pi_RCCE_opt_neg0p6.xyz,Nucleus 39C :,-0.02275,-2.248,-17.50932,153.99,136.36,166.08,159.54,149.09,272.88,205.12,14.04,-113.27,-65.88,136.36,159.54,166.08,0,29.72,0.56
KLaL_cation_pi_RCCE_opt_neg0p6.xyz,Nucleus 42C :,-3.29932,-2.31449,-15.5209,44.05,157.31,-37.6,12.45,175.53,244.53,279.61,-54.67,-262.86,-249.97,-37.6,12.45,157.31,0,194.91,-0.49
KLaL_cation_pi_RCCE_opt_neg0p6.xyz,Nucleus 43C :,-0.634,-1.13327,-14.92549,45.98,-57.08,37.3,157.71,157.92,210.32,292.21,-309.15,-156.68,-56.68,-57.08,37.3,157.71,0,214.79,-0.12
KLaL_cation_pi_RCCE_opt_neg0p6.xyz,Nucleus 45C :,-0.61955,-1.62075,-14.04083,55.47,177.03,40.92,-51.55,289.12,242.48,216.31,-40.39,-201.77,-339.33,-51.55,40.92,177.03,0,228.58,-0.19
KLaL_cation_pi_RCCE_opt_neg0p6.xyz,Nucleus 47C :,-0.34639,0.84638,-16.01492,46.54,-55.62,37.75,157.5,184.61,300.24,237.39,-308.59,-195.86,-78.17,-55.62,37.75,157.5,0,213.12,-0.12
KLaL_cation_pi_RCCE_opt_neg0p6.xyz,Nucleus 49C :,-0.35573,1.85022,-16.04481,45.81,162.49,-27.3,2.25,232.88,261.07,301.39,-92.63,-261.46,-303.8,-27.3,2.25,162.49,0,189.79,-0.69
KLaL_cation_pi_RCCE_opt_neg0p6.xyz,Nucleus 50C :,-0.07021,0.35851,-16.85674,25.37,-70.37,24.11,122.38,128.16,258.27,294.75,-17.47,-243.46,-344.14,-70.37,24.11,122.38,0,192.75,-0.02
KLaL_cation_pi_RCCE_opt_neg0p6.xyz,Nucleus 51C :,-0.64706,0.18323,-14.92389,28.08,-62.5,105.96,40.77,143.14,296.87,284.74,-73.35,-226.95,-340.21,-62.5,40.77,105.96,0,168.46,0.23
KLaL_cation_pi_RCCE_opt_neg0p6.xyz,Nucleus 57C :,-0.16135,-1.60342,-15.68304,30.44,132.2,-26.68,-14.21,333.58,243.77,266.37,-116.69,-280.53,-355.18,-26.68,-14.21,132.2,0,158.88,-0.84
KLaL_cation_pi_RCCE_opt_neg0p6.xyz,Nucleus 52N :,-0.9608,0.83763,-13.83124,145.87,83.2,199.79,154.63,297.91,352.56,427.56,-110.02,-313.37,-217.02,83.2,154.63,199.79,0,116.59,0.23
KLaL_cation_pi_RCCE_opt_neg0p6.xyz,Nucleus 54N :,-0.9621,1.84135,-13.79599,174.88,122.16,188.04,214.44,220.66,325.27,407.13,-32.71,-161.69,-234.02,122.16,188.04,214.44,0,92.28,0.43
KLaL_cation_pi_RCCE_opt_neg0p6.xyz,Nucleus 59N :,-1.16151,0.34139,-12.97253,174.62,121.44,188.11,214.31,417.04,313.45,378.76,-227.3,-248.61,-109.49,121.44,188.11,214.31,0,92.87,0.44
KLaL_cation_pi_RCCE_opt_neg0p5.xyz,Nucleus 3H :,1.85056,-3.65399,-14.42354,27.59,34.7,24.77,23.29,-82.54,79.49,24.7,108.77,-49.52,1.87,23.29,24.77,34.7,0,11.41,-0.74
KLaL_cation_pi_RCCE_opt_neg0p5.xyz,Nucleus 4H :,-1.00867,-3.16908,-13.28325,26.87,23.19,27.45,29.98,-59.94,15.64,90.42,84.88,12.35,-62.72,23.19,27.45,29.98,0,6.79,0.26
KLaL_cation_pi_RCCE_opt_neg0p5.xyz,Nucleus 7H :,2.41198,-2.20461,-16.88088,24.3,29.35,23.25,20.31,-56.74,62.73,97.87,81.66,-37.7,-74.9,20.31,23.25,29.35,0,9.04,-0.35
KLaL_cation_pi_RCCE_opt_neg0p5.xyz,Nucleus 9H :,3.34765,-1.9455,-17.38756,24.76,20.68,26.46,27.13,7.86,87.36,67.99,18.06,-61.12,-45.87,20.68,26.46,27.13,0,6.45,0.79
KLaL_cation_pi_RCCE_opt_neg0p5.xyz,Nucleus 11H :,2.39691,-3.29532,-16.81784,24.19,29.3,20.19,23.07,143.07,57.48,29.44,-119.2,-5.51,-32.72,20.19,23.07,29.3,0,9.11,-0.37
KLaL_cation_pi_RCCE_opt_neg0p5.xyz,Nucleus 14H :,2.4252,-1.57784,-15.50033,26.23,22.86,29.42,26.4,15.82,96.42,63.07,-72.2,10.56,-34.99,22.86,26.4,29.42,0,6.56,0.08
KLaL_cation_pi_RCCE_opt_neg0p5.xyz,Nucleus 15H :,2.68791,-0.21348,-15.39687,27.77,34.98,25.03,23.31,137.57,36.11,57.88,-110.98,-2.98,-34.29,23.31,25.03,34.98,0,11.67,-0.7
KLaL_cation_pi_RCCE_opt_neg0p5.xyz,Nucleus 18H :,2.98968,0.34051,-16.28164,23.56,27.99,22.73,19.97,124.28,85.62,35.8,-102.32,-64.0,-8.69,19.97,22.73,27.99,0,8.02,-0.31
KLaL_cation_pi_RCCE_opt_neg0p5.xyz,Nucleus 20H :,2.57849,0.43438,-14.17723,24.07,20.25,26.1,25.87,35.1,85.68,102.73,-59.62,-82.26,-9.42,20.25,25.87,26.1,0,5.85,0.92
KLaL_cation_pi_RCCE_opt_neg0p5.xyz,Nucleus 22H :,2.82822,1.48929,-14.10622,23.85,23.2,19.97,28.39,119.14,24.66,68.67,-95.98,3.15,-48.09,19.97,23.2,28.39,0,8.42,-0.23
KLaL_cation_pi_RCCE_opt_neg0p5.xyz,Nucleus 29H :,2.14561,-0.24168,-13.06379,27.43,34.61,24.66,23.03,131.34,6.82,24.14,-103.21,24.06,-0.84,23.03,24.66,34.61,0,11.58,-0.72
KLaL_cation_pi_RCCE_opt_neg0p5.xyz,Nucleus 30H :,2.02109,0.28044,-12.11936,26.99,23.19,27.59,30.2,2.03,94.17,56.99,25.39,-68.56,-29.03,23.19,27.59,30.2,0,7.01,0.26
KLaL_cation_pi_RCCE_opt_neg0p5.xyz,Nucleus 33H :,1.85668,-1.6211,-13.12241,24.11,29.15,22.96,20.22,133.75,25.36,4.79,-109.63,-0.85,18.9,20.22,22.96,29.15,0,8.93,-0.39
KLaL_cation_pi_RCCE_opt_neg0p5.xyz,Nucleus 35H :,1.26442,-2.28521,-11.89554,24.51,20.37,26.14,27.02,88.57,-21.8,8.74,-62.5,46.21,14.31,20.37,26.14,27.02,0,6.65,0.74
KLaL_cation_pi_RCCE_opt_neg0p5.xyz,Nucleus 37H :,1.23472,-3.36627,-12.0504,24.2,29.33,20.29,22.98,-92.1,86.45,15.98,116.8,-62.91,8.38,20.29,22.98,29.33,0,9.04,-0.4
KLaL_cation_pi_RCCE_opt_neg0p5.xyz,Nucleus 40H :,1.91674,-2.09261,-11.03742,27.15,23.55,30.27,27.63,61.46,-73.96,-18.62,-32.62,97.6,47.57,23.55,27.63,30.27,0,6.72,0.21
KLaL_cation_pi_RCCE_opt_neg0p5.xyz,Nucleus 41H :,-0.11608,-1.76989,-11.58662,27.41,34.68,24.61,22.95,-119.56,58.32,-32.86,144.06,-24.47,56.75,22.95,24.61,34.68,0,11.73,-0.72
KLaL_cation_pi_RCCE_opt_neg0p5.xyz,Nucleus 44H :,-0.34726,-0.74504,-10.66249,23.71,28.23,22.91,20.0,62.38,-85.71,-34.51,-36.3,107.16,58.13,20.0,22.91,28.23,0,8.23,-0.29
KLaL_cation_pi_RCCE_opt_neg0p5.xyz,Nucleus 46H :,0.48968,-0.37756,-10.07614,24.03,20.21,26.06,25.82,70.44,-22.89,-71.37,-44.81,48.94,91.78,20.21,25.82,26.06,0,5.85,0.92
KLaL_cation_pi_RCCE_opt_neg0p5.xyz,Nucleus 48H :,-1.61623,-0.22215,-10.4753,23.67,28.14,22.95,19.93,67.03,-45.81,-5.47,-40.44,68.39,27.32,19.93,22.95,28.14,0,8.21,-0.26
KLaL_cation_pi_RCCE_opt_neg0p5.xyz,Nucleus 53H :,-1.78286,0.55559,-9.73755,27.14,27.12,35.74,18.55,106.92,58.32,-6.42,-71.84,-31.03,25.45,18.55,27.12,35.74,0,17.19,-0.0
KLaL_cation_pi_RCCE_opt_neg0p5.xyz,Nucleus 55H :,-2.67282,-0.71904,-11.20753,29.44,23.68,27.58,37.05,-21.74,28.87,97.53,46.45,-0.18,-62.62,23.68,27.58,37.05,0,13.37,-0.42
KLaL_cation_pi_RCCE_opt_neg0p5.xyz,Nucleus 56H :,-3.67284,-0.32653,-11.04041,31.19,43.21,24.13,26.22,-49.01,41.04,120.55,73.19,1.86,-94.06,24.13,26.22,43.21,0,19.08,-0.78
KLaL_cation_pi_RCCE_opt_neg0p5.xyz,Nucleus 58H :,-2.50759,-1.75085,-12.13052,27.61,35.53,28.08,19.22,32.06,55.8,136.46,-4.01,-20.34,-117.14,19.22,28.08,35.53,0,16.31,0.09
KLaL_cation_pi_RCCE_opt_neg0p5.xyz,Nucleus 60H :,-1.21105,-2.26606,-12.34584,29.42,23.68,27.56,37.03,102.31,74.73,22.89,-76.63,-45.56,10.54,23.68,27.56,37.03,0,13.35,-0.42
KLaL_cation_pi_RCCE_opt_neg0p5.xyz,Nucleus 61H :,2.06614,-2.26271,-14.33433,31.16,43.26,24.1,26.11,-4.78,138.24,99.24,-113.3,31.02,-56.95,24.1,26.11,43.26,0,19.16,-0.79
KLaL_cation_pi_RCCE_opt_neg0p5.xyz,Nucleus 62H :,-3.05617,-3.70143,-15.43508,26.13,37.33,19.03,22.03,26.82,45.65,63.08,-38.76,-13.44,-4.97,19.03,22.03,37.33,0,18.3,-0.67
KLaL_cation_pi_RCCE_opt_neg0p5.xyz,Nucleus 63H :,-0.20716,-3.15713,-16.57412,24.4,35.59,22.04,15.58,89.11,32.38,9.13,-55.11,-11.07,8.77,15.58,22.04,35.59,0,20.01,-0.35
KLaL_cation_pi_RCCE_opt_neg0p5.xyz,Nucleus 64H :,-3.64618,-2.26946,-12.97424,27.72,42.42,19.33,21.4,78.93,-22.79,9.89,-38.56,44.01,11.67,19.33,21.4,42.42,0,23.09,-0.82
KLaL_cation_pi_RCCE_opt_neg0p5.xyz,Nucleus 65H :,-4.58558,-2.02912,-12.46536,24.11,36.12,14.41,21.8,51.91,23.25,34.89,7.69,-34.27,-11.14,14.41,21.8,36.12,0,21.71,-0.32
KLaL_cation_pi_RCCE_opt_neg0p5.xyz,Nucleus 2C :,-3.63086,-3.36289,-13.04152,152.23,135.12,163.91,157.65,314.14,183.93,231.29,-20.9,-162.03,-89.77,135.12,157.65,163.91,0,28.79,0.56
KLaL_cation_pi_RCCE_opt_neg0p5.xyz,Nucleus 5C :,-3.67186,-1.63971,-14.35326,45.71,163.02,17.45,-43.35,306.85,263.76,273.27,-106.7,-283.47,-316.59,-43.35,17.45,163.02,0,206.37,-0.41
KLaL_cation_pi_RCCE_opt_neg0p5.xyz,Nucleus 6C :,-3.9616,-0.28059,-14.4534,44.17,165.79,-61.72,28.43,198.69,324.36,289.48,-55.81,-369.54,-254.68,-61.72,28.43,165.79,0,227.51,-0.21
KLaL_cation_pi_RCCE_opt_neg0p5.xyz,Nucleus 8C :,-4.26639,0.26235,-13.56389,53.66,177.38,-54.98,38.59,223.5,333.49,284.26,-72.44,-266.09,-341.74,-54.98,38.59,177.38,0,232.36,-0.19
KLaL_cation_pi_RCCE_opt_neg0p5.xyz,Nucleus 10C :,-3.86508,0.37227,-15.67146,42.25,166.31,25.75,-65.31,225.56,346.52,299.97,-110.1,-353.2,-282.0,-65.31,25.75,166.31,0,231.62,-0.21
KLaL_cation_pi_RCCE_opt_neg0p5.xyz,Nucleus 12C :,-4.13466,1.42199,-15.74103,44.99,164.66,-39.77,10.09,233.68,272.33,302.79,-78.32,-334.72,-260.77,-39.77,10.09,164.66,0,204.43,-0.51
KLaL_cation_pi_RCCE_opt_neg0p5.xyz,Nucleus 13C :,-3.41889,-0.29236,-16.78652,152.59,134.23,164.89,158.65,341.44,245.7,275.54,-176.86,-89.15,-138.9,134.23,158.65,164.89,0,30.66,0.59
KLaL_cation_pi_RCCE_opt_neg0p5.xyz,Nucleus 16C :,-3.30176,0.23385,-17.72915,42.45,161.91,-31.29,-3.28,319.47,237.23,262.8,-87.97,-349.25,-254.93,-31.29,-3.28,161.91,0,193.2,-0.71
KLaL_cation_pi_RCCE_opt_neg0p5.xyz,Nucleus 17C :,-3.10266,-1.66591,-16.73126,44.31,-59.84,35.54,157.22,343.92,283.47,258.05,-377.35,-249.45,-125.7,-59.84,35.54,157.22,0,217.06,-0.12
KLaL_cation_pi_RCCE_opt_neg0p5.xyz,Nucleus 19C :,-2.49736,-2.31516,-17.95972,56.74,176.66,43.64,-50.07,323.81,242.7,284.06,-106.24,-279.55,-294.56,-50.07,43.64,176.66,0,226.73,-0.17
KLaL_cation_pi_RCCE_opt_neg0p5.xyz,Nucleus 21C :,-2.47907,-3.407,-17.86462,48.78,-53.0,41.66,157.69,352.62,254.56,266.25,-379.66,-107.79,-239.62,-53.0,41.66,157.69,0,210.69,-0.1
KLaL_cation_pi_RCCE_opt_neg0p5.xyz,Nucleus 23C :,-3.14888,-2.11605,-18.81737,46.1,-34.79,16.19,156.89,323.74,260.25,273.98,-348.24,-257.0,-114.45,-34.79,16.19,156.89,0,191.68,-0.47
KLaL_cation_pi_RCCE_opt_neg0p5.xyz,Nucleus 24C :,-1.12737,-1.77181,-18.26735,24.07,122.04,19.55,-69.39,244.21,299.18,317.39,-178.32,-282.52,-327.73,-69.39,19.55,122.04,0,191.43,-0.07
KLaL_cation_pi_RCCE_opt_neg0p5.xyz,Nucleus 25C :,-0.91658,-0.74033,-19.18898,22.14,111.34,-62.5,17.59,213.94,289.87,259.44,-103.12,-332.65,-261.05,-62.5,17.59,111.34,0,173.84,-0.08
KLaL_cation_pi_RCCE_opt_neg0p5.xyz,Nucleus 28C :,-1.75776,-0.38293,-19.77633,153.1,135.38,164.86,159.06,328.88,208.37,267.69,-165.9,-68.29,-111.45,135.38,159.06,164.86,0,29.48,0.61
KLaL_cation_pi_RCCE_opt_neg0p5.xyz,Nucleus 31C :,0.34176,-0.19192,-19.37488,43.29,164.52,10.41,-45.06,198.57,285.74,244.56,-61.26,-233.66,-304.07,-45.06,10.41,164.52,0,209.58,-0.47
KLaL_cation_pi_RCCE_opt_neg0p5.xyz,Nucleus 32C :,0.49023,0.59144,-20.11041,42.53,166.18,-62.27,23.69,210.21,323.16,268.56,-115.55,-259.97,-298.81,-62.27,23.69,166.18,0,228.45,-0.25
KLaL_cation_pi_RCCE_opt_neg0p5.xyz,Nucleus 34C :,1.40802,-0.66952,-18.64383,49.56,178.63,-60.67,30.71,324.19,185.19,243.61,-49.93,-339.61,-214.79,-60.67,30.71,178.63,0,239.3,-0.24
KLaL_cation_pi_RCCE_opt_neg0p5.xyz,Nucleus 36C :,2.40209,-0.26185,-18.80495,43.14,166.83,24.36,-61.78,153.88,326.88,250.92,-38.19,-358.79,-205.29,-61.78,24.36,166.83,0,228.61,-0.25
KLaL_cation_pi_RCCE_opt_neg0p5.xyz,Nucleus 38C :,1.26331,-1.70665,-17.72336,44.35,164.25,-44.19,12.99,206.78,304.22,320.44,-116.37,-274.31,-307.71,-44.19,12.99,164.25,0,208.44,-0.45
KLaL_cation_pi_RCCE_opt_neg0p5.xyz,Nucleus 39C :,-0.02275,-2.248,-17.50932,153.97,136.38,166.02,159.52,272.8,148.62,201.49,14.28,-113.18,-62.09,136.38,159.52,166.02,0,29.64,0.56
KLaL_cation_pi_RCCE_opt_neg0p5.xyz,Nucleus 42C :,-3.29932,-2.31449,-15.5209,44.3,157.17,-36.89,12.63,171.87,245.86,278.25,-54.08,-260.65,-248.35,-36.89,12.63,157.17,0,194.06,-0.49
KLaL_cation_pi_RCCE_opt_neg0p5.xyz,Nucleus 43C :,-0.634,-1.03327,-14.92549,46.06,-57.06,37.59,157.66,156.68,209.39,291.86,-308.7,-155.15,-55.89,-57.06,37.59,157.66,0,214.72,-0.12
KLaL_cation_pi_RCCE_opt_neg0p5.xyz,Nucleus 45C :,-0.61955,-1.52075,-14.04083,55.92,176.96,41.86,-51.05,240.43,215.12,290.84,-39.18,-198.86,-340.58,-51.05,41.86,176.96,0,228.01,-0.18
KLaL_cation_pi_RCCE_opt_neg0p5.xyz,Nucleus 47C :,-0.34639,0.94638,-16.01492,46.6,-55.65,38.02,157.43,183.02,301.69,236.23,-309.72,-194.46,-76.95,-55.65,38.02,157.43,0,213.08,-0.12
KLaL_cation_pi_RCCE_opt_neg0p5.xyz,Nucleus 49C :,-0.35573,1.95022,-16.04481,46.01,162.33,-26.7,2.39,234.03,261.35,303.25,-93.78,-262.74,-304.09,-26.7,2.39,162.33,0,189.03,-0.69
KLaL_cation_pi_RCCE_opt_neg0p5.xyz,Nucleus 50C :,-0.07021,0.45851,-16.85674,25.0,-70.04,22.68,122.37,129.36,260.53,293.71,-18.87,-247.86,-341.85,-70.04,22.68,122.37,0,192.41,-0.04
KLaL_cation_pi_RCCE_opt_neg0p5.xyz,Nucleus 51C :,-0.64706,0.28323,-14.92389,28.18,-61.84,105.88,40.49,143.93,296.41,282.13,-73.76,-227.18,-337.0,-61.84,40.49,105.88,0,167.72,0.22
KLaL_cation_pi_RCCE_opt_neg0p5.xyz,Nucleus 57C :,-0.16135,-1.50342,-15.68304,30.35,132.24,-27.05,-14.14,242.39,268.27,332.6,-116.43,-281.25,-354.53,-27.05,-14.14,132.24,0,159.29,-0.84
KLaL_cation_pi_RCCE_opt_neg0p5.xyz,Nucleus 52N :,-0.9608,0.93763,-13.83124,149.55,87.34,199.35,161.95,298.45,352.34,427.35,-111.61,-308.63,-209.25,87.34,161.95,199.35,0,112.01,0.33
KLaL_cation_pi_RCCE_opt_neg0p5.xyz,Nucleus 54N :,-0.9621,1.94135,-13.79599,175.68,123.12,187.39,216.54,222.65,324.18,404.4,-35.49,-159.08,-229.61,123.12,187.39,216.54,0,93.42,0.38
KLaL_cation_pi_RCCE_opt_neg0p5.xyz,Nucleus 59N :,-1.16151,0.44139,-12.97253,175.44,216.5,187.42,122.41,414.79,313.95,378.6,-225.37,-247.84,-107.81,122.41,187.42,216.5,0,94.09,0.38
KLaL_cation_pi_RCCE_opt_neg0p4.xyz,Nucleus 3H :,1.85056,-3.65399,-14.42354,27.6,34.7,24.77,23.32,-82.54,79.37,25.05,108.79,1.6,-49.48,23.32,24.77,34.7,0,11.38,-0.75
KLaL_cation_pi_RCCE_opt_neg0p4.xyz,Nucleus 4H :,-1.00867,-3.16908,-13.28325,26.87,23.19,27.44,29.98,-59.82,15.87,89.29,84.73,12.13,-61.59,23.19,27.44,29.98,0,6.79,0.25
KLaL_cation_pi_RCCE_opt_neg0p4.xyz,Nucleus 7H :,2.41198,-2.20461,-16.88088,24.31,29.29,23.29,20.34,-56.84,63.31,97.76,81.77,-38.28,-74.8,20.34,23.29,29.29,0,8.95,-0.34
KLaL_cation_pi_RCCE_opt_neg0p4.xyz,Nucleus 9H :,3.34765,-1.9455,-17.38756,24.76,20.73,26.45,27.09,7.17,88.49,68.38,18.75,-62.24,-46.29,20.73,26.45,27.09,0,6.36,0.8
KLaL_cation_pi_RCCE_opt_neg0p4.xyz,Nucleus 11H :,2.39691,-3.29532,-16.81784,24.19,29.25,20.21,23.11,143.6,57.38,29.87,-119.68,-6.01,-32.58,20.21,23.11,29.25,0,9.04,-0.36
KLaL_cation_pi_RCCE_opt_neg0p4.xyz,Nucleus 14H :,2.4252,-1.57784,-15.50033,26.22,22.86,29.42,26.38,16.39,96.05,63.87,-71.9,9.98,-35.72,22.86,26.38,29.42,0,6.56,0.07
KLaL_cation_pi_RCCE_opt_neg0p4.xyz,Nucleus 15H :,2.68791,-0.21348,-15.39687,27.78,34.98,25.04,23.33,137.46,36.27,58.04,-110.86,-3.14,-34.42,23.33,25.04,34.98,0,11.65,-0.71
KLaL_cation_pi_RCCE_opt_neg0p4.xyz,Nucleus 18H :,2.98968,0.34051,-16.28164,23.57,28.0,22.72,19.99,124.28,85.41,35.87,-102.31,-63.77,-8.77,19.99,22.72,28.0,0,8.01,-0.32
KLaL_cation_pi_RCCE_opt_neg0p4.xyz,Nucleus 20H :,2.57849,0.43438,-14.17723,24.1,20.29,26.12,25.89,35.07,86.2,102.51,-60.13,-82.0,-9.35,20.29,25.89,26.12,0,5.83,0.92
KLaL_cation_pi_RCCE_opt_neg0p4.xyz,Nucleus 22H :,2.82822,1.48929,-14.10622,23.86,23.19,20.0,28.4,119.5,24.7,68.98,-96.32,3.1,-48.36,20.0,23.19,28.4,0,8.4,-0.24
KLaL_cation_pi_RCCE_opt_neg0p4.xyz,Nucleus 29H :,2.14561,-0.24168,-13.06379,27.44,34.62,24.66,23.05,131.62,6.95,24.54,-103.49,23.89,-1.18,23.05,24.66,34.62,0,11.57,-0.72
KLaL_cation_pi_RCCE_opt_neg0p4.xyz,Nucleus 30H :,2.02109,0.28044,-12.11936,26.99,23.2,27.58,30.19,2.5,93.9,58.2,24.91,-68.31,-30.23,23.2,27.58,30.19,0,6.99,0.25
KLaL_cation_pi_RCCE_opt_neg0p4.xyz,Nucleus 33H :,1.85668,-1.6211,-13.12241,24.12,29.1,23.01,20.25,133.92,24.58,4.81,-109.8,0.01,18.83,20.25,23.01,29.1,0,8.85,-0.38
KLaL_cation_pi_RCCE_opt_neg0p4.xyz,Nucleus 35H :,1.26442,-2.28521,-11.89554,24.51,20.42,26.14,26.97,88.97,-22.7,8.16,-62.9,47.16,14.84,20.42,26.14,26.97,0,6.55,0.75
KLaL_cation_pi_RCCE_opt_neg0p4.xyz,Nucleus 37H :,1.23472,-3.36627,-12.0504,24.21,29.28,20.32,23.03,-92.84,85.79,15.83,117.55,-62.24,8.53,20.32,23.03,29.28,0,8.96,-0.4
KLaL_cation_pi_RCCE_opt_neg0p4.xyz,Nucleus 40H :,1.91674,-2.09261,-11.03742,27.14,23.55,30.26,27.62,61.0,-73.47,-19.58,-32.18,97.09,48.57,23.55,27.62,30.26,0,6.71,0.21
KLaL_cation_pi_RCCE_opt_neg0p4.xyz,Nucleus 41H :,-0.11608,-1.76989,-11.58662,27.42,34.68,24.61,22.96,-119.49,58.25,-33.86,143.99,-24.4,57.76,22.96,24.61,34.68,0,11.72,-0.72
KLaL_cation_pi_RCCE_opt_neg0p4.xyz,Nucleus 44H :,-0.34726,-0.74504,-10.66249,23.73,28.25,22.9,20.03,62.2,-85.48,-35.72,-36.14,106.98,59.32,20.03,22.9,28.25,0,8.22,-0.3
KLaL_cation_pi_RCCE_opt_neg0p4.xyz,Nucleus 46H :,0.48968,-0.37756,-10.07614,24.05,20.25,26.07,25.84,70.6,-24.01,-70.89,-44.93,50.07,91.32,20.25,25.84,26.07,0,5.82,0.92
KLaL_cation_pi_RCCE_opt_neg0p4.xyz,Nucleus 48H :,-1.61623,-0.22215,-10.4753,23.68,28.14,22.94,19.96,66.96,-46.01,-5.43,-40.35,68.63,27.25,19.96,22.94,28.14,0,8.18,-0.27
KLaL_cation_pi_RCCE_opt_neg0p4.xyz,Nucleus 53H :,-1.78286,0.55559,-9.73755,27.88,28.11,36.24,19.29,108.4,68.28,-3.74,-73.17,-39.82,23.68,19.29,28.11,36.24,0,16.95,0.04
KLaL_cation_pi_RCCE_opt_neg0p4.xyz,Nucleus 55H :,-2.67282,-0.71904,-11.20753,29.29,23.44,27.29,37.14,-22.56,28.26,95.92,47.1,0.17,-61.01,23.44,27.29,37.14,0,13.7,-0.44
KLaL_cation_pi_RCCE_opt_neg0p4.xyz,Nucleus 56H :,-3.67284,-0.32653,-11.04041,30.99,42.63,23.93,26.4,-52.1,40.62,116.83,76.08,1.64,-90.1,23.93,26.4,42.63,0,18.7,-0.74
KLaL_cation_pi_RCCE_opt_neg0p4.xyz,Nucleus 58H :,-2.50759,-1.75085,-12.13052,28.28,36.06,28.89,19.88,26.15,54.4,133.97,2.64,-18.34,-113.98,19.88,28.89,36.06,0,16.18,0.11
KLaL_cation_pi_RCCE_opt_neg0p4.xyz,Nucleus 60H :,-1.21105,-2.26606,-12.34584,29.28,23.45,27.27,37.13,101.44,73.81,22.81,-75.85,-44.92,10.54,23.45,27.27,37.13,0,13.68,-0.44
KLaL_cation_pi_RCCE_opt_neg0p4.xyz,Nucleus 61H :,2.06614,-2.26271,-14.33433,30.96,42.68,23.91,26.3,140.6,-2.84,98.23,-115.91,29.29,-56.49,23.91,26.3,42.68,0,18.77,-0.74
KLaL_cation_pi_RCCE_opt_neg0p4.xyz,Nucleus 62H :,-3.05617,-3.70143,-15.43508,26.1,37.33,18.96,22.02,26.51,44.47,63.62,-4.62,-13.18,-38.48,18.96,22.02,37.33,0,18.37,-0.67
KLaL_cation_pi_RCCE_opt_neg0p4.xyz,Nucleus 63H :,-0.20716,-3.15713,-16.57412,24.45,35.67,22.07,15.62,89.15,32.75,9.07,-55.18,-11.4,8.97,15.62,22.07,35.67,0,20.05,-0.36
KLaL_cation_pi_RCCE_opt_neg0p4.xyz,Nucleus 64H :,-3.64618,-2.26946,-12.97424,27.73,42.43,19.35,21.41,78.83,-22.53,9.38,-38.46,43.75,12.22,19.35,21.41,42.43,0,23.08,-0.82
KLaL_cation_pi_RCCE_opt_neg0p4.xyz,Nucleus 65H :,-4.58558,-2.02912,-12.46536,24.15,36.22,14.43,21.8,50.97,22.98,34.86,7.21,-33.3,-10.28,14.43,21.8,36.22,0,21.79,-0.32
KLaL_cation_pi_RCCE_opt_neg0p4.xyz,Nucleus 2C :,-3.63086,-3.36289,-13.04152,152.21,135.15,163.83,157.66,312.54,181.42,231.59,-18.77,-160.49,-89.66,135.15,157.66,163.83,0,28.68,0.57
KLaL_cation_pi_RCCE_opt_neg0p4.xyz,Nucleus 5C :,-3.67186,-1.63971,-14.35326,45.36,162.93,16.7,-43.55,304.89,263.14,272.82,-105.89,-281.98,-316.89,-43.55,16.7,162.93,0,206.48,-0.42
KLaL_cation_pi_RCCE_opt_neg0p4.xyz,Nucleus 6C :,-3.9616,-0.28059,-14.4534,44.53,165.74,-61.22,29.08,198.87,326.69,289.2,-57.22,-370.24,-253.7,-61.22,29.08,165.74,0,226.96,-0.2
KLaL_cation_pi_RCCE_opt_neg0p4.xyz,Nucleus 8C :,-4.26639,0.26235,-13.56389,53.7,177.36,-55.24,38.99,222.41,334.86,284.52,-71.74,-266.23,-342.7,-55.24,38.99,177.36,0,232.6,-0.19
KLaL_cation_pi_RCCE_opt_neg0p4.xyz,Nucleus 10C :,-3.86508,0.37227,-15.67146,42.52,166.28,26.25,-64.97,223.95,347.75,300.88,-108.71,-353.65,-282.67,-64.97,26.25,166.28,0,231.25,-0.21
KLaL_cation_pi_RCCE_opt_neg0p4.xyz,Nucleus 12C :,-4.13466,1.42199,-15.74103,44.7,164.6,-39.91,9.4,234.96,272.36,305.91,-79.67,-335.19,-264.28,-39.91,9.4,164.6,0,204.51,-0.52
KLaL_cation_pi_RCCE_opt_neg0p4.xyz,Nucleus 13C :,-3.41889,-0.29236,-16.78652,152.58,134.27,164.83,158.65,342.39,245.98,277.4,-177.83,-89.66,-140.53,134.27,158.65,164.83,0,30.56,0.6
KLaL_cation_pi_RCCE_opt_neg0p4.xyz,Nucleus 16C :,-3.30176,0.23385,-17.72915,42.7,161.75,-30.75,-2.89,318.59,235.91,262.79,-87.6,-347.96,-253.62,-30.75,-2.89,161.75,0,192.5,-0.71
KLaL_cation_pi_RCCE_opt_neg0p4.xyz,Nucleus 17C :,-3.10266,-1.66591,-16.73126,44.38,-59.83,35.82,157.16,343.77,283.39,257.72,-377.23,-248.75,-125.75,-59.83,35.82,157.16,0,216.99,-0.12
KLaL_cation_pi_RCCE_opt_neg0p4.xyz,Nucleus 19C :,-2.49736,-2.31516,-17.95972,57.19,176.6,44.56,-49.6,324.74,241.95,284.4,-106.78,-279.55,-293.21,-49.6,44.56,176.6,0,226.2,-0.17
KLaL_cation_pi_RCCE_opt_neg0p4.xyz,Nucleus 21C :,-2.47907,-3.407,-17.86462,48.85,-53.01,41.94,157.63,353.67,254.32,266.22,-379.96,-107.98,-239.72,-53.01,41.94,157.63,0,210.64,-0.1
KLaL_cation_pi_RCCE_opt_neg0p4.xyz,Nucleus 23C :,-3.14888,-2.11605,-18.81737,46.29,-34.16,16.32,156.72,326.01,258.58,275.59,-349.36,-258.6,-113.34,-34.16,16.32,156.72,0,190.88,-0.47
KLaL_cation_pi_RCCE_opt_neg0p4.xyz,Nucleus 24C :,-1.12737,-1.77181,-18.26735,23.74,122.02,18.24,-69.03,244.53,296.51,314.57,-175.89,-281.03,-327.48,-69.03,18.24,122.02,0,191.05,-0.09
KLaL_cation_pi_RCCE_opt_neg0p4.xyz,Nucleus 25C :,-0.91658,-0.74033,-19.18898,22.19,111.25,-61.84,17.15,215.24,289.83,261.13,-104.51,-333.59,-261.54,-61.84,17.15,111.25,0,173.09,-0.09
KLaL_cation_pi_RCCE_opt_neg0p4.xyz,Nucleus 28C :,-1.75776,-0.38293,-19.77633,153.08,135.37,164.84,159.03,329.74,210.68,267.99,-166.87,-70.19,-112.1,135.37,159.03,164.84,0,29.47,0.61
KLaL_cation_pi_RCCE_opt_neg0p4.xyz,Nucleus 31C :,0.34176,-0.19192,-19.37488,42.98,164.43,9.84,-45.32,200.17,285.71,247.57,-63.2,-235.94,-305.36,-45.32,9.84,164.43,0,209.75,-0.47
KLaL_cation_pi_RCCE_opt_neg0p4.xyz,Nucleus 32C :,0.49023,0.59144,-20.11041,42.87,166.13,-61.88,24.35,207.21,323.72,269.4,-114.27,-260.22,-297.24,-61.88,24.35,166.13,0,228.01,-0.24
KLaL_cation_pi_RCCE_opt_neg0p4.xyz,Nucleus 34C :,1.40802,-0.66952,-18.64383,49.61,178.6,-60.98,31.2,325.24,183.58,243.28,-49.1,-340.49,-213.68,-60.98,31.2,178.6,0,239.58,-0.23
KLaL_cation_pi_RCCE_opt_neg0p4.xyz,Nucleus 36C :,2.40209,-0.26185,-18.80495,43.39,166.79,24.91,-61.52,151.8,326.81,250.0,-37.42,-356.76,-204.24,-61.52,24.91,166.79,0,228.31,-0.24
KLaL_cation_pi_RCCE_opt_neg0p4.xyz,Nucleus 38C :,1.26331,-1.70665,-17.72336,44.15,164.17,-44.27,12.54,209.0,301.8,316.04,-115.55,-274.12,-304.73,-44.27,12.54,164.17,0,208.44,-0.45
KLaL_cation_pi_RCCE_opt_neg0p4.xyz,Nucleus 39C :,-0.02275,-2.248,-17.50932,153.96,136.4,165.99,159.5,272.72,147.9,198.47,14.67,-113.12,-58.75,136.4,159.5,165.99,0,29.59,0.56
KLaL_cation_pi_RCCE_opt_neg0p4.xyz,Nucleus 42C :,-3.29932,-2.31449,-15.5209,44.53,157.0,-36.26,12.86,168.56,246.25,277.12,-53.74,-258.97,-245.61,-36.26,12.86,157.0,0,193.26,-0.49
KLaL_cation_pi_RCCE_opt_neg0p4.xyz,Nucleus 43C :,-0.634,-0.93327,-14.92549,46.14,-57.05,37.87,157.6,155.36,208.56,291.68,-308.58,-153.51,-55.09,-57.05,37.87,157.6,0,214.65,-0.12
KLaL_cation_pi_RCCE_opt_neg0p4.xyz,Nucleus 45C :,-0.61955,-1.42075,-14.04083,56.34,176.9,42.74,-50.63,238.18,214.22,292.71,-38.23,-195.8,-342.06,-50.63,42.74,176.9,0,227.53,-0.18
KLaL_cation_pi_RCCE_opt_neg0p4.xyz,Nucleus 47C :,-0.34639,1.04638,-16.01492,46.65,-55.69,38.28,157.37,181.63,303.04,235.06,-310.77,-193.31,-75.7,-55.69,38.28,157.37,0,213.06,-0.12
KLaL_cation_pi_RCCE_opt_neg0p4.xyz,Nucleus 49C :,-0.35573,2.05022,-16.04481,46.19,162.19,-26.17,2.54,234.17,261.33,305.01,-95.15,-262.28,-304.53,-26.17,2.54,162.19,0,188.36,-0.7
KLaL_cation_pi_RCCE_opt_neg0p4.xyz,Nucleus 50C :,-0.07021,0.55851,-16.85674,24.7,-69.71,21.46,122.36,130.89,261.93,292.26,-20.56,-250.8,-339.61,-69.71,21.46,122.36,0,192.07,-0.05
KLaL_cation_pi_RCCE_opt_neg0p4.xyz,Nucleus 51C :,-0.64706,0.38323,-14.92389,28.28,-61.16,105.79,40.2,144.71,296.22,279.83,-74.32,-227.42,-334.19,-61.16,40.2,105.79,0,166.95,0.21
KLaL_cation_pi_RCCE_opt_neg0p4.xyz,Nucleus 57C :,-0.16135,-1.40342,-15.68304,30.23,132.3,-27.55,-14.05,241.07,270.07,331.32,-115.99,-282.11,-353.65,-27.55,-14.05,132.3,0,159.85,-0.83
KLaL_cation_pi_RCCE_opt_neg0p4.xyz,Nucleus 52N :,-0.9608,1.03763,-13.83124,153.08,91.12,199.08,169.04,299.35,351.96,426.53,-303.69,-113.19,-201.73,91.12,169.04,199.08,0,107.96,0.44
KLaL_cation_pi_RCCE_opt_neg0p4.xyz,Nucleus 54N :,-0.9621,2.04135,-13.79599,176.31,123.89,186.66,218.37,223.92,323.35,401.73,-37.62,-156.93,-225.54,123.89,186.66,218.37,0,94.48,0.33
KLaL_cation_pi_RCCE_opt_neg0p4.xyz,Nucleus 59N :,-1.16151,0.54139,-12.97253,176.07,218.38,186.65,123.17,413.18,314.5,378.2,-224.18,-247.07,-106.42,123.17,186.65,218.38,0,95.21,0.33
KLaL_cation_pi_RCCE_opt_neg0p3.xyz,Nucleus 3H :,1.85056,-3.65399,-14.42354,27.6,34.7,24.77,23.34,-82.61,79.16,25.31,108.87,1.4,-49.34,23.34,24.77,34.7,0,11.36,-0.75
KLaL_cation_pi_RCCE_opt_neg0p3.xyz,Nucleus 4H :,-1.00867,-3.16908,-13.28325,26.86,23.2,27.42,29.97,-59.69,16.02,88.31,84.57,11.99,-60.6,23.2,27.42,29.97,0,6.77,0.25
KLaL_cation_pi_RCCE_opt_neg0p3.xyz,Nucleus 7H :,2.41198,-2.20461,-16.88088,24.31,29.24,23.33,20.36,-56.83,63.81,97.67,81.76,-38.77,-74.71,20.36,23.33,29.24,0,8.88,-0.33
KLaL_cation_pi_RCCE_opt_neg0p3.xyz,Nucleus 9H :,3.34765,-1.9455,-17.38756,24.76,20.78,26.45,27.04,6.52,89.6,68.76,19.4,-63.34,-46.67,20.78,26.45,27.04,0,6.26,0.81
KLaL_cation_pi_RCCE_opt_neg0p3.xyz,Nucleus 11H :,2.39691,-3.29532,-16.81784,24.2,29.21,20.24,23.15,144.05,57.26,30.28,-120.08,-6.49,-32.43,20.24,23.15,29.21,0,8.97,-0.35
KLaL_cation_pi_RCCE_opt_neg0p3.xyz,Nucleus 14H :,2.4252,-1.57784,-15.50033,26.22,22.87,29.43,26.36,16.83,95.6,64.5,-71.49,9.51,-36.29,22.87,26.36,29.43,0,6.56,0.06
KLaL_cation_pi_RCCE_opt_neg0p3.xyz,Nucleus 15H :,2.68791,-0.21348,-15.39687,27.8,34.98,25.05,23.36,137.27,36.41,58.17,-110.65,-3.29,-34.53,23.36,25.05,34.98,0,11.62,-0.71
KLaL_cation_pi_RCCE_opt_neg0p3.xyz,Nucleus 18H :,2.98968,0.34051,-16.28164,23.59,28.01,22.72,20.03,124.32,85.23,35.96,-102.33,-63.57,-8.86,20.03,22.72,28.01,0,7.98,-0.33
KLaL_cation_pi_RCCE_opt_neg0p3.xyz,Nucleus 20H :,2.57849,0.43438,-14.17723,24.12,20.33,26.14,25.9,35.05,86.72,102.28,-60.65,-81.72,-9.3,20.33,25.9,26.14,0,5.81,0.92
KLaL_cation_pi_RCCE_opt_neg0p3.xyz,Nucleus 22H :,2.82822,1.48929,-14.10622,23.88,23.18,20.04,28.41,119.82,24.74,69.3,-96.63,3.05,-48.65,20.04,23.18,28.41,0,8.37,-0.25
KLaL_cation_pi_RCCE_opt_neg0p3.xyz,Nucleus 29H :,2.14561,-0.24168,-13.06379,27.45,34.61,24.67,23.07,131.68,7.12,25.02,-103.55,23.67,-1.61,23.07,24.67,34.61,0,11.54,-0.72
KLaL_cation_pi_RCCE_opt_neg0p3.xyz,Nucleus 30H :,2.02109,0.28044,-12.11936,26.99,23.21,27.57,30.19,2.98,93.52,59.36,24.44,-67.96,-31.37,23.21,27.57,30.19,0,6.98,0.25
KLaL_cation_pi_RCCE_opt_neg0p3.xyz,Nucleus 33H :,1.85668,-1.6211,-13.12241,24.13,29.05,23.05,20.28,133.91,23.6,4.76,-109.77,1.04,18.85,20.28,23.05,29.05,0,8.77,-0.37
KLaL_cation_pi_RCCE_opt_neg0p3.xyz,Nucleus 35H :,1.26442,-2.28521,-11.89554,24.51,20.47,26.14,26.92,89.39,-23.62,7.63,-63.32,48.15,15.3,20.47,26.14,26.92,0,6.45,0.76
KLaL_cation_pi_RCCE_opt_neg0p3.xyz,Nucleus 37H :,1.23472,-3.36627,-12.0504,24.21,29.23,20.34,23.06,-93.31,85.25,15.78,118.04,-61.7,8.56,20.34,23.06,29.23,0,8.89,-0.39
KLaL_cation_pi_RCCE_opt_neg0p3.xyz,Nucleus 40H :,1.91674,-2.09261,-11.03742,27.14,23.55,30.25,27.61,60.63,-73.05,-20.41,-31.83,96.64,49.43,23.55,27.61,30.25,0,6.7,0.21
KLaL_cation_pi_RCCE_opt_neg0p3.xyz,Nucleus 41H :,-0.11608,-1.76989,-11.58662,27.42,34.67,24.6,22.98,-119.4,58.17,-34.87,143.91,-24.33,58.77,22.98,24.6,34.67,0,11.69,-0.72
KLaL_cation_pi_RCCE_opt_neg0p3.xyz,Nucleus 44H :,-0.34726,-0.74504,-10.66249,23.73,28.26,22.89,20.05,62.05,-85.3,-36.88,-36.01,106.85,60.48,20.05,22.89,28.26,0,8.21,-0.31
KLaL_cation_pi_RCCE_opt_neg0p3.xyz,Nucleus 46H :,0.48968,-0.37756,-10.07614,24.07,20.28,26.09,25.85,70.75,-25.15,-70.39,-45.06,51.22,90.84,20.28,25.85,26.09,0,5.81,0.92
KLaL_cation_pi_RCCE_opt_neg0p3.xyz,Nucleus 48H :,-1.61623,-0.22215,-10.4753,23.69,22.93,19.99,28.15,66.88,-46.22,-5.39,-40.26,68.88,27.19,19.99,22.93,28.15,0,8.16,-0.28
KLaL_cation_pi_RCCE_opt_neg0p3.xyz,Nucleus 53H :,-1.78286,0.55559,-9.73755,28.48,28.85,19.86,36.74,109.5,76.14,-1.52,-74.15,-46.68,22.15,19.86,28.85,36.74,0,16.88,0.07
KLaL_cation_pi_RCCE_opt_neg0p3.xyz,Nucleus 55H :,-2.67282,-0.71904,-11.20753,29.15,23.21,27.02,37.22,-23.4,27.77,94.33,47.75,0.41,-59.41,23.21,27.02,37.22,0,14.01,-0.46
KLaL_cation_pi_RCCE_opt_neg0p3.xyz,Nucleus 56H :,-3.67284,-0.32653,-11.04041,30.77,42.06,23.7,26.55,-54.37,40.28,113.36,78.13,1.37,-86.44,23.7,26.55,42.06,0,18.36,-0.69
KLaL_cation_pi_RCCE_opt_neg0p3.xyz,Nucleus 58H :,-2.50759,-1.75085,-12.13052,28.82,36.58,29.49,20.39,21.5,53.15,131.49,7.93,-16.66,-110.94,20.39,29.49,36.58,0,16.19,0.12
KLaL_cation_pi_RCCE_opt_neg0p3.xyz,Nucleus 60H :,-1.21105,-2.26606,-12.34584,29.14,23.22,27.0,37.21,100.63,72.84,22.77,-75.11,-44.2,10.5,23.22,27.0,37.21,0,13.99,-0.46
KLaL_cation_pi_RCCE_opt_neg0p3.xyz,Nucleus 61H :,2.06614,-2.26271,-14.33433,30.75,42.11,23.69,26.44,142.15,-1.06,97.19,-117.73,27.69,-55.99,23.69,26.44,42.11,0,18.42,-0.7
KLaL_cation_pi_RCCE_opt_neg0p3.xyz,Nucleus 62H :,-3.05617,-3.70143,-15.43508,26.08,37.33,18.89,22.01,26.05,43.42,64.23,-4.21,-12.85,-38.39,18.89,22.01,37.33,0,18.44,-0.66
KLaL_cation_pi_RCCE_opt_neg0p3.xyz,Nucleus 63H :,-0.20716,-3.15713,-16.57412,24.5,35.73,22.1,15.66,88.89,33.46,9.19,-54.96,-12.05,8.95,15.66,22.1,35.73,0,20.07,-0.36
KLaL_cation_pi_RCCE_opt_neg0p3.xyz,Nucleus 64H :,-3.64618,-2.26946,-12.97424,27.74,42.43,19.37,21.42,78.65,-22.2,8.98,-38.29,43.42,12.66,19.37,21.42,42.43,0,23.06,-0.82
KLaL_cation_pi_RCCE_opt_neg0p3.xyz,Nucleus 65H :,-4.58558,-2.02912,-12.46536,24.18,36.28,14.45,21.81,50.35,22.36,35.25,6.85,-32.56,-9.71,14.45,21.81,36.28,0,21.83,-0.33
KLaL_cation_pi_RCCE_opt_neg0p3.xyz,Nucleus 2C :,-3.63086,-3.36289,-13.04152,152.2,135.17,163.77,157.66,310.8,178.84,231.81,-16.56,-158.79,-89.5,135.17,157.66,163.77,0,28.6,0.57
KLaL_cation_pi_RCCE_opt_neg0p3.xyz,Nucleus 5C :,-3.67186,-1.63971,-14.35326,45.01,162.82,15.89,-43.69,302.94,262.04,273.31,-105.39,-280.73,-317.14,-43.69,15.89,162.82,0,206.51,-0.42
KLaL_cation_pi_RCCE_opt_neg0p3.xyz,Nucleus 6C :,-3.9616,-0.28059,-14.4534,44.9,165.69,-60.78,29.78,199.65,328.61,289.22,-59.09,-370.83,-252.87,-60.78,29.78,165.69,0,226.47,-0.2
KLaL_cation_pi_RCCE_opt_neg0p3.xyz,Nucleus 8C :,-4.26639,0.26235,-13.56389,53.8,177.35,-55.5,39.56,221.47,336.09,284.79,-71.13,-266.25,-343.57,-55.5,39.56,177.35,0,232.85,-0.18
KLaL_cation_pi_RCCE_opt_neg0p3.xyz,Nucleus 10C :,-3.86508,0.37227,-15.67146,42.78,166.25,26.79,-64.69,222.75,348.62,301.29,-107.41,-353.86,-283.05,-64.69,26.79,166.25,0,230.94,-0.21
KLaL_cation_pi_RCCE_opt_neg0p3.xyz,Nucleus 12C :,-4.13466,1.42199,-15.74103,44.4,164.51,-39.99,8.67,235.75,272.13,308.58,-80.52,-335.24,-267.51,-39.99,8.67,164.51,0,204.5,-0.52
KLaL_cation_pi_RCCE_opt_neg0p3.xyz,Nucleus 13C :,-3.41889,-0.29236,-16.78652,152.57,134.31,164.76,158.65,342.97,246.12,279.09,-178.45,-89.98,-142.03,134.31,158.65,164.76,0,30.45,0.6
KLaL_cation_pi_RCCE_opt_neg0p3.xyz,Nucleus 16C :,-3.30176,0.23385,-17.72915,42.94,161.61,-30.29,-2.51,318.31,234.86,262.65,-87.17,-347.32,-252.52,-30.29,-2.51,161.61,0,191.9,-0.71
KLaL_cation_pi_RCCE_opt_neg0p3.xyz,Nucleus 17C :,-3.10266,-1.66591,-16.73126,44.46,-59.81,36.09,157.11,343.66,283.3,257.46,-377.27,-248.01,-125.75,-59.81,36.09,157.11,0,216.92,-0.12
KLaL_cation_pi_RCCE_opt_neg0p3.xyz,Nucleus 19C :,-2.49736,-2.31516,-17.95972,57.59,176.54,45.42,-49.2,325.75,241.2,284.62,-107.22,-279.67,-291.92,-49.2,45.42,176.54,0,225.74,-0.16
KLaL_cation_pi_RCCE_opt_neg0p3.xyz,Nucleus 21C :,-2.47907,-3.407,-17.86462,48.91,-53.04,42.2,157.57,354.79,254.07,266.24,-380.33,-108.1,-239.93,-53.04,42.2,157.57,0,210.61,-0.1
KLaL_cation_pi_RCCE_opt_neg0p3.xyz,Nucleus 23C :,-3.14888,-2.11605,-18.81737,46.47,-33.61,16.46,156.56,328.68,277.63,256.9,-350.92,-260.67,-112.2,-33.61,16.46,156.56,0,190.17,-0.47
KLaL_cation_pi_RCCE_opt_neg0p3.xyz,Nucleus 24C :,-1.12737,-1.77181,-18.26735,23.41,121.97,17.07,-68.81,245.07,294.19,311.97,-173.28,-280.44,-327.27,-68.81,17.07,121.97,0,190.78,-0.1
KLaL_cation_pi_RCCE_opt_neg0p3.xyz,Nucleus 25C :,-0.91658,-0.74033,-19.18898,22.19,111.15,-61.28,16.69,216.45,289.65,262.87,-105.84,-334.57,-261.99,-61.28,16.69,111.15,0,172.43,-0.1
KLaL_cation_pi_RCCE_opt_neg0p3.xyz,Nucleus 28C :,-1.75776,-0.38293,-19.77633,153.06,135.36,164.81,159.0,330.26,212.51,268.52,-167.51,-71.67,-112.94,135.36,159.0,164.81,0,29.45,0.61
KLaL_cation_pi_RCCE_opt_neg0p3.xyz,Nucleus 31C :,0.34176,-0.19192,-19.37488,42.68,164.32,9.23,-45.5,202.04,285.46,250.57,-65.08,-238.21,-306.74,-45.5,9.23,164.32,0,209.82,-0.48
KLaL_cation_pi_RCCE_opt_neg0p3.xyz,Nucleus 32C :,0.49023,0.59144,-20.11041,43.17,166.08,-61.6,25.02,203.73,324.35,270.08,-112.61,-260.37,-295.68,-61.6,25.02,166.08,0,227.68,-0.24
KLaL_cation_pi_RCCE_opt_neg0p3.xyz,Nucleus 34C :,1.40802,-0.66952,-18.64383,49.71,178.57,-61.27,31.82,326.13,181.97,243.1,-48.28,-341.24,-212.55,-61.27,31.82,178.57,0,239.84,-0.22
KLaL_cation_pi_RCCE_opt_neg0p3.xyz,Nucleus 36C :,2.40209,-0.26185,-18.80495,43.62,166.74,25.46,-61.35,149.86,327.14,248.85,-36.95,-355.25,-202.8,-61.35,25.46,166.74,0,228.09,-0.24
KLaL_cation_pi_RCCE_opt_neg0p3.xyz,Nucleus 38C :,1.26331,-1.70665,-17.72336,43.93,164.07,-44.3,12.02,211.11,298.94,312.73,-114.66,-273.58,-302.75,-44.3,12.02,164.07,0,208.37,-0.46
KLaL_cation_pi_RCCE_opt_neg0p3.xyz,Nucleus 39C :,-0.02275,-2.248,-17.50932,153.95,136.42,165.98,159.46,272.67,146.91,195.94,15.18,-113.09,-55.75,136.42,159.46,165.98,0,29.56,0.56
KLaL_cation_pi_RCCE_opt_neg0p3.xyz,Nucleus 42C :,-3.29932,-2.31449,-15.5209,44.74,156.85,-35.72,13.09,165.67,245.62,276.26,-53.46,-257.15,-242.7,-35.72,13.09,156.85,0,192.57,-0.49
KLaL_cation_pi_RCCE_opt_neg0p3.xyz,Nucleus 43C :,-0.634,-0.83327,-14.92549,46.22,-57.03,38.14,157.55,154.01,207.97,291.52,-308.52,-151.89,-54.43,-57.03,38.14,157.55,0,214.58,-0.11
KLaL_cation_pi_RCCE_opt_neg0p3.xyz,Nucleus 45C :,-0.61955,-1.32075,-14.04083,56.7,176.84,43.54,-50.27,294.68,235.88,213.54,-37.51,-192.75,-343.71,-50.27,43.54,176.84,0,227.11,-0.17
KLaL_cation_pi_RCCE_opt_neg0p3.xyz,Nucleus 47C :,-0.34639,1.14638,-16.01492,46.69,-55.74,38.5,157.32,180.51,304.22,233.92,-311.51,-192.51,-74.57,-55.74,38.5,157.32,0,213.06,-0.12
KLaL_cation_pi_RCCE_opt_neg0p3.xyz,Nucleus 49C :,-0.35573,2.15022,-16.04481,46.33,162.05,-25.74,2.68,233.26,261.05,306.82,-96.51,-260.32,-305.3,-25.74,2.68,162.05,0,187.79,-0.7
KLaL_cation_pi_RCCE_opt_neg0p3.xyz,Nucleus 50C :,-0.07021,0.65851,-16.85674,24.4,-69.5,20.37,122.32,132.86,262.82,290.52,-22.61,-252.36,-338.03,-69.5,20.37,122.32,0,191.82,-0.06
KLaL_cation_pi_RCCE_opt_neg0p3.xyz,Nucleus 51C :,-0.64706,0.48323,-14.92389,28.35,-60.55,105.7,39.9,145.7,296.14,277.7,-75.07,-227.57,-331.85,-60.55,39.9,105.7,0,166.25,0.21
KLaL_cation_pi_RCCE_opt_neg0p3.xyz,Nucleus 57C :,-0.16135,-1.30342,-15.68304,30.09,132.34,-28.12,-13.95,239.97,271.72,329.82,-115.57,-283.08,-352.6,-28.12,-13.95,132.34,0,160.46,-0.82
KLaL_cation_pi_RCCE_opt_neg0p3.xyz,Nucleus 52N :,-0.9608,1.13763,-13.83124,156.46,94.53,198.96,175.9,300.36,351.55,425.2,-298.61,-114.49,-194.61,94.53,175.9,198.96,0,104.43,0.56
KLaL_cation_pi_RCCE_opt_neg0p3.xyz,Nucleus 54N :,-0.9621,2.14135,-13.79599,176.77,124.45,185.91,219.95,224.47,322.82,399.19,-39.01,-221.98,-155.19,124.45,185.91,219.95,0,95.5,0.29
KLaL_cation_pi_RCCE_opt_neg0p3.xyz,Nucleus 59N :,-1.16151,0.64139,-12.97253,176.53,219.98,185.88,123.72,315.13,412.2,377.56,-223.68,-246.32,-105.31,123.72,185.88,219.98,0,96.26,0.29
KLaL_cation_pi_RCCE_opt_neg0p2.xyz,Nucleus 3H :,1.85056,-3.65399,-14.42354,27.61,34.69,24.77,23.37,-82.63,78.93,25.48,108.91,1.28,-49.14,23.37,24.77,34.69,0,11.32,-0.75
KLaL_cation_pi_RCCE_opt_neg0p2.xyz,Nucleus 4H :,-1.00867,-3.16908,-13.28325,26.86,23.21,27.4,29.97,-59.44,16.11,87.47,84.3,11.9,-59.77,23.21,27.4,29.97,0,6.76,0.24
KLaL_cation_pi_RCCE_opt_neg0p2.xyz,Nucleus 7H :,2.41198,-2.20461,-16.88088,24.32,29.19,23.37,20.39,-56.67,64.22,97.59,81.61,-39.17,-74.63,20.39,23.37,29.19,0,8.8,-0.32
KLaL_cation_pi_RCCE_opt_neg0p2.xyz,Nucleus 9H :,3.34765,-1.9455,-17.38756,24.75,20.83,26.43,27.0,5.94,90.65,69.1,19.98,-64.39,-47.01,20.83,26.43,27.0,0,6.17,0.82
KLaL_cation_pi_RCCE_opt_neg0p2.xyz,Nucleus 11H :,2.39691,-3.29532,-16.81784,24.2,29.18,20.26,23.17,144.25,57.19,30.68,-120.22,-6.95,-32.32,20.26,23.17,29.18,0,8.92,-0.35
KLaL_cation_pi_RCCE_opt_neg0p2.xyz,Nucleus 14H :,2.4252,-1.57784,-15.50033,26.22,22.89,29.44,26.34,17.15,95.09,64.96,-71.01,9.17,-36.69,22.89,26.34,29.44,0,6.55,0.05
KLaL_cation_pi_RCCE_opt_neg0p2.xyz,Nucleus 15H :,2.68791,-0.21348,-15.39687,27.8,34.97,25.06,23.38,136.97,36.54,58.32,-110.34,-3.42,-34.65,23.38,25.06,34.97,0,11.59,-0.71
KLaL_cation_pi_RCCE_opt_neg0p2.xyz,Nucleus 18H :,2.98968,0.34051,-16.28164,23.6,28.02,22.72,20.06,124.35,85.1,36.06,-102.34,-63.4,-8.97,20.06,22.72,28.02,0,7.96,-0.33
KLaL_cation_pi_RCCE_opt_neg0p2.xyz,Nucleus 20H :,2.57849,0.43438,-14.17723,24.15,20.37,26.16,25.91,35.05,87.21,102.08,-61.15,-81.46,-9.29,20.37,25.91,26.16,0,5.79,0.91
KLaL_cation_pi_RCCE_opt_neg0p2.xyz,Nucleus 22H :,2.82822,1.48929,-14.10622,23.89,23.18,20.07,28.42,120.1,24.77,69.59,-96.89,3.0,-48.9,20.07,23.18,28.42,0,8.35,-0.26
KLaL_cation_pi_RCCE_opt_neg0p2.xyz,Nucleus 29H :,2.14561,-0.24168,-13.06379,27.45,34.6,24.67,23.09,131.52,7.34,25.49,-103.38,23.43,-2.03,23.09,24.67,34.6,0,11.51,-0.72
KLaL_cation_pi_RCCE_opt_neg0p2.xyz,Nucleus 30H :,2.02109,0.28044,-12.11936,26.99,23.22,27.56,30.18,3.44,93.07,60.32,23.98,-67.54,-32.3,23.22,27.56,30.18,0,6.96,0.25
KLaL_cation_pi_RCCE_opt_neg0p2.xyz,Nucleus 33H :,1.85668,-1.6211,-13.12241,24.13,29.01,23.07,20.31,133.83,22.56,4.66,-109.68,2.12,18.91,20.31,23.07,29.01,0,8.7,-0.37
KLaL_cation_pi_RCCE_opt_neg0p2.xyz,Nucleus 35H :,1.26442,-2.28521,-11.89554,24.51,20.53,26.14,26.87,89.81,-24.52,7.16,-63.74,49.12,15.71,20.53,26.14,26.87,0,6.34,0.77
KLaL_cation_pi_RCCE_opt_neg0p2.xyz,Nucleus 37H :,1.23472,-3.36627,-12.0504,24.21,29.18,20.36,23.09,-93.48,84.84,15.81,118.25,-61.29,8.5,20.36,23.09,29.18,0,8.82,-0.38
KLaL_cation_pi_RCCE_opt_neg0p2.xyz,Nucleus 40H :,1.91674,-2.09261,-11.03742,27.13,23.55,30.24,27.6,60.36,-72.69,-21.0,-31.59,96.26,50.05,23.55,27.6,30.24,0,6.69,0.21
KLaL_cation_pi_RCCE_opt_neg0p2.xyz,Nucleus 41H :,-0.11608,-1.76989,-11.58662,27.42,34.66,24.61,23.0,-119.24,58.12,-35.78,143.74,-24.28,59.71,23.0,24.61,34.66,0,11.66,-0.72
KLaL_cation_pi_RCCE_opt_neg0p2.xyz,Nucleus 44H :,-0.34726,-0.74504,-10.66249,23.73,28.26,22.88,20.06,61.96,-85.2,-38.01,-35.94,106.79,61.6,20.06,22.88,28.26,0,8.2,-0.31
KLaL_cation_pi_RCCE_opt_neg0p2.xyz,Nucleus 46H :,0.48968,-0.37756,-10.07614,24.09,20.31,26.1,25.85,70.89,-26.25,-69.92,-45.17,52.33,90.38,20.31,25.85,26.1,0,5.79,0.91
KLaL_cation_pi_RCCE_opt_neg0p2.xyz,Nucleus 48H :,-1.61623,-0.22215,-10.4753,23.69,22.91,20.01,28.16,66.79,-46.44,-5.35,-40.18,69.11,27.15,20.01,22.91,28.16,0,8.15,-0.29
KLaL_cation_pi_RCCE_opt_neg0p2.xyz,Nucleus 53H :,-1.78286,0.55559,-9.73755,28.98,29.43,37.19,20.33,81.95,110.17,0.42,-74.74,-51.57,20.73,20.33,29.43,37.19,0,16.86,0.08
KLaL_cation_pi_RCCE_opt_neg0p2.xyz,Nucleus 55H :,-2.67282,-0.71904,-11.20753,29.01,22.99,26.77,37.28,-24.25,27.39,92.77,48.42,0.56,-57.85,22.99,26.77,37.28,0,14.29,-0.47
KLaL_cation_pi_RCCE_opt_neg0p2.xyz,Nucleus 56H :,-3.67284,-0.32653,-11.04041,30.55,41.5,23.46,26.68,-55.98,39.96,110.14,79.5,1.09,-83.07,23.46,26.68,41.5,0,18.04,-0.64
KLaL_cation_pi_RCCE_opt_neg0p2.xyz,Nucleus 58H :,-2.50759,-1.75085,-12.13052,29.27,37.05,29.93,20.83,18.32,52.19,129.14,11.6,-15.33,-108.12,20.83,29.93,37.05,0,16.22,0.12
KLaL_cation_pi_RCCE_opt_neg0p2.xyz,Nucleus 60H :,-1.21105,-2.26606,-12.34584,29.01,23.0,26.75,37.27,99.82,71.85,22.74,-74.39,-43.43,10.44,23.0,26.75,37.27,0,14.27,-0.48
KLaL_cation_pi_RCCE_opt_neg0p2.xyz,Nucleus 61H :,2.06614,-2.26271,-14.33433,30.53,41.55,23.48,26.56,143.03,0.55,96.07,-118.88,26.22,-55.4,23.48,26.56,41.55,0,18.07,-0.66
KLaL_cation_pi_RCCE_opt_neg0p2.xyz,Nucleus 62H :,-3.05617,-3.70143,-15.43508,26.05,37.33,18.83,22.0,25.53,42.58,64.82,-3.78,-12.53,-38.45,18.83,22.0,37.33,0,18.5,-0.66
KLaL_cation_pi_RCCE_opt_neg0p2.xyz,Nucleus 63H :,-0.20716,-3.15713,-16.57412,24.53,35.76,22.14,15.68,88.3,34.49,9.59,-54.4,-13.0,8.6,15.68,22.14,35.76,0,20.08,-0.36
KLaL_cation_pi_RCCE_opt_neg0p2.xyz,Nucleus 64H :,-3.64618,-2.26946,-12.97424,27.75,42.42,19.39,21.44,78.4,-21.84,8.74,-38.05,43.06,12.94,19.39,21.44,42.42,0,23.03,-0.82
KLaL_cation_pi_RCCE_opt_neg0p2.xyz,Nucleus 65H :,-4.58558,-2.02912,-12.46536,24.21,36.33,14.45,21.85,50.0,21.51,35.99,-32.02,6.75,-9.61,14.45,21.85,36.33,0,21.88,-0.32
KLaL_cation_pi_RCCE_opt_neg0p2.xyz,Nucleus 2C :,-3.63086,-3.36289,-13.04152,152.17,135.17,163.69,157.66,309.08,176.51,231.72,-14.55,-157.05,-89.19,135.17,157.66,163.69,0,28.52,0.58
KLaL_cation_pi_RCCE_opt_neg0p2.xyz,Nucleus 5C :,-3.67186,-1.63971,-14.35326,44.67,162.73,15.05,-43.77,301.01,261.08,274.25,-105.38,-279.68,-317.28,-43.77,15.05,162.73,0,206.5,-0.43
KLaL_cation_pi_RCCE_opt_neg0p2.xyz,Nucleus 6C :,-3.9616,-0.28059,-14.4534,45.26,165.64,-60.4,30.53,200.78,329.76,289.52,-60.94,-371.16,-252.18,-60.4,30.53,165.64,0,226.04,-0.2
KLaL_cation_pi_RCCE_opt_neg0p2.xyz,Nucleus 8C :,-4.26639,0.26235,-13.56389,53.95,177.33,-55.73,40.26,220.84,337.06,285.01,-70.68,-266.06,-344.32,-55.73,40.26,177.33,0,233.06,-0.18
KLaL_cation_pi_RCCE_opt_neg0p2.xyz,Nucleus 10C :,-3.86508,0.37227,-15.67146,43.04,166.2,27.37,-64.45,222.33,348.95,301.21,-106.63,-353.61,-283.11,-64.45,27.37,166.2,0,230.65,-0.2
KLaL_cation_pi_RCCE_opt_neg0p2.xyz,Nucleus 12C :,-4.13466,1.42199,-15.74103,44.1,164.41,-40.02,7.91,236.01,271.85,310.74,-80.91,-334.98,-270.41,-40.02,7.91,164.41,0,204.43,-0.53
KLaL_cation_pi_RCCE_opt_neg0p2.xyz,Nucleus 13C :,-3.41889,-0.29236,-16.78652,152.56,134.35,164.71,158.63,343.17,246.15,280.61,-90.14,-178.68,-143.41,134.35,158.63,164.71,0,30.36,0.6
KLaL_cation_pi_RCCE_opt_neg0p2.xyz,Nucleus 16C :,-3.30176,0.23385,-17.72915,43.14,161.48,-29.91,-2.16,318.48,234.03,262.42,-86.66,-347.2,-251.67,-29.91,-2.16,161.48,0,191.39,-0.71
KLaL_cation_pi_RCCE_opt_neg0p2.xyz,Nucleus 17C :,-3.10266,-1.66591,-16.73126,44.54,-59.8,36.35,157.07,343.57,283.1,257.34,-377.46,-247.3,-125.63,-59.8,36.35,157.07,0,216.87,-0.11
KLaL_cation_pi_RCCE_opt_neg0p2.xyz,Nucleus 19C :,-2.49736,-2.31516,-17.95972,57.95,176.48,46.22,-48.85,326.65,240.56,284.6,-107.47,-279.72,-290.76,-48.85,46.22,176.48,0,225.33,-0.16
KLaL_cation_pi_RCCE_opt_neg0p2.xyz,Nucleus 21C :,-2.47907,-3.407,-17.86462,48.97,-53.06,42.45,157.51,355.87,253.86,266.32,-380.83,-108.18,-240.13,-53.06,42.45,157.51,0,210.57,-0.09
KLaL_cation_pi_RCCE_opt_neg0p2.xyz,Nucleus 23C :,-3.14888,-2.11605,-18.81737,46.64,-33.11,16.6,156.42,330.96,279.8,255.54,-352.3,-262.95,-111.13,-33.11,16.6,156.42,0,189.53,-0.48
KLaL_cation_pi_RCCE_opt_neg0p2.xyz,Nucleus 24C :,-1.12737,-1.77181,-18.26735,23.09,121.92,16.04,-68.68,245.88,292.09,309.81,-170.73,-280.6,-327.17,-68.68,16.04,121.92,0,190.6,-0.11
KLaL_cation_pi_RCCE_opt_neg0p2.xyz,Nucleus 25C :,-0.91658,-0.74033,-19.18898,22.16,111.04,-60.77,16.22,217.65,289.37,264.61,-107.21,-335.54,-262.4,-60.77,16.22,111.04,0,171.81,-0.1
KLaL_cation_pi_RCCE_opt_neg0p2.xyz,Nucleus 28C :,-1.75776,-0.38293,-19.77633,153.04,135.37,164.8,158.95,330.48,213.87,269.04,-167.82,-72.77,-113.68,135.37,158.95,164.8,0,29.43,0.6
KLaL_cation_pi_RCCE_opt_neg0p2.xyz,Nucleus 31C :,0.34176,-0.19192,-19.37488,42.39,164.21,8.57,-45.61,204.12,284.98,253.14,-66.72,-240.35,-308.0,-45.61,8.57,164.21,0,209.82,-0.48
KLaL_cation_pi_RCCE_opt_neg0p2.xyz,Nucleus 32C :,0.49023,0.59144,-20.11041,43.44,166.01,-61.4,25.71,200.37,324.97,270.53,-110.86,-260.33,-294.36,-61.4,25.71,166.01,0,227.41,-0.23
KLaL_cation_pi_RCCE_opt_neg0p2.xyz,Nucleus 34C :,1.40802,-0.66952,-18.64383,49.85,178.54,-61.52,32.54,326.94,180.68,243.02,-47.83,-341.82,-211.44,-61.52,32.54,178.54,0,240.06,-0.22
KLaL_cation_pi_RCCE_opt_neg0p2.xyz,Nucleus 36C :,2.40209,-0.26185,-18.80495,43.82,166.69,26.02,-61.26,148.05,327.71,247.61,-36.58,-354.2,-201.14,-61.26,26.02,166.69,0,227.95,-0.23
KLaL_cation_pi_RCCE_opt_neg0p2.xyz,Nucleus 38C :,1.26331,-1.70665,-17.72336,43.72,163.97,-44.27,11.46,213.18,296.07,310.49,-114.05,-272.79,-301.74,-44.27,11.46,163.97,0,208.24,-0.46
KLaL_cation_pi_RCCE_opt_neg0p2.xyz,Nucleus 39C :,-0.02275,-2.248,-17.50932,153.93,136.42,165.94,159.42,272.66,145.88,194.04,15.68,-113.11,-53.37,136.42,159.42,165.94,0,29.52,0.56
KLaL_cation_pi_RCCE_opt_neg0p2.xyz,Nucleus 42C :,-3.29932,-2.31449,-15.5209,44.93,156.72,-35.25,13.31,163.59,244.47,275.62,-53.5,-255.3,-240.09,-35.25,13.31,156.72,0,191.97,-0.49
KLaL_cation_pi_RCCE_opt_neg0p2.xyz,Nucleus 43C :,-0.634,-0.73327,-14.92549,46.29,-57.02,38.39,157.5,152.5,207.61,291.4,-308.56,-150.19,-53.89,-57.02,38.39,157.5,0,214.52,-0.11
KLaL_cation_pi_RCCE_opt_neg0p2.xyz,Nucleus 45C :,-0.61955,-1.22075,-14.04083,57.05,176.8,44.28,-49.94,296.55,233.91,213.19,-37.13,-190.07,-345.3,-49.94,44.28,176.8,0,226.74,-0.17
KLaL_cation_pi_RCCE_opt_neg0p2.xyz,Nucleus 47C :,-0.34639,1.24638,-16.01492,46.72,-55.81,38.7,157.26,179.58,305.13,233.05,-311.88,-191.95,-73.77,-55.81,38.7,157.26,0,213.07,-0.11
KLaL_cation_pi_RCCE_opt_neg0p2.xyz,Nucleus 49C :,-0.35573,2.25022,-16.04481,46.44,161.93,-25.39,2.78,231.78,260.74,308.34,-97.91,-257.57,-306.06,-25.39,2.78,161.93,0,187.32,-0.7
KLaL_cation_pi_RCCE_opt_neg0p2.xyz,Nucleus 50C :,-0.07021,0.75851,-16.85674,24.08,-69.41,19.41,122.24,135.12,263.4,288.55,-24.97,-252.85,-337.01,-69.41,19.41,122.24,0,191.65,-0.07
KLaL_cation_pi_RCCE_opt_neg0p2.xyz,Nucleus 51C :,-0.64706,0.58323,-14.92389,28.4,-60.0,105.6,39.61,146.81,296.08,276.01,-75.98,-227.63,-330.09,-60.0,39.61,105.6,0,165.6,0.2
KLaL_cation_pi_RCCE_opt_neg0p2.xyz,Nucleus 57C :,-0.16135,-1.20342,-15.68304,29.92,132.34,-28.72,-13.85,239.12,273.2,328.25,-115.29,-284.05,-351.46,-28.72,-13.85,132.34,0,161.06,-0.82
KLaL_cation_pi_RCCE_opt_neg0p2.xyz,Nucleus 52N :,-0.9608,1.23763,-13.83124,159.66,97.5,198.97,182.5,301.37,351.26,423.63,-293.7,-115.57,-188.04,97.5,182.5,198.97,0,101.47,0.68
KLaL_cation_pi_RCCE_opt_neg0p2.xyz,Nucleus 54N :,-0.9621,2.24135,-13.79599,177.1,124.83,185.17,221.31,224.5,322.52,396.87,-39.83,-218.95,-153.79,124.83,185.17,221.31,0,96.48,0.25
KLaL_cation_pi_RCCE_opt_neg0p2.xyz,Nucleus 59N :,-1.16151,0.74139,-12.97253,176.85,221.34,185.13,124.09,411.64,315.76,376.72,-104.41,-223.61,-245.55,124.09,185.13,221.34,0,97.25,0.26
KLaL_cation_pi_RCCE_opt_neg0p1.xyz,Nucleus 3H :,1.85056,-3.65399,-14.42354,27.62,34.68,24.78,23.39,-82.65,78.63,25.47,108.95,1.31,-48.85,23.39,24.78,34.68,0,11.29,-0.75
KLaL_cation_pi_RCCE_opt_neg0p1.xyz,Nucleus 4H :,-1.00867,-3.16908,-13.28325,26.86,23.22,27.39,29.97,-59.09,16.04,86.74,83.94,11.98,-59.03,23.22,27.39,29.97,0,6.75,0.24
KLaL_cation_pi_RCCE_opt_neg0p1.xyz,Nucleus 7H :,2.41198,-2.20461,-16.88088,24.31,29.14,23.39,20.41,-56.24,64.53,97.54,81.17,-39.47,-74.58,20.41,23.39,29.14,0,8.73,-0.32
KLaL_cation_pi_RCCE_opt_neg0p1.xyz,Nucleus 9H :,3.34765,-1.9455,-17.38756,24.75,20.88,26.42,26.96,5.42,91.64,69.44,20.49,-65.39,-47.34,20.88,26.42,26.96,0,6.08,0.82
KLaL_cation_pi_RCCE_opt_neg0p1.xyz,Nucleus 11H :,2.39691,-3.29532,-16.81784,24.21,29.14,20.29,23.19,144.22,57.06,31.06,-120.15,-32.18,-7.38,20.29,23.19,29.14,0,8.85,-0.35
KLaL_cation_pi_RCCE_opt_neg0p1.xyz,Nucleus 14H :,2.4252,-1.57784,-15.50033,26.22,22.9,29.45,26.32,17.36,94.49,65.4,-70.42,8.94,-37.09,22.9,26.32,29.45,0,6.55,0.05
KLaL_cation_pi_RCCE_opt_neg0p1.xyz,Nucleus 15H :,2.68791,-0.21348,-15.39687,27.81,34.96,25.07,23.41,136.56,36.65,58.54,-109.93,-3.53,-34.84,23.41,25.07,34.96,0,11.55,-0.71
KLaL_cation_pi_RCCE_opt_neg0p1.xyz,Nucleus 18H :,2.98968,0.34051,-16.28164,23.62,28.03,22.72,20.1,124.38,85.02,36.2,-102.37,-63.28,-9.11,20.1,22.72,28.03,0,7.93,-0.34
KLaL_cation_pi_RCCE_opt_neg0p1.xyz,Nucleus 20H :,2.57849,0.43438,-14.17723,24.17,20.41,26.18,25.91,35.06,87.66,101.89,-61.61,-81.21,-9.28,20.41,25.91,26.18,0,5.77,0.9
KLaL_cation_pi_RCCE_opt_neg0p1.xyz,Nucleus 22H :,2.82822,1.48929,-14.10622,23.9,23.17,20.1,28.43,120.35,24.8,69.84,-97.14,2.95,-49.11,20.1,23.17,28.43,0,8.33,-0.26
KLaL_cation_pi_RCCE_opt_neg0p1.xyz,Nucleus 29H :,2.14561,-0.24168,-13.06379,27.46,34.59,24.68,23.12,131.19,7.59,25.92,-103.05,23.17,-2.43,23.12,24.68,34.59,0,11.47,-0.73
KLaL_cation_pi_RCCE_opt_neg0p1.xyz,Nucleus 30H :,2.02109,0.28044,-12.11936,26.99,23.23,27.56,30.17,3.83,92.59,61.11,23.58,-67.1,-33.05,23.23,27.56,30.17,0,6.94,0.25
KLaL_cation_pi_RCCE_opt_neg0p1.xyz,Nucleus 33H :,1.85668,-1.6211,-13.12241,24.13,28.96,23.09,20.34,133.58,21.44,4.56,-109.42,3.24,18.99,20.34,23.09,28.96,0,8.62,-0.36
KLaL_cation_pi_RCCE_opt_neg0p1.xyz,Nucleus 35H :,1.26442,-2.28521,-11.89554,24.51,20.58,26.13,26.82,90.21,-25.45,6.77,-64.15,50.12,16.04,20.58,26.13,26.82,0,6.24,0.78
KLaL_cation_pi_RCCE_opt_neg0p1.xyz,Nucleus 37H :,1.23472,-3.36627,-12.0504,24.21,29.14,20.38,23.1,-93.48,84.56,15.93,118.29,-61.02,8.35,20.38,23.1,29.14,0,8.76,-0.38
KLaL_cation_pi_RCCE_opt_neg0p1.xyz,Nucleus 40H :,1.91674,-2.09261,-11.03742,27.13,23.56,30.23,27.59,60.19,-72.33,-21.4,-31.45,95.89,50.47,23.56,27.59,30.23,0,6.67,0.21
KLaL_cation_pi_RCCE_opt_neg0p1.xyz,Nucleus 41H :,-0.11608,-1.76989,-11.58662,27.43,34.65,24.61,23.02,-118.94,58.06,-36.58,143.44,-24.23,60.53,23.02,24.61,34.65,0,11.63,-0.73
KLaL_cation_pi_RCCE_opt_neg0p1.xyz,Nucleus 44H :,-0.34726,-0.74504,-10.66249,23.75,28.27,22.88,20.09,61.88,-85.25,-39.0,-35.88,106.88,62.6,20.09,22.88,28.27,0,8.18,-0.32
KLaL_cation_pi_RCCE_opt_neg0p1.xyz,Nucleus 46H :,0.48968,-0.37756,-10.07614,24.11,20.35,26.11,25.86,71.0,-27.32,-69.44,-45.27,53.42,89.93,20.35,25.86,26.11,0,5.76,0.91
KLaL_cation_pi_RCCE_opt_neg0p1.xyz,Nucleus 48H :,-1.61623,-0.22215,-10.4753,23.7,22.89,20.05,28.16,66.66,-46.66,-5.41,-40.06,69.35,27.22,20.05,22.89,28.16,0,8.11,-0.3
KLaL_cation_pi_RCCE_opt_neg0p1.xyz,Nucleus 53H :,-1.78286,0.55559,-9.73755,29.39,29.85,37.58,20.74,86.01,110.52,2.18,-75.11,-54.8,19.38,20.74,29.85,37.58,0,16.84,0.08
KLaL_cation_pi_RCCE_opt_neg0p1.xyz,Nucleus 55H :,-2.67282,-0.71904,-11.20753,28.88,22.78,26.54,37.32,-25.13,27.09,91.28,49.12,0.64,-56.36,22.78,26.54,37.32,0,14.54,-0.48
KLaL_cation_pi_RCCE_opt_neg0p1.xyz,Nucleus 56H :,-3.67284,-0.32653,-11.04041,30.32,40.96,23.22,26.77,-57.15,39.59,107.13,80.44,0.87,-79.92,23.22,26.77,40.96,0,17.74,-0.6
KLaL_cation_pi_RCCE_opt_neg0p1.xyz,Nucleus 58H :,-2.50759,-1.75085,-12.13052,29.64,37.46,30.26,21.2,16.4,51.45,126.84,-105.43,13.92,-14.27,21.2,30.26,37.46,0,16.26,0.11
KLaL_cation_pi_RCCE_opt_neg0p1.xyz,Nucleus 60H :,-1.21105,-2.26606,-12.34584,28.88,22.79,26.53,37.31,99.0,70.85,22.71,-73.67,-42.64,10.37,22.79,26.53,37.31,0,14.52,-0.49
KLaL_cation_pi_RCCE_opt_neg0p1.xyz,Nucleus 61H :,2.06614,-2.26271,-14.33433,30.3,41.01,23.24,26.66,143.42,2.02,94.94,-119.55,24.87,-54.79,23.24,26.66,41.01,0,17.77,-0.61
KLaL_cation_pi_RCCE_opt_neg0p1.xyz,Nucleus 62H :,-3.05617,-3.70143,-15.43508,26.04,37.34,18.77,22.0,24.95,41.97,65.36,-3.31,-12.26,-38.6,18.77,22.0,37.34,0,18.57,-0.65
KLaL_cation_pi_RCCE_opt_neg0p1.xyz,Nucleus 63H :,-0.20716,-3.15713,-16.57412,24.55,35.78,22.19,15.69,87.48,35.68,10.09,-53.58,-14.08,8.08,15.69,22.19,35.78,0,20.09,-0.35
KLaL_cation_pi_RCCE_opt_neg0p1.xyz,Nucleus 64H :,-3.64618,-2.26946,-12.97424,27.76,42.41,19.41,21.45,78.12,-21.45,8.59,-37.78,42.67,13.12,19.41,21.45,42.41,0,23.0,-0.82
KLaL_cation_pi_RCCE_opt_neg0p1.xyz,Nucleus 65H :,-4.58558,-2.02912,-12.46536,24.23,36.36,14.44,21.9,20.65,36.92,49.99,-31.74,6.85,-9.97,14.44,21.9,36.36,0,21.92,-0.32
KLaL_cation_pi_RCCE_opt_neg0p1.xyz,Nucleus 2C :,-3.63086,-3.36289,-13.04152,152.15,135.18,163.63,157.65,307.21,174.44,231.19,-12.73,-155.05,-88.59,135.18,157.65,163.63,0,28.45,0.58
KLaL_cation_pi_RCCE_opt_neg0p1.xyz,Nucleus 5C :,-3.67186,-1.63971,-14.35326,44.33,162.62,14.17,-43.81,299.3,260.31,275.36,-105.71,-279.0,-317.29,-43.81,14.17,162.62,0,206.43,-0.44
KLaL_cation_pi_RCCE_opt_neg0p1.xyz,Nucleus 6C :,-3.9616,-0.28059,-14.4534,45.62,165.59,-60.06,31.32,202.48,330.14,290.06,-63.0,-371.24,-251.58,-60.06,31.32,165.59,0,225.65,-0.19
KLaL_cation_pi_RCCE_opt_neg0p1.xyz,Nucleus 8C :,-4.26639,0.26235,-13.56389,54.15,177.31,-55.92,41.05,220.51,337.83,285.34,-70.52,-265.71,-344.99,-55.92,41.05,177.31,0,233.23,-0.17
KLaL_cation_pi_RCCE_opt_neg0p1.xyz,Nucleus 10C :,-3.86508,0.37227,-15.67146,43.3,166.17,27.96,-64.23,222.48,348.86,300.69,-106.18,-353.0,-282.94,-64.23,27.96,166.17,0,230.4,-0.2
KLaL_cation_pi_RCCE_opt_neg0p1.xyz,Nucleus 12C :,-4.13466,1.42199,-15.74103,43.8,164.31,-40.02,7.1,235.53,271.63,312.43,-80.82,-334.49,-272.87,-40.02,7.1,164.31,0,204.33,-0.54
KLaL_cation_pi_RCCE_opt_neg0p1.xyz,Nucleus 13C :,-3.41889,-0.29236,-16.78652,152.55,134.38,164.65,158.62,342.94,246.1,282.21,-90.18,-178.49,-144.92,134.38,158.62,164.65,0,30.27,0.6
KLaL_cation_pi_RCCE_opt_neg0p1.xyz,Nucleus 16C :,-3.30176,0.23385,-17.72915,43.3,161.37,-29.6,-1.87,318.9,262.05,233.8,-86.19,-347.33,-251.32,-29.6,-1.87,161.37,0,190.97,-0.71
KLaL_cation_pi_RCCE_opt_neg0p1.xyz,Nucleus 17C :,-3.10266,-1.66591,-16.73126,44.61,-59.79,36.6,157.02,343.57,283.01,257.38,-377.85,-246.68,-125.6,-59.79,36.6,157.02,0,216.81,-0.11
KLaL_cation_pi_RCCE_opt_neg0p1.xyz,Nucleus 19C :,-2.49736,-2.31516,-17.95972,58.29,176.42,46.96,-48.52,327.45,239.93,284.53,-107.68,-279.69,-289.69,-48.52,46.96,176.42,0,224.94,-0.15
KLaL_cation_pi_RCCE_opt_neg0p1.xyz,Nucleus 21C :,-2.47907,-3.407,-17.86462,49.02,-53.1,42.69,157.46,356.92,253.69,266.45,-381.54,-108.17,-240.3,-53.1,42.69,157.46,0,210.56,-0.09
KLaL_cation_pi_RCCE_opt_neg0p1.xyz,Nucleus 23C :,-3.14888,-2.11605,-18.81737,46.78,-32.68,16.74,156.29,332.76,281.86,254.53,-353.46,-265.17,-110.16,-32.68,16.74,156.29,0,188.97,-0.48
KLaL_cation_pi_RCCE_opt_neg0p1.xyz,Nucleus 24C :,-1.12737,-1.77181,-18.26735,22.76,121.83,15.11,-68.66,246.68,290.23,308.2,-168.28,-281.33,-327.22,-68.66,15.11,121.83,0,190.49,-0.12
KLaL_cation_pi_RCCE_opt_neg0p1.xyz,Nucleus 25C :,-0.91658,-0.74033,-19.18898,22.11,110.92,-60.35,15.75,218.6,289.14,266.26,-108.37,-336.59,-262.73,-60.35,15.75,110.92,0,171.27,-0.11
KLaL_cation_pi_RCCE_opt_neg0p1.xyz,Nucleus 28C :,-1.75776,-0.38293,-19.77633,153.01,135.36,164.78,158.9,330.4,214.63,269.73,-167.85,-73.38,-114.49,135.36,158.9,164.78,0,29.42,0.6
KLaL_cation_pi_RCCE_opt_neg0p1.xyz,Nucleus 31C :,0.34176,-0.19192,-19.37488,42.1,164.1,7.87,-45.66,206.27,284.29,255.11,-68.0,-242.24,-309.1,-45.66,7.87,164.1,0,209.76,-0.49
KLaL_cation_pi_RCCE_opt_neg0p1.xyz,Nucleus 32C :,0.49023,0.59144,-20.11041,43.7,165.96,-61.26,26.41,197.22,325.54,270.79,-108.98,-260.19,-293.27,-61.26,26.41,165.96,0,227.22,-0.23
KLaL_cation_pi_RCCE_opt_neg0p1.xyz,Nucleus 34C :,1.40802,-0.66952,-18.64383,50.03,178.51,-61.75,33.32,327.59,179.39,243.13,-47.39,-342.22,-210.41,-61.75,33.32,178.51,0,240.26,-0.21
KLaL_cation_pi_RCCE_opt_neg0p1.xyz,Nucleus 36C :,2.40209,-0.26185,-18.80495,44.0,166.64,26.57,-61.22,146.46,328.49,246.3,-36.36,-353.61,-199.29,-61.22,26.57,166.64,0,227.86,-0.23
KLaL_cation_pi_RCCE_opt_neg0p1.xyz,Nucleus 38C :,1.26331,-1.70665,-17.72336,43.51,163.87,-44.19,10.86,215.0,293.47,309.08,-113.66,-271.79,-301.55,-44.19,10.86,163.87,0,208.06,-0.47
KLaL_cation_pi_RCCE_opt_neg0p1.xyz,Nucleus 39C :,-0.02275,-2.248,-17.50932,153.91,136.44,165.92,159.36,272.59,144.94,192.78,16.06,-113.09,-51.55,136.44,159.36,165.92,0,29.48,0.55
KLaL_cation_pi_RCCE_opt_neg0p1.xyz,Nucleus 42C :,-3.29932,-2.31449,-15.5209,45.1,156.6,-34.82,13.52,162.12,242.84,275.22,-53.46,-253.38,-238.05,-34.82,13.52,156.6,0,191.42,-0.49
KLaL_cation_pi_RCCE_opt_neg0p1.xyz,Nucleus 43C :,-0.634,-0.63327,-14.92549,46.37,-57.0,38.65,157.46,150.73,207.31,291.24,-308.28,-148.39,-53.51,-57.0,38.65,157.46,0,214.46,-0.11
KLaL_cation_pi_RCCE_opt_neg0p1.xyz,Nucleus 45C :,-0.61955,-1.12075,-14.04083,57.36,176.74,44.98,-49.63,298.39,232.12,212.78,-36.75,-187.56,-346.9,-49.63,44.98,176.74,0,226.37,-0.16
KLaL_cation_pi_RCCE_opt_neg0p1.xyz,Nucleus 47C :,-0.34639,1.34638,-16.01492,46.75,-55.87,38.9,157.21,178.66,305.67,232.25,-311.7,-191.51,-73.14,-55.87,38.9,157.21,0,213.08,-0.11
KLaL_cation_pi_RCCE_opt_neg0p1.xyz,Nucleus 49C :,-0.35573,2.35022,-16.04481,46.53,161.82,-25.1,2.86,229.71,260.55,309.05,-99.06,-254.35,-306.32,-25.1,2.86,161.82,0,186.92,-0.7
KLaL_cation_pi_RCCE_opt_neg0p1.xyz,Nucleus 50C :,-0.07021,0.85851,-16.85674,23.79,-69.38,18.58,122.17,137.47,263.72,286.65,-27.32,-252.57,-336.58,-69.38,18.58,122.17,0,191.55,-0.08
KLaL_cation_pi_RCCE_opt_neg0p1.xyz,Nucleus 51C :,-0.64706,0.68323,-14.92389,28.45,-59.49,105.49,39.34,148.06,296.05,274.76,-77.13,-227.65,-328.75,-59.49,39.34,105.49,0,164.98,0.2
KLaL_cation_pi_RCCE_opt_neg0p1.xyz,Nucleus 57C :,-0.16135,-1.10342,-15.68304,29.75,132.28,-29.28,-13.74,238.5,274.47,326.71,-115.17,-284.92,-350.33,-29.28,-13.74,132.28,0,161.56,-0.81
KLaL_cation_pi_RCCE_opt_neg0p1.xyz,Nucleus 52N :,-0.9608,1.33763,-13.83124,162.55,99.97,199.02,188.65,302.24,351.08,422.07,-289.32,-116.38,-182.04,99.97,188.65,199.02,0,99.05,0.79
KLaL_cation_pi_RCCE_opt_neg0p1.xyz,Nucleus 54N :,-0.9621,2.34135,-13.79599,177.36,222.5,184.51,125.08,224.08,322.36,394.79,-40.13,-216.36,-152.66,125.08,184.51,222.5,0,97.42,0.22
KLaL_cation_pi_RCCE_opt_neg0p1.xyz,Nucleus 59N :,-1.16151,0.84139,-12.97253,177.09,222.51,184.45,124.31,411.33,316.35,375.73,-103.61,-223.72,-244.79,124.31,184.45,222.51,0,98.2,0.22
KLaL_cation_pi_RCCE_opt.xyz,Nucleus 3H :,1.850559,-3.653989,-14.423537,27.63,34.66,24.8,23.42,-82.62,78.32,25.27,108.93,1.5,-48.52,23.42,24.8,34.66,0,11.24,-0.76
KLaL_cation_pi_RCCE_opt.xyz,Nucleus 4H :,-1.008675,-3.169082,-13.283248,26.86,23.24,27.37,29.97,-58.7,15.85,86.1,83.55,12.19,-58.4,23.24,27.37,29.97,0,6.73,0.23
KLaL_cation_pi_RCCE_opt.xyz,Nucleus 7H :,2.411979,-2.204613,-16.880877,24.32,29.1,23.41,20.44,-55.62,64.7,97.52,80.54,-39.62,-74.57,20.44,23.41,29.1,0,8.66,-0.32
KLaL_cation_pi_RCCE_opt.xyz,Nucleus 9H :,3.34765,-1.945501,-17.387556,24.76,20.94,26.4,26.93,4.98,92.55,69.79,20.93,-66.31,-47.68,20.94,26.4,26.93,0,5.99,0.82
KLaL_cation_pi_RCCE_opt.xyz,Nucleus 11H :,2.396906,-3.295318,-16.817844,24.21,29.12,20.31,23.21,143.99,56.96,31.41,-119.87,-32.06,-7.79,20.31,23.21,29.12,0,8.81,-0.34
KLaL_cation_pi_RCCE_opt.xyz,Nucleus 14H :,2.425202,-1.577837,-15.500329,26.22,22.91,29.46,26.3,17.47,93.9,65.81,-69.84,8.8,-37.48,22.91,26.3,29.46,0,6.55,0.04
KLaL_cation_pi_RCCE_opt.xyz,Nucleus 15H :,2.687908,-0.213479,-15.396873,27.83,34.95,25.09,23.44,136.13,36.73,58.8,-109.49,-3.63,-35.07,23.44,25.09,34.95,0,11.51,-0.71
KLaL_cation_pi_RCCE_opt.xyz,Nucleus 18H :,2.989681,0.340506,-16.281643,23.63,28.04,22.71,20.13,124.5,85.0,36.38,-102.48,-63.23,-9.3,20.13,22.71,28.04,0,7.91,-0.35
KLaL_cation_pi_RCCE_opt.xyz,Nucleus 20H :,2.578485,0.434376,-14.177235,24.19,20.45,26.2,25.91,88.09,101.7,35.08,-62.04,-80.96,-9.29,20.45,25.91,26.2,0,5.75,0.9
KLaL_cation_pi_RCCE_opt.xyz,Nucleus 22H :,2.828223,1.48929,-14.106216,23.91,23.16,20.13,28.43,120.63,24.82,70.04,-97.41,2.91,-49.27,20.13,23.16,28.43,0,8.3,-0.27
KLaL_cation_pi_RCCE_opt.xyz,Nucleus 29H :,2.14561,-0.241684,-13.063792,27.47,34.57,24.7,23.14,130.75,7.85,26.3,-102.61,22.92,-2.8,23.14,24.7,34.57,0,11.43,-0.73
KLaL_cation_pi_RCCE_opt.xyz,Nucleus 30H :,2.021087,0.280435,-12.119356,26.99,23.24,27.55,30.17,4.17,92.13,61.71,23.24,-66.68,-33.6,23.24,27.55,30.17,0,6.93,0.24
KLaL_cation_pi_RCCE_opt.xyz,Nucleus 33H :,1.856675,-1.621098,-13.122408,24.13,28.93,23.09,20.36,133.33,20.44,4.46,-109.17,4.23,19.09,20.36,23.09,28.93,0,8.57,-0.36
KLaL_cation_pi_RCCE_opt.xyz,Nucleus 35H :,1.264419,-2.285206,-11.895543,24.51,20.64,26.11,26.78,90.57,-26.31,6.41,-64.52,51.05,16.35,20.64,26.11,26.78,0,6.14,0.78
KLaL_cation_pi_RCCE_opt.xyz,Nucleus 37H :,1.234723,-3.366274,-12.050401,24.2,29.11,20.4,23.1,-93.33,84.37,16.04,118.18,-60.85,8.21,20.4,23.1,29.11,0,8.71,-0.38
KLaL_cation_pi_RCCE_opt.xyz,Nucleus 40H :,1.916737,-2.092607,-11.03742,27.12,23.56,30.22,27.58,60.07,-72.02,-21.57,-31.36,95.59,50.66,23.56,27.58,30.22,0,6.66,0.21
KLaL_cation_pi_RCCE_opt.xyz,Nucleus 41H :,-0.116082,-1.769889,-11.586623,27.43,34.64,24.62,23.04,-118.63,58.01,-37.15,143.13,-24.18,61.12,23.04,24.62,34.64,0,11.6,-0.73
KLaL_cation_pi_RCCE_opt.xyz,Nucleus 44H :,-0.347262,-0.745044,-10.662488,23.75,28.27,22.87,20.11,61.81,-85.37,-39.79,-35.83,107.04,63.4,20.11,22.87,28.27,0,8.16,-0.32
KLaL_cation_pi_RCCE_opt.xyz,Nucleus 46H :,0.489681,-0.377556,-10.076138,24.12,20.38,26.13,25.86,71.09,-28.28,-68.98,-45.35,54.4,89.5,20.38,25.86,26.13,0,5.75,0.91
KLaL_cation_pi_RCCE_opt.xyz,Nucleus 48H :,-1.616228,-0.222153,-10.475304,23.71,28.17,22.88,20.08,66.51,-46.9,-5.58,-39.92,69.61,27.42,20.08,22.88,28.17,0,8.09,-0.31
KLaL_cation_pi_RCCE_opt.xyz,Nucleus 53H :,-1.782864,0.555587,-9.737545,29.72,30.16,37.9,21.11,3.93,88.84,110.77,-75.5,-56.82,17.96,21.11,30.16,37.9,0,16.79,0.08
KLaL_cation_pi_RCCE_opt.xyz,Nucleus 55H :,-2.672821,-0.719039,-11.207533,28.76,22.58,26.34,37.35,-26.03,26.84,89.86,49.86,0.69,-54.94,22.58,26.34,37.35,0,14.77,-0.49
KLaL_cation_pi_RCCE_opt.xyz,Nucleus 56H :,-3.672844,-0.326534,-11.040411,30.1,40.44,22.99,26.86,-58.06,39.17,104.3,81.12,0.73,-76.97,22.99,26.86,40.44,0,17.45,-0.56
KLaL_cation_pi_RCCE_opt.xyz,Nucleus 58H :,-2.50759,-1.75085,-12.130515,29.94,37.81,30.49,21.53,15.35,50.88,124.6,-102.84,15.27,-13.43,21.53,30.49,37.81,0,16.28,0.1
KLaL_cation_pi_RCCE_opt.xyz,Nucleus 60H :,-1.211051,-2.266063,-12.345845,28.75,22.6,26.32,37.34,98.19,69.88,22.69,-72.93,-41.86,10.3,22.6,26.32,37.34,0,14.74,-0.49
KLaL_cation_pi_RCCE_opt.xyz,Nucleus 61H :,2.066135,-2.26271,-14.334331,30.08,40.48,23.01,26.74,143.51,3.38,93.82,-119.9,23.61,-54.18,23.01,26.74,40.48,0,17.47,-0.57
KLaL_cation_pi_RCCE_opt.xyz,Nucleus 62H :,-3.056172,-3.701435,-15.435076,26.01,37.34,18.7,21.99,24.35,41.56,65.83,-2.82,-12.06,-38.83,18.7,21.99,37.34,0,18.64,-0.65
KLaL_cation_pi_RCCE_opt.xyz,Nucleus 63H :,-0.207158,-3.157133,-16.574116,24.58,35.79,22.25,15.69,86.58,36.91,10.71,-52.67,-15.19,7.4,15.69,22.25,35.79,0,20.1,-0.35
KLaL_cation_pi_RCCE_opt.xyz,Nucleus 64H :,-3.646175,-2.269455,-12.974236,27.76,42.39,19.42,21.47,77.85,-21.08,8.54,-37.52,42.28,13.22,19.42,21.47,42.39,0,22.97,-0.82
KLaL_cation_pi_RCCE_opt.xyz,Nucleus 65H :,-4.585577,-2.029116,-12.465362,24.25,36.38,14.43,21.95,19.85,37.84,50.25,7.13,-10.67,-31.64,14.43,21.95,36.38,0,21.95,-0.31
KLaL_cation_pi_RCCE_opt.xyz,Nucleus 2C :,-3.630862,-3.362886,-13.041516,152.13,135.19,163.58,157.63,305.4,172.93,230.14,-11.37,-153.03,-87.67,135.19,157.63,163.58,0,28.39,0.58
KLaL_cation_pi_RCCE_opt.xyz,Nucleus 5C :,-3.671863,-1.639713,-14.353258,43.99,162.52,13.26,-43.82,297.96,259.7,276.5,-106.22,-278.76,-317.21,-43.82,13.26,162.52,0,206.34,-0.45
KLaL_cation_pi_RCCE_opt.xyz,Nucleus 6C :,-3.961596,-0.280588,-14.453396,45.98,165.55,-59.74,32.14,204.54,329.71,290.8,-64.98,-371.06,-251.06,-59.74,32.14,165.55,0,225.29,-0.18
KLaL_cation_pi_RCCE_opt.xyz,Nucleus 8C :,-4.266387,0.262354,-13.563887,54.37,177.29,-56.09,41.92,220.44,338.26,285.78,-70.58,-265.17,-345.61,-56.09,41.92,177.29,0,233.38,-0.16
KLaL_cation_pi_RCCE_opt.xyz,Nucleus 10C :,-3.865076,0.372272,-15.671464,43.56,166.13,28.57,-64.02,223.18,348.32,299.76,-105.99,-351.99,-282.58,-64.02,28.57,166.13,0,230.15,-0.2
KLaL_cation_pi_RCCE_opt.xyz,Nucleus 12C :,-4.134657,1.421993,-15.741032,43.49,164.22,-39.99,6.25,234.43,271.58,313.67,-80.31,-333.95,-274.94,-39.99,6.25,164.22,0,204.21,-0.55
KLaL_cation_pi_RCCE_opt.xyz,Nucleus 13C :,-3.418891,-0.292361,-16.786524,152.53,134.4,164.6,158.6,342.59,246.0,283.77,-90.14,-178.19,-146.43,134.4,158.6,164.6,0,30.2,0.6
KLaL_cation_pi_RCCE_opt.xyz,Nucleus 16C :,-3.301764,0.233853,-17.729151,43.43,161.27,-29.33,-1.65,319.26,261.63,234.13,-85.8,-347.42,-251.5,-29.33,-1.65,161.27,0,190.6,-0.71
KLaL_cation_pi_RCCE_opt.xyz,Nucleus 17C :,-3.102657,-1.66591,-16.731263,44.68,-59.78,36.85,156.97,343.85,282.94,257.61,-378.62,-246.17,-125.56,-59.78,36.85,156.97,0,216.75,-0.11
KLaL_cation_pi_RCCE_opt.xyz,Nucleus 19C :,-2.497362,-2.315156,-17.959724,58.59,176.35,47.65,-48.22,328.17,239.33,284.37,-107.8,-279.57,-288.71,-48.22,47.65,176.35,0,224.57,-0.15
KLaL_cation_pi_RCCE_opt.xyz,Nucleus 21C :,-2.479066,-3.407004,-17.864621,49.07,-53.14,42.93,157.41,357.91,253.55,266.61,-382.51,-107.99,-240.37,-53.14,42.93,157.41,0,210.55,-0.09
KLaL_cation_pi_RCCE_opt.xyz,Nucleus 23C :,-3.148882,-2.116053,-18.817366,46.91,156.17,-32.28,16.85,333.74,283.59,254.06,-354.06,-267.14,-109.44,-32.28,16.85,156.17,0,188.45,-0.48
KLaL_cation_pi_RCCE_opt.xyz,Nucleus 24C :,-1.127373,-1.771805,-18.267347,22.44,121.74,14.29,-68.71,247.51,288.53,307.28,-166.0,-282.43,-327.57,-68.71,14.29,121.74,0,190.45,-0.13
KLaL_cation_pi_RCCE_opt.xyz,Nucleus 25C :,-0.916582,-0.740333,-19.188984,22.02,110.79,-60.01,15.29,219.44,289.05,267.79,-109.46,-337.72,-263.04,-60.01,15.29,110.79,0,170.8,-0.12
KLaL_cation_pi_RCCE_opt.xyz,Nucleus 28C :,-1.757761,-0.382925,-19.776327,152.99,135.37,164.76,158.84,330.12,215.0,270.42,-167.68,-73.66,-115.24,135.37,158.84,164.76,0,29.39,0.6
KLaL_cation_pi_RCCE_opt.xyz,Nucleus 31C :,0.341756,-0.191918,-19.374878,41.83,164.01,7.15,-45.66,208.17,283.47,256.43,-68.66,-243.84,-310.08,-45.66,7.15,164.01,0,209.67,-0.5
KLaL_cation_pi_RCCE_opt.xyz,Nucleus 32C :,0.490233,0.591437,-20.110408,43.94,165.9,-61.17,27.09,194.77,325.97,270.86,-107.33,-259.94,-292.51,-61.17,27.09,165.9,0,227.07,-0.22
KLaL_cation_pi_RCCE_opt.xyz,Nucleus 34C :,1.408017,-0.669523,-18.643832,50.22,178.48,-61.95,34.13,328.01,178.51,243.17,-47.27,-342.28,-209.48,-61.95,34.13,178.48,0,240.43,-0.2
KLaL_cation_pi_RCCE_opt.xyz,Nucleus 36C :,2.402087,-0.261852,-18.804946,44.16,166.59,27.11,-61.22,145.41,329.2,245.1,-36.47,-353.34,-197.41,-61.22,27.11,166.59,0,227.81,-0.22
KLaL_cation_pi_RCCE_opt.xyz,Nucleus 38C :,1.26331,-1.706649,-17.723363,43.32,163.78,-44.07,10.24,216.7,291.51,308.14,-113.85,-270.63,-301.92,-44.07,10.24,163.78,0,207.85,-0.48
KLaL_cation_pi_RCCE_opt.xyz,Nucleus 39C :,-0.022748,-2.248003,-17.509317,153.89,136.47,165.9,159.3,272.46,144.01,192.1,16.47,-113.02,-50.34,136.47,159.3,165.9,0,29.43,0.55
KLaL_cation_pi_RCCE_opt.xyz,Nucleus 42C :,-3.299319,-2.314493,-15.520897,45.25,156.48,-34.43,13.71,161.54,241.06,274.95,-53.44,-251.71,-236.63,-34.43,13.71,156.48,0,190.91,-0.5
KLaL_cation_pi_RCCE_opt.xyz,Nucleus 43C :,-0.634004,-0.533269,-14.925487,46.45,-56.98,38.91,157.42,149.09,206.98,291.03,-307.79,-146.71,-53.24,-56.98,38.91,157.42,0,214.4,-0.11
KLaL_cation_pi_RCCE_opt.xyz,Nucleus 45C :,-0.619549,-1.02075,-14.040827,57.66,176.68,45.64,-49.35,300.14,230.61,212.37,-36.37,-185.35,-348.43,-49.35,45.64,176.68,0,226.03,-0.16
KLaL_cation_pi_RCCE_opt.xyz,Nucleus 47C :,-0.346386,1.446376,-16.014924,46.77,-55.93,39.09,157.16,177.68,305.89,231.64,-311.06,-191.03,-72.79,-55.93,39.09,157.16,0,213.09,-0.11
KLaL_cation_pi_RCCE_opt.xyz,Nucleus 49C :,-0.355732,2.450215,-16.044808,46.58,161.73,-24.86,2.88,227.52,260.38,308.97,-99.95,-251.13,-306.04,-24.86,2.88,161.73,0,186.59,-0.7
KLaL_cation_pi_RCCE_opt.xyz,Nucleus 50C :,-0.070213,0.958514,-16.856739,23.51,-69.4,17.85,122.09,139.82,263.9,284.93,-29.66,-251.84,-336.62,-69.4,17.85,122.09,0,191.49,-0.09
KLaL_cation_pi_RCCE_opt.xyz,Nucleus 51C :,-0.647064,0.783225,-14.923888,28.48,-59.03,105.39,39.08,149.26,295.99,273.62,-78.28,-227.62,-327.53,-59.03,39.08,105.39,0,164.42,0.19
KLaL_cation_pi_RCCE_opt.xyz,Nucleus 57C :,-0.161353,-1.003424,-15.68304,29.59,132.15,-29.76,-13.62,238.1,275.49,325.3,-115.24,-285.64,-349.25,-29.76,-13.62,132.15,0,161.91,-0.8
KLaL_cation_pi_RCCE_opt.xyz,Nucleus 52N :,-0.960801,1.437628,-13.83124,165.08,101.93,199.11,194.19,302.97,350.98,420.76,-285.71,-117.03,-176.74,101.93,194.19,199.11,0,97.18,0.9
KLaL_cation_pi_RCCE_opt.xyz,Nucleus 54N :,-0.962095,2.441347,-13.795987,177.57,223.56,183.93,125.21,223.34,322.27,392.96,-40.0,-214.16,-151.71,125.21,183.93,223.56,0,98.35,0.19
KLaL_cation_pi_RCCE_opt.xyz,Nucleus 59N :,-1.16151,0.941394,-12.972534,177.28,223.54,183.87,124.42,411.15,316.85,374.66,-102.89,-223.89,-244.05,124.42,183.87,223.54,0,99.12,0.2
KLaL_cation_pi_RCCE_opt_0p1.xyz,Nucleus 3H :,1.85056,-3.65399,-14.42354,27.63,34.64,24.81,23.45,-82.52,78.02,24.98,108.84,1.77,-48.17,23.45,24.81,34.64,0,11.19,-0.76
KLaL_cation_pi_RCCE_opt_0p1.xyz,Nucleus 4H :,-1.00867,-3.16908,-13.28325,26.86,23.25,27.36,29.97,-58.31,15.57,85.58,83.17,12.47,-57.9,23.25,27.36,29.97,0,6.72,0.22
KLaL_cation_pi_RCCE_opt_0p1.xyz,Nucleus 7H :,2.41198,-2.20461,-16.88088,24.32,29.07,23.42,20.46,-54.78,64.78,97.56,79.7,-39.69,-74.61,20.46,23.42,29.07,0,8.61,-0.31
KLaL_cation_pi_RCCE_opt_0p1.xyz,Nucleus 9H :,3.34765,-1.9455,-17.38756,24.76,21.0,26.38,26.89,4.63,93.37,70.14,21.27,-67.13,-48.02,21.0,26.38,26.89,0,5.89,0.83
KLaL_cation_pi_RCCE_opt_0p1.xyz,Nucleus 11H :,2.39691,-3.29532,-16.81784,24.21,29.09,20.34,23.21,143.57,56.85,31.75,-119.41,-31.95,-8.18,20.34,23.21,29.09,0,8.75,-0.34
KLaL_cation_pi_RCCE_opt_0p1.xyz,Nucleus 14H :,2.4252,-1.57784,-15.50033,26.22,22.92,29.47,26.28,17.51,93.37,66.26,-69.31,8.74,-37.92,22.92,26.28,29.47,0,6.55,0.03
KLaL_cation_pi_RCCE_opt_0p1.xyz,Nucleus 15H :,2.68791,-0.21348,-15.39687,27.84,34.93,25.11,23.47,135.69,36.81,59.16,-109.04,-3.71,-35.4,23.47,25.11,34.93,0,11.46,-0.71
KLaL_cation_pi_RCCE_opt_0p1.xyz,Nucleus 18H :,2.98968,0.34051,-16.28164,23.64,28.05,22.7,20.16,124.63,85.05,36.58,-102.61,-63.24,-9.51,20.16,22.7,28.05,0,7.89,-0.36
KLaL_cation_pi_RCCE_opt_0p1.xyz,Nucleus 20H :,2.57849,0.43438,-14.17723,24.21,20.49,26.22,25.91,88.48,101.53,35.09,-62.45,-80.73,-9.3,20.49,25.91,26.22,0,5.73,0.89
KLaL_cation_pi_RCCE_opt_0p1.xyz,Nucleus 22H :,2.82822,1.48929,-14.10622,23.92,23.15,20.16,28.44,120.93,24.84,70.18,-97.71,2.87,-49.36,20.16,23.15,28.44,0,8.28,-0.28
KLaL_cation_pi_RCCE_opt_0p1.xyz,Nucleus 29H :,2.14561,-0.24168,-13.06379,27.47,34.55,24.71,23.16,130.24,8.07,26.65,-102.11,22.7,-3.13,23.16,24.71,34.55,0,11.39,-0.73
KLaL_cation_pi_RCCE_opt_0p1.xyz,Nucleus 30H :,2.02109,0.28044,-12.11936,26.99,23.25,27.55,30.16,4.42,91.74,62.13,22.98,-66.33,-33.98,23.25,27.55,30.16,0,6.91,0.24
KLaL_cation_pi_RCCE_opt_0p1.xyz,Nucleus 33H :,1.85668,-1.6211,-13.12241,24.12,28.9,23.09,20.38,133.03,19.53,4.37,-108.87,5.11,19.19,20.38,23.09,28.9,0,8.52,-0.36
KLaL_cation_pi_RCCE_opt_0p1.xyz,Nucleus 35H :,1.26442,-2.28521,-11.89554,24.51,20.7,26.09,26.75,90.9,-27.19,6.1,-64.87,51.99,16.61,20.7,26.09,26.75,0,6.05,0.78
KLaL_cation_pi_RCCE_opt_0p1.xyz,Nucleus 37H :,1.23472,-3.36627,-12.0504,24.2,29.09,20.42,23.1,-93.17,84.25,16.15,118.06,-60.75,8.06,20.42,23.1,29.09,0,8.67,-0.38
KLaL_cation_pi_RCCE_opt_0p1.xyz,Nucleus 40H :,1.91674,-2.09261,-11.03742,27.12,23.57,30.22,27.57,60.03,-71.73,-21.57,-31.35,95.3,50.68,23.57,27.57,30.22,0,6.65,0.2
KLaL_cation_pi_RCCE_opt_0p1.xyz,Nucleus 41H :,-0.11608,-1.76989,-11.58662,27.44,34.62,24.63,23.06,-118.27,57.98,-37.56,142.77,-24.16,61.54,23.06,24.63,34.62,0,11.56,-0.73
KLaL_cation_pi_RCCE_opt_0p1.xyz,Nucleus 44H :,-0.34726,-0.74504,-10.66249,23.76,28.28,22.87,20.13,61.71,-85.64,-40.43,-35.76,107.35,64.05,20.13,22.87,28.28,0,8.15,-0.33
KLaL_cation_pi_RCCE_opt_0p1.xyz,Nucleus 46H :,0.48968,-0.37756,-10.07614,24.14,20.42,26.15,25.85,71.16,-29.18,-68.59,-45.42,55.31,89.14,20.42,25.85,26.15,0,5.73,0.9
KLaL_cation_pi_RCCE_opt_0p1.xyz,Nucleus 48H :,-1.61623,-0.22215,-10.4753,23.72,28.17,22.87,20.11,66.36,-47.22,-5.84,-39.8,69.94,27.71,20.11,22.87,28.17,0,8.06,-0.32
KLaL_cation_pi_RCCE_opt_0p1.xyz,Nucleus 53H :,-1.78286,0.55559,-9.73755,30.0,30.39,38.16,21.46,5.68,90.86,111.08,-76.06,-58.06,16.52,21.46,30.39,38.16,0,16.7,0.07
KLaL_cation_pi_RCCE_opt_0p1.xyz,Nucleus 55H :,-2.67282,-0.71904,-11.20753,28.64,22.4,26.15,37.38,-26.99,26.61,88.53,50.66,0.73,-53.61,22.4,26.15,37.38,0,14.98,-0.5
KLaL_cation_pi_RCCE_opt_0p1.xyz,Nucleus 56H :,-3.67284,-0.32653,-11.04041,29.87,39.94,22.76,26.92,-58.87,38.65,101.63,81.72,0.69,-74.2,22.76,26.92,39.94,0,17.18,-0.52
KLaL_cation_pi_RCCE_opt_0p1.xyz,Nucleus 58H :,-2.50759,-1.75085,-12.13052,30.2,38.09,30.65,21.86,14.84,50.43,122.36,-100.27,16.0,-12.76,21.86,30.65,38.09,0,16.23,0.08
KLaL_cation_pi_RCCE_opt_0p1.xyz,Nucleus 60H :,-1.21105,-2.26606,-12.34584,28.63,22.41,26.13,37.36,97.38,68.93,22.66,-72.21,-41.08,10.22,22.41,26.13,37.36,0,14.95,-0.5
KLaL_cation_pi_RCCE_opt_0p1.xyz,Nucleus 61H :,2.06614,-2.26271,-14.33433,29.85,39.97,22.78,26.8,143.45,4.62,92.74,-120.09,22.44,-53.6,22.78,26.8,39.97,0,17.19,-0.53
KLaL_cation_pi_RCCE_opt_0p1.xyz,Nucleus 62H :,-3.05617,-3.70143,-15.43508,25.99,37.35,18.64,21.98,23.8,41.32,66.24,-2.33,-11.96,-39.1,18.64,21.98,37.35,0,18.71,-0.64
KLaL_cation_pi_RCCE_opt_0p1.xyz,Nucleus 63H :,-0.20716,-3.15713,-16.57412,24.59,35.79,22.31,15.68,85.82,38.03,11.36,-51.9,-16.19,6.67,15.68,22.31,35.79,0,20.11,-0.34
KLaL_cation_pi_RCCE_opt_0p1.xyz,Nucleus 64H :,-3.64618,-2.26946,-12.97424,27.76,42.37,19.44,21.48,77.61,-20.71,8.51,-37.3,41.9,13.28,19.44,21.48,42.37,0,22.93,-0.82
KLaL_cation_pi_RCCE_opt_0p1.xyz,Nucleus 65H :,-4.58558,-2.02912,-12.46536,24.27,36.4,14.4,22.01,19.24,38.56,50.65,7.43,-11.44,-31.63,14.4,22.01,36.4,0,22.0,-0.31
KLaL_cation_pi_RCCE_opt_0p1.xyz,Nucleus 2C :,-3.63086,-3.36289,-13.04152,152.11,135.19,163.54,157.61,303.76,171.79,228.86,-10.34,-151.11,-86.63,135.19,157.61,163.54,0,28.35,0.58
KLaL_cation_pi_RCCE_opt_0p1.xyz,Nucleus 5C :,-3.67186,-1.63971,-14.35326,43.65,162.44,12.33,-43.81,297.03,259.27,277.55,-106.86,-278.99,-317.04,-43.81,12.33,162.44,0,206.25,-0.46
KLaL_cation_pi_RCCE_opt_0p1.xyz,Nucleus 6C :,-3.9616,-0.28059,-14.4534,46.34,165.51,-59.44,32.96,206.87,328.68,291.62,-66.88,-370.71,-250.55,-59.44,32.96,165.51,0,224.95,-0.18
KLaL_cation_pi_RCCE_opt_0p1.xyz,Nucleus 8C :,-4.26639,0.26235,-13.56389,54.62,177.27,-56.22,42.82,220.63,338.4,286.28,-70.82,-264.41,-346.22,-56.22,42.82,177.27,0,233.49,-0.15
KLaL_cation_pi_RCCE_opt_0p1.xyz,Nucleus 10C :,-3.86508,0.37227,-15.67146,43.82,166.1,29.19,-63.82,224.32,347.47,298.58,-106.07,-350.66,-282.16,-63.82,29.19,166.1,0,229.92,-0.19
KLaL_cation_pi_RCCE_opt_0p1.xyz,Nucleus 12C :,-4.13466,1.42199,-15.74103,43.19,164.14,-39.95,5.37,233.08,314.52,271.65,-79.63,-333.47,-276.59,-39.95,5.37,164.14,0,204.09,-0.56
KLaL_cation_pi_RCCE_opt_0p1.xyz,Nucleus 13C :,-3.41889,-0.29236,-16.78652,152.52,134.42,164.56,158.58,342.1,245.91,285.32,-90.09,-177.74,-147.95,134.42,158.58,164.56,0,30.14,0.6
KLaL_cation_pi_RCCE_opt_0p1.xyz,Nucleus 16C :,-3.30176,0.23385,-17.72915,43.53,161.19,-29.11,-1.49,319.47,261.26,234.97,-85.54,-347.41,-252.16,-29.11,-1.49,161.19,0,190.3,-0.71
KLaL_cation_pi_RCCE_opt_0p1.xyz,Nucleus 17C :,-3.10266,-1.66591,-16.73126,44.76,-59.76,37.1,156.93,344.33,282.91,257.92,-379.55,-245.8,-125.55,-59.76,37.1,156.93,0,216.69,-0.11
KLaL_cation_pi_RCCE_opt_0p1.xyz,Nucleus 19C :,-2.49736,-2.31516,-17.95972,58.89,176.28,48.31,-47.93,328.85,238.72,284.13,-107.81,-279.39,-287.84,-47.93,48.31,176.28,0,224.21,-0.14
KLaL_cation_pi_RCCE_opt_0p1.xyz,Nucleus 21C :,-2.47907,-3.407,-17.86462,49.11,-53.18,43.17,157.35,358.88,253.38,266.77,-383.74,-107.64,-240.31,-53.18,43.17,157.35,0,210.53,-0.08
KLaL_cation_pi_RCCE_opt_0p1.xyz,Nucleus 23C :,-3.14888,-2.11605,-18.81737,47.03,156.06,-31.92,16.95,333.88,254.0,284.86,-354.07,-268.67,-108.91,-31.92,16.95,156.06,0,187.98,-0.48
KLaL_cation_pi_RCCE_opt_0p1.xyz,Nucleus 24C :,-1.12737,-1.77181,-18.26735,22.12,121.64,13.55,-68.82,248.35,287.2,306.96,-163.95,-283.86,-328.33,-68.82,13.55,121.64,0,190.46,-0.13
KLaL_cation_pi_RCCE_opt_0p1.xyz,Nucleus 25C :,-0.91658,-0.74033,-19.18898,21.92,110.68,-59.76,14.85,220.09,289.22,269.15,-110.38,-338.99,-263.32,-59.76,14.85,110.68,0,170.44,-0.12
KLaL_cation_pi_RCCE_opt_0p1.xyz,Nucleus 28C :,-1.75776,-0.38293,-19.77633,152.96,135.37,164.74,158.77,329.68,215.01,271.06,-167.34,-73.62,-115.9,135.37,158.77,164.74,0,29.37,0.59
KLaL_cation_pi_RCCE_opt_0p1.xyz,Nucleus 31C :,0.34176,-0.19192,-19.37488,41.58,163.92,6.42,-45.61,209.84,282.66,257.05,-68.93,-245.06,-310.82,-45.61,6.42,163.92,0,209.53,-0.5
KLaL_cation_pi_RCCE_opt_0p1.xyz,Nucleus 32C :,0.49023,0.59144,-20.11041,44.17,165.86,-61.11,27.75,192.89,326.26,270.77,-105.81,-259.66,-291.96,-61.11,27.75,165.86,0,226.97,-0.22
KLaL_cation_pi_RCCE_opt_0p1.xyz,Nucleus 34C :,1.40802,-0.66952,-18.64383,50.42,178.46,-62.13,34.93,328.32,177.64,243.22,-47.12,-342.17,-208.63,-62.13,34.93,178.46,0,240.59,-0.19
KLaL_cation_pi_RCCE_opt_0p1.xyz,Nucleus 36C :,2.40209,-0.26185,-18.80495,44.31,166.54,27.63,-61.23,144.73,329.83,244.06,-36.81,-353.26,-195.61,-61.23,27.63,166.54,0,227.77,-0.22
KLaL_cation_pi_RCCE_opt_0p1.xyz,Nucleus 38C :,1.26331,-1.70665,-17.72336,43.12,163.7,-43.92,9.59,217.97,290.19,307.62,-114.26,-269.44,-302.73,-43.92,9.59,163.7,0,207.62,-0.48
KLaL_cation_pi_RCCE_opt_0p1.xyz,Nucleus 39C :,-0.02275,-2.248,-17.50932,153.87,136.49,165.89,159.24,272.36,143.32,191.86,16.72,-112.99,-49.65,136.49,159.24,165.89,0,29.4,0.55
KLaL_cation_pi_RCCE_opt_0p1.xyz,Nucleus 42C :,-3.29932,-2.31449,-15.5209,45.4,156.38,-34.07,13.88,161.73,239.2,274.72,-53.33,-250.53,-235.6,-34.07,13.88,156.38,0,190.45,-0.5
KLaL_cation_pi_RCCE_opt_0p1.xyz,Nucleus 43C :,-0.634,-0.43327,-14.92549,46.53,-56.96,39.18,157.38,147.46,206.65,290.68,-306.86,-145.08,-53.25,-56.96,39.18,157.38,0,214.34,-0.1
KLaL_cation_pi_RCCE_opt_0p1.xyz,Nucleus 45C :,-0.61955,-0.92075,-14.04083,57.93,176.62,46.26,-49.08,301.73,229.25,212.15,-36.17,-183.32,-349.83,-49.08,46.26,176.62,0,225.7,-0.16
KLaL_cation_pi_RCCE_opt_0p1.xyz,Nucleus 47C :,-0.34639,1.54638,-16.01492,46.81,-55.98,39.29,157.11,176.36,305.83,231.19,-310.06,-190.29,-72.61,-55.98,39.29,157.11,0,213.09,-0.11
KLaL_cation_pi_RCCE_opt_0p1.xyz,Nucleus 49C :,-0.35573,2.55022,-16.04481,46.61,161.65,-24.68,2.85,225.72,260.32,308.15,-100.66,-248.48,-305.23,-24.68,2.85,161.65,0,186.33,-0.7
KLaL_cation_pi_RCCE_opt_0p1.xyz,Nucleus 50C :,-0.07021,1.05851,-16.85674,23.24,-69.48,17.2,122.0,141.67,263.87,283.4,-31.62,-250.93,-336.67,-69.48,17.2,122.0,0,191.48,-0.09
KLaL_cation_pi_RCCE_opt_0p1.xyz,Nucleus 51C :,-0.64706,0.88323,-14.92389,28.5,-58.62,105.29,38.84,150.4,295.93,272.89,-79.51,-227.6,-326.6,-58.62,38.84,105.29,0,163.91,0.19
KLaL_cation_pi_RCCE_opt_0p1.xyz,Nucleus 57C :,-0.16135,-0.90342,-15.68304,29.44,131.96,-30.15,-13.5,237.82,276.28,324.07,-115.45,-286.16,-348.25,-30.15,-13.5,131.96,0,162.11,-0.79
KLaL_cation_pi_RCCE_opt_0p1.xyz,Nucleus 52N :,-0.9608,1.53763,-13.83124,167.2,103.38,198.37,199.84,303.56,350.92,419.84,-282.93,-117.55,-172.24,103.38,198.37,199.84,0,96.46,0.97
KLaL_cation_pi_RCCE_opt_0p1.xyz,Nucleus 54N :,-0.9621,2.54135,-13.79599,177.74,224.51,183.46,125.26,222.34,322.2,391.35,-39.5,-212.26,-150.91,125.26,183.46,224.51,0,99.25,0.17
KLaL_cation_pi_RCCE_opt_0p1.xyz,Nucleus 59N :,-1.16151,1.04139,-12.97253,177.43,224.46,183.4,124.44,411.12,317.25,373.53,-102.18,-224.12,-243.3,124.44,183.4,224.46,0,100.02,0.18
KLaL_cation_pi_RCCE_opt_0p2.xyz,Nucleus 3H :,1.85056,-3.65399,-14.42354,27.65,34.63,24.83,23.48,-82.38,77.75,24.56,108.7,2.16,-47.85,23.48,24.83,34.63,0,11.15,-0.76
KLaL_cation_pi_RCCE_opt_0p2.xyz,Nucleus 4H :,-1.00867,-3.16908,-13.28325,26.87,23.27,27.35,29.98,-57.95,15.22,85.17,82.82,12.84,-57.51,23.27,27.35,29.98,0,6.71,0.21
KLaL_cation_pi_RCCE_opt_0p2.xyz,Nucleus 7H :,2.41198,-2.20461,-16.88088,24.32,29.05,23.43,20.49,-53.83,64.72,97.62,78.75,-39.61,-74.68,20.49,23.43,29.05,0,8.56,-0.31
KLaL_cation_pi_RCCE_opt_0p2.xyz,Nucleus 9H :,3.34765,-1.9455,-17.38756,24.76,21.06,26.35,26.86,4.37,94.1,70.48,21.53,-67.85,-48.34,21.06,26.35,26.86,0,5.8,0.82
KLaL_cation_pi_RCCE_opt_0p2.xyz,Nucleus 11H :,2.39691,-3.29532,-16.81784,24.22,29.08,20.36,23.21,142.98,56.81,32.06,-118.76,-31.9,-8.54,20.36,23.21,29.08,0,8.72,-0.35
KLaL_cation_pi_RCCE_opt_0p2.xyz,Nucleus 14H :,2.4252,-1.57784,-15.50033,26.22,22.93,29.48,26.25,17.49,92.95,66.75,8.74,-68.88,-38.39,22.93,26.25,29.48,0,6.55,0.01
KLaL_cation_pi_RCCE_opt_0p2.xyz,Nucleus 15H :,2.68791,-0.21348,-15.39687,27.85,34.91,25.13,23.5,135.29,36.87,59.58,-108.63,-3.77,-35.79,23.5,25.13,34.91,0,11.41,-0.72
KLaL_cation_pi_RCCE_opt_0p2.xyz,Nucleus 18H :,2.98968,0.34051,-16.28164,23.65,28.06,22.7,20.19,124.78,85.21,36.79,-102.75,-63.36,-9.74,20.19,22.7,28.06,0,7.87,-0.36
KLaL_cation_pi_RCCE_opt_0p2.xyz,Nucleus 20H :,2.57849,0.43438,-14.17723,24.22,20.53,26.24,25.9,88.87,101.39,35.08,-62.84,-80.53,-9.29,20.53,25.9,26.24,0,5.71,0.88
KLaL_cation_pi_RCCE_opt_0p2.xyz,Nucleus 22H :,2.82822,1.48929,-14.10622,23.92,23.14,20.19,28.44,121.3,24.84,70.31,-98.08,2.84,-49.44,20.19,23.14,28.44,0,8.25,-0.28
KLaL_cation_pi_RCCE_opt_0p2.xyz,Nucleus 29H :,2.14561,-0.24168,-13.06379,27.48,34.53,24.72,23.19,129.76,8.26,26.97,-101.63,22.54,-3.44,23.19,24.72,34.53,0,11.34,-0.73
KLaL_cation_pi_RCCE_opt_0p2.xyz,Nucleus 30H :,2.02109,0.28044,-12.11936,26.99,23.27,27.55,30.15,4.6,91.4,62.44,22.8,-66.04,-34.24,23.27,27.55,30.15,0,6.88,0.24
KLaL_cation_pi_RCCE_opt_0p2.xyz,Nucleus 33H :,1.85668,-1.6211,-13.12241,24.12,28.88,23.08,20.41,132.78,18.79,4.33,-108.61,5.82,19.26,20.41,23.08,28.88,0,8.47,-0.37
KLaL_cation_pi_RCCE_opt_0p2.xyz,Nucleus 35H :,1.26442,-2.28521,-11.89554,24.51,20.76,26.06,26.72,91.19,-27.99,5.81,-65.19,52.85,16.86,20.76,26.06,26.72,0,5.96,0.78
KLaL_cation_pi_RCCE_opt_0p2.xyz,Nucleus 37H :,1.23472,-3.36627,-12.0504,24.2,29.07,20.44,23.09,-92.91,84.19,16.28,117.84,-60.72,7.92,20.44,23.09,29.07,0,8.63,-0.39
KLaL_cation_pi_RCCE_opt_0p2.xyz,Nucleus 40H :,1.91674,-2.09261,-11.03742,27.12,23.58,30.21,27.57,60.04,-71.51,-21.47,-31.38,95.09,50.59,23.58,27.57,30.21,0,6.63,0.2
KLaL_cation_pi_RCCE_opt_0p2.xyz,Nucleus 41H :,-0.11608,-1.76989,-11.58662,27.44,34.6,24.65,23.08,-117.9,57.97,-37.76,142.4,-24.16,61.78,23.08,24.65,34.6,0,11.52,-0.73
KLaL_cation_pi_RCCE_opt_0p2.xyz,Nucleus 44H :,-0.34726,-0.74504,-10.66249,23.77,28.28,22.86,20.16,61.62,-86.04,-40.9,-35.69,107.78,64.53,20.16,22.86,28.28,0,8.12,-0.34
KLaL_cation_pi_RCCE_opt_0p2.xyz,Nucleus 46H :,0.48968,-0.37756,-10.07614,24.16,20.46,26.16,25.85,71.23,-30.01,-68.32,-45.49,56.16,88.9,20.46,25.85,26.16,0,5.7,0.89
KLaL_cation_pi_RCCE_opt_0p2.xyz,Nucleus 48H :,-1.61623,-0.22215,-10.4753,23.73,28.18,22.86,20.14,66.2,-47.6,-6.28,-39.67,70.34,28.19,20.14,22.86,28.18,0,8.04,-0.32
KLaL_cation_pi_RCCE_opt_0p2.xyz,Nucleus 53H :,-1.78286,0.55559,-9.73755,30.23,30.54,38.35,21.8,7.34,92.37,111.55,15.14,-58.85,-76.84,21.8,30.54,38.35,0,16.55,0.06
KLaL_cation_pi_RCCE_opt_0p2.xyz,Nucleus 55H :,-2.67282,-0.71904,-11.20753,28.53,22.22,25.98,37.39,-28.01,26.4,87.28,51.52,0.77,-52.38,22.22,25.98,37.39,0,15.17,-0.5
KLaL_cation_pi_RCCE_opt_0p2.xyz,Nucleus 56H :,-3.67284,-0.32653,-11.04041,29.66,39.46,22.54,26.97,-59.68,38.03,99.14,82.31,0.78,-71.61,22.54,26.97,39.46,0,16.92,-0.48
KLaL_cation_pi_RCCE_opt_0p2.xyz,Nucleus 58H :,-2.50759,-1.75085,-12.13052,30.41,38.32,30.75,22.17,14.59,50.03,120.17,-97.76,16.38,-12.18,22.17,30.75,38.32,0,16.15,0.06
KLaL_cation_pi_RCCE_opt_0p2.xyz,Nucleus 60H :,-1.21105,-2.26606,-12.34584,28.52,22.24,25.96,37.37,96.6,68.01,22.62,-71.5,-40.32,10.17,22.24,25.96,37.37,0,15.13,-0.51
KLaL_cation_pi_RCCE_opt_0p2.xyz,Nucleus 61H :,2.06614,-2.26271,-14.33433,29.63,39.49,22.55,26.86,143.35,5.75,91.73,-120.23,21.39,-53.08,22.55,26.86,39.49,0,16.94,-0.49
KLaL_cation_pi_RCCE_opt_0p2.xyz,Nucleus 62H :,-3.05617,-3.70143,-15.43508,25.97,37.35,18.58,21.98,23.31,41.23,66.58,-1.86,-11.96,-39.4,18.58,21.98,37.35,0,18.77,-0.64
KLaL_cation_pi_RCCE_opt_0p2.xyz,Nucleus 63H :,-0.20716,-3.15713,-16.57412,24.61,35.79,22.38,15.67,85.24,39.01,11.98,-51.33,-17.02,5.96,15.67,22.38,35.79,0,20.12,-0.33
KLaL_cation_pi_RCCE_opt_0p2.xyz,Nucleus 64H :,-3.64618,-2.26946,-12.97424,27.76,42.35,19.45,21.49,77.4,-20.4,8.51,-37.11,41.59,13.31,19.45,21.49,42.35,0,22.9,-0.82
KLaL_cation_pi_RCCE_opt_0p2.xyz,Nucleus 65H :,-4.58558,-2.02912,-12.46536,24.28,36.4,14.37,22.08,18.84,51.15,39.0,7.61,-11.98,-31.78,14.37,22.08,36.4,0,22.03,-0.3
KLaL_cation_pi_RCCE_opt_0p2.xyz,Nucleus 2C :,-3.63086,-3.36289,-13.04152,152.09,135.19,163.5,157.58,302.32,171.15,227.33,-9.74,-149.36,-85.45,135.19,157.58,163.5,0,28.31,0.58
KLaL_cation_pi_RCCE_opt_0p2.xyz,Nucleus 5C :,-3.67186,-1.63971,-14.35326,43.32,162.36,11.4,-43.79,259.08,296.38,278.43,-107.53,-279.59,-316.79,-43.79,11.4,162.36,0,206.15,-0.46
KLaL_cation_pi_RCCE_opt_0p2.xyz,Nucleus 6C :,-3.9616,-0.28059,-14.4534,46.71,165.48,-59.14,33.78,209.39,327.24,292.44,-68.68,-370.27,-250.01,-59.14,33.78,165.48,0,224.62,-0.17
KLaL_cation_pi_RCCE_opt_0p2.xyz,Nucleus 8C :,-4.26639,0.26235,-13.56389,54.88,177.25,-56.33,43.73,221.02,338.27,286.79,-71.16,-263.47,-346.8,-56.33,43.73,177.25,0,233.58,-0.14
KLaL_cation_pi_RCCE_opt_0p2.xyz,Nucleus 10C :,-3.86508,0.37227,-15.67146,44.09,166.07,29.81,-63.62,225.83,346.37,297.21,-106.37,-349.08,-281.7,-63.62,29.81,166.07,0,229.69,-0.19
KLaL_cation_pi_RCCE_opt_0p2.xyz,Nucleus 12C :,-4.13466,1.42199,-15.74103,42.87,164.06,-39.91,4.47,231.69,315.07,271.73,-78.89,-333.1,-277.88,-39.91,4.47,164.06,0,203.97,-0.56
KLaL_cation_pi_RCCE_opt_0p2.xyz,Nucleus 13C :,-3.41889,-0.29236,-16.78652,152.5,134.43,164.51,158.55,341.65,245.84,286.76,-90.04,-177.32,-149.4,134.43,158.55,164.51,0,30.08,0.6
KLaL_cation_pi_RCCE_opt_0p2.xyz,Nucleus 16C :,-3.30176,0.23385,-17.72915,43.59,161.12,-28.93,-1.41,319.53,260.98,236.37,-85.48,-347.31,-253.33,-28.93,-1.41,161.12,0,190.05,-0.71
KLaL_cation_pi_RCCE_opt_0p2.xyz,Nucleus 17C :,-3.10266,-1.66591,-16.73126,44.83,-59.75,37.36,156.88,345.0,282.96,258.28,-380.6,-245.56,-125.6,-59.75,37.36,156.88,0,216.63,-0.1
KLaL_cation_pi_RCCE_opt_0p2.xyz,Nucleus 19C :,-2.49736,-2.31516,-17.95972,59.16,176.21,48.93,-47.65,329.63,238.06,283.88,-107.79,-279.22,-287.06,-47.65,48.93,176.21,0,223.86,-0.14
KLaL_cation_pi_RCCE_opt_0p2.xyz,Nucleus 21C :,-2.47907,-3.407,-17.86462,49.16,-53.22,43.41,157.3,359.91,253.23,266.94,-385.27,-107.18,-240.13,-53.22,43.41,157.3,0,210.52,-0.08
KLaL_cation_pi_RCCE_opt_0p2.xyz,Nucleus 23C :,-3.14888,-2.11605,-18.81737,47.13,155.97,-31.59,17.02,333.34,254.38,285.65,-353.59,-269.75,-108.63,-31.59,17.02,155.97,0,187.56,-0.48
KLaL_cation_pi_RCCE_opt_0p2.xyz,Nucleus 24C :,-1.12737,-1.77181,-18.26735,21.82,121.53,12.89,-68.97,249.11,307.16,286.4,-162.15,-285.55,-329.53,-68.97,12.89,121.53,0,190.5,-0.14
KLaL_cation_pi_RCCE_opt_0p2.xyz,Nucleus 25C :,-0.91658,-0.74033,-19.18898,21.81,110.56,-59.58,14.45,220.58,289.55,270.34,-111.21,-340.23,-263.6,-59.58,14.45,110.56,0,170.14,-0.13
KLaL_cation_pi_RCCE_opt_0p2.xyz,Nucleus 28C :,-1.75776,-0.38293,-19.77633,152.93,135.38,164.72,158.7,329.2,214.86,271.6,-166.95,-73.42,-116.48,135.38,158.7,164.72,0,29.34,0.59
KLaL_cation_pi_RCCE_opt_0p2.xyz,Nucleus 31C :,0.34176,-0.19192,-19.37488,41.33,163.85,5.68,-45.54,211.27,281.9,257.12,-68.89,-246.0,-311.41,-45.54,5.68,163.85,0,209.39,-0.51
KLaL_cation_pi_RCCE_opt_0p2.xyz,Nucleus 32C :,0.49023,0.59144,-20.11041,44.38,165.81,-61.06,28.38,191.75,326.43,270.53,-104.62,-259.32,-291.64,-61.06,28.38,165.81,0,226.87,-0.21
KLaL_cation_pi_RCCE_opt_0p2.xyz,Nucleus 34C :,1.40802,-0.66952,-18.64383,50.61,178.43,-62.29,35.7,328.48,177.13,243.1,-47.21,-341.8,-207.86,-62.29,35.7,178.43,0,240.72,-0.19
KLaL_cation_pi_RCCE_opt_0p2.xyz,Nucleus 36C :,2.40209,-0.26185,-18.80495,44.45,166.5,28.11,-61.25,144.45,330.27,243.2,-37.29,-353.3,-193.97,-61.25,28.11,166.5,0,227.75,-0.22
KLaL_cation_pi_RCCE_opt_0p2.xyz,Nucleus 38C :,1.26331,-1.70665,-17.72336,42.93,163.62,-43.76,8.93,219.01,289.35,307.36,-114.88,-268.25,-303.81,-43.76,8.93,163.62,0,207.38,-0.49
KLaL_cation_pi_RCCE_opt_0p2.xyz,Nucleus 39C :,-0.02275,-2.248,-17.50932,153.86,136.52,165.88,159.17,272.19,142.76,191.86,16.97,-112.89,-49.31,136.52,159.17,165.88,0,29.36,0.54
KLaL_cation_pi_RCCE_opt_0p2.xyz,Nucleus 42C :,-3.29932,-2.31449,-15.5209,45.52,156.29,-33.74,14.0,162.6,237.46,274.51,-53.29,-249.86,-234.87,-33.74,14.0,156.29,0,190.03,-0.5
KLaL_cation_pi_RCCE_opt_0p2.xyz,Nucleus 43C :,-0.634,-0.33327,-14.92549,46.62,-56.94,39.44,157.35,145.92,206.31,290.28,-305.68,-143.56,-53.43,-56.94,39.44,157.35,0,214.29,-0.1
KLaL_cation_pi_RCCE_opt_0p2.xyz,Nucleus 45C :,-0.61955,-0.82075,-14.04083,58.2,176.56,46.85,-48.82,303.28,227.78,212.02,-36.04,-181.22,-351.23,-48.82,46.85,176.56,0,225.38,-0.15
KLaL_cation_pi_RCCE_opt_0p2.xyz,Nucleus 47C :,-0.34639,1.64638,-16.01492,46.84,-56.04,39.49,157.06,174.63,305.53,230.97,-308.75,-189.17,-72.69,-56.04,39.49,157.06,0,213.1,-0.1
KLaL_cation_pi_RCCE_opt_0p2.xyz,Nucleus 49C :,-0.35573,2.65022,-16.04481,46.6,161.58,-24.55,2.77,224.55,260.35,306.39,-101.05,-246.62,-303.84,-24.55,2.77,161.58,0,186.13,-0.71
KLaL_cation_pi_RCCE_opt_0p2.xyz,Nucleus 50C :,-0.07021,1.15851,-16.85674,22.98,-69.6,16.63,121.91,143.2,263.48,281.92,-33.41,-249.87,-336.38,-69.6,16.63,121.91,0,191.51,-0.1
KLaL_cation_pi_RCCE_opt_0p2.xyz,Nucleus 51C :,-0.64706,0.98323,-14.92389,28.52,-58.27,105.2,38.63,151.55,295.83,272.21,-80.75,-227.53,-325.76,-58.27,38.63,105.2,0,163.47,0.19
KLaL_cation_pi_RCCE_opt_0p2.xyz,Nucleus 57C :,-0.16135,-0.80342,-15.68304,29.3,131.7,-30.42,-13.38,237.64,276.8,323.06,-115.78,-286.44,-347.38,-30.42,-13.38,131.7,0,162.12,-0.79
KLaL_cation_pi_RCCE_opt_0p2.xyz,Nucleus 52N :,-0.9608,1.63763,-13.83124,168.88,104.36,198.9,203.37,304.02,350.82,419.32,-281.0,-117.97,-168.58,104.36,198.9,203.37,0,99.01,0.91
KLaL_cation_pi_RCCE_opt_0p2.xyz,Nucleus 54N :,-0.9621,2.64135,-13.79599,177.91,225.39,183.09,125.26,221.17,322.15,389.96,-38.71,-210.63,-150.21,125.26,183.09,225.39,0,100.13,0.16
KLaL_cation_pi_RCCE_opt_0p2.xyz,Nucleus 59N :,-1.16151,1.14139,-12.97253,177.58,225.29,183.04,124.41,411.18,317.51,372.37,-101.44,-224.34,-242.53,124.41,183.04,225.29,0,100.88,0.16
KLaL_cation_pi_RCCE_opt_0p3.xyz,Nucleus 3H :,1.85056,-3.65399,-14.42354,27.66,34.61,24.85,23.51,-82.18,77.52,24.04,108.5,2.63,-47.55,23.51,24.85,34.61,0,11.1,-0.76
KLaL_cation_pi_RCCE_opt_0p3.xyz,Nucleus 4H :,-1.00867,-3.16908,-13.28325,26.87,23.28,27.34,29.98,-57.69,14.8,84.89,82.57,13.28,-57.25,23.28,27.34,29.98,0,6.7,0.21
KLaL_cation_pi_RCCE_opt_0p3.xyz,Nucleus 7H :,2.41198,-2.20461,-16.88088,24.32,29.03,23.43,20.51,-52.77,64.6,97.67,77.68,-39.47,-74.75,20.51,23.43,29.03,0,8.52,-0.31
KLaL_cation_pi_RCCE_opt_0p3.xyz,Nucleus 9H :,3.34765,-1.9455,-17.38756,24.76,21.13,26.32,26.84,4.21,94.74,70.78,21.69,-68.49,-48.64,21.13,26.32,26.84,0,5.71,0.82
KLaL_cation_pi_RCCE_opt_0p3.xyz,Nucleus 11H :,2.39691,-3.29532,-16.81784,24.22,29.07,20.39,23.21,142.27,56.8,32.32,-118.01,-31.88,-8.84,20.39,23.21,29.07,0,8.68,-0.35
KLaL_cation_pi_RCCE_opt_0p3.xyz,Nucleus 14H :,2.4252,-1.57784,-15.50033,26.22,22.95,29.49,26.23,17.42,92.65,67.27,8.79,-68.58,-38.89,22.95,26.23,29.49,0,6.54,0.0
KLaL_cation_pi_RCCE_opt_0p3.xyz,Nucleus 15H :,2.68791,-0.21348,-15.39687,27.86,34.89,25.15,23.54,134.94,36.91,60.04,-108.28,-3.82,-36.21,23.54,25.15,34.89,0,11.35,-0.72
KLaL_cation_pi_RCCE_opt_0p3.xyz,Nucleus 18H :,2.98968,0.34051,-16.28164,23.66,28.06,22.69,20.22,124.97,85.42,36.99,-102.94,-63.52,-9.95,20.22,22.69,28.06,0,7.84,-0.37
KLaL_cation_pi_RCCE_opt_0p3.xyz,Nucleus 20H :,2.57849,0.43438,-14.17723,24.24,20.57,26.26,25.9,89.26,101.33,35.06,-63.25,-80.41,-9.27,20.57,25.9,26.26,0,5.69,0.88
KLaL_cation_pi_RCCE_opt_0p3.xyz,Nucleus 22H :,2.82822,1.48929,-14.10622,23.93,23.13,20.22,28.44,121.71,24.84,70.48,-98.5,2.82,-49.57,20.22,23.13,28.44,0,8.22,-0.29
KLaL_cation_pi_RCCE_opt_0p3.xyz,Nucleus 29H :,2.14561,-0.24168,-13.06379,27.49,34.51,24.74,23.22,129.31,8.4,27.32,-101.19,22.42,-3.79,23.22,24.74,34.51,0,11.29,-0.73
KLaL_cation_pi_RCCE_opt_0p3.xyz,Nucleus 30H :,2.02109,0.28044,-12.11936,26.99,23.28,27.55,30.14,4.72,91.13,62.73,22.68,-65.81,-34.48,23.28,27.55,30.14,0,6.86,0.24
KLaL_cation_pi_RCCE_opt_0p3.xyz,Nucleus 33H :,1.85668,-1.6211,-13.12241,24.12,28.87,23.06,20.43,132.6,18.24,4.31,-108.44,6.35,19.29,20.43,23.06,28.87,0,8.44,-0.38
KLaL_cation_pi_RCCE_opt_0p3.xyz,Nucleus 35H :,1.26442,-2.28521,-11.89554,24.51,20.83,26.02,26.69,91.47,-28.75,5.6,-65.49,53.66,17.05,20.83,26.02,26.69,0,5.86,0.77
KLaL_cation_pi_RCCE_opt_0p3.xyz,Nucleus 37H :,1.23472,-3.36627,-12.0504,24.2,29.06,20.46,23.07,-92.66,84.17,16.43,117.62,-60.73,7.75,20.46,23.07,29.06,0,8.6,-0.39
KLaL_cation_pi_RCCE_opt_0p3.xyz,Nucleus 40H :,1.91674,-2.09261,-11.03742,27.12,23.59,30.2,27.56,60.07,-71.31,-21.3,-31.45,94.9,50.43,23.59,27.56,30.2,0,6.61,0.2
KLaL_cation_pi_RCCE_opt_0p3.xyz,Nucleus 41H :,-0.11608,-1.76989,-11.58662,27.45,34.58,24.66,23.1,-117.5,57.97,-37.83,142.0,-24.16,61.87,23.1,24.66,34.58,0,11.48,-0.73
KLaL_cation_pi_RCCE_opt_0p3.xyz,Nucleus 44H :,-0.34726,-0.74504,-10.66249,23.77,28.28,22.86,20.18,61.52,-86.49,-41.18,-35.62,108.26,64.84,20.18,22.86,28.28,0,8.1,-0.34
KLaL_cation_pi_RCCE_opt_0p3.xyz,Nucleus 46H :,0.48968,-0.37756,-10.07614,24.17,20.5,26.18,25.84,71.3,-30.83,-68.14,-45.57,57.0,88.75,20.5,25.84,26.18,0,5.68,0.88
KLaL_cation_pi_RCCE_opt_0p3.xyz,Nucleus 48H :,-1.61623,-0.22215,-10.4753,23.73,28.18,22.84,20.17,66.08,-48.02,-6.91,-39.59,70.78,28.84,20.17,22.84,28.18,0,8.01,-0.33
KLaL_cation_pi_RCCE_opt_0p3.xyz,Nucleus 53H :,-1.78286,0.55559,-9.73755,30.43,38.5,30.64,22.14,8.8,93.55,112.19,13.95,-59.38,-77.84,22.14,30.64,38.5,0,16.36,0.04
KLaL_cation_pi_RCCE_opt_0p3.xyz,Nucleus 55H :,-2.67282,-0.71904,-11.20753,28.42,22.06,25.82,37.39,-29.06,26.2,86.12,52.43,0.82,-51.23,22.06,25.82,37.39,0,15.33,-0.51
KLaL_cation_pi_RCCE_opt_0p3.xyz,Nucleus 56H :,-3.67284,-0.32653,-11.04041,29.45,39.01,22.33,27.02,-60.54,37.32,96.83,82.97,0.97,-69.2,22.33,27.02,39.01,0,16.68,-0.44
KLaL_cation_pi_RCCE_opt_0p3.xyz,Nucleus 58H :,-2.50759,-1.75085,-12.13052,30.59,38.49,30.79,22.48,14.49,49.61,118.1,-95.36,16.55,-11.62,22.48,30.79,38.49,0,16.01,0.04
KLaL_cation_pi_RCCE_opt_0p3.xyz,Nucleus 60H :,-1.21105,-2.26606,-12.34584,28.42,22.08,25.81,37.38,95.82,67.12,22.57,-70.79,-39.58,10.12,22.08,25.81,37.38,0,15.3,-0.51
KLaL_cation_pi_RCCE_opt_0p3.xyz,Nucleus 61H :,2.06614,-2.26271,-14.33433,29.43,39.03,22.35,26.91,143.29,6.77,90.8,-120.4,20.43,-52.62,22.35,26.91,39.03,0,16.68,-0.45
KLaL_cation_pi_RCCE_opt_0p3.xyz,Nucleus 62H :,-3.05617,-3.70143,-15.43508,25.95,37.35,18.52,21.97,22.87,41.2,66.86,-1.41,-11.97,-39.72,18.52,21.97,37.35,0,18.83,-0.63
KLaL_cation_pi_RCCE_opt_0p3.xyz,Nucleus 63H :,-0.20716,-3.15713,-16.57412,24.62,35.79,22.44,15.64,84.97,39.73,12.47,-51.07,-17.62,5.39,15.64,22.44,35.79,0,20.15,-0.32
KLaL_cation_pi_RCCE_opt_0p3.xyz,Nucleus 64H :,-3.64618,-2.26946,-12.97424,27.77,42.32,19.47,21.51,77.25,-20.16,8.49,-36.97,41.34,13.36,19.47,21.51,42.32,0,22.85,-0.82
KLaL_cation_pi_RCCE_opt_0p3.xyz,Nucleus 65H :,-4.58558,-2.02912,-12.46536,24.29,36.41,14.33,22.14,18.79,51.52,39.14,7.52,-12.17,-31.92,14.33,22.14,36.41,0,22.08,-0.29
KLaL_cation_pi_RCCE_opt_0p3.xyz,Nucleus 2C :,-3.63086,-3.36289,-13.04152,152.06,135.18,163.46,157.54,301.18,170.67,225.87,-9.28,-147.94,-84.32,135.18,157.54,163.46,0,28.28,0.58
KLaL_cation_pi_RCCE_opt_0p3.xyz,Nucleus 5C :,-3.67186,-1.63971,-14.35326,43.0,162.3,10.48,-43.79,258.93,296.05,279.05,-107.91,-280.6,-316.54,-43.79,10.48,162.3,0,206.09,-0.47
KLaL_cation_pi_RCCE_opt_0p3.xyz,Nucleus 6C :,-3.9616,-0.28059,-14.4534,47.06,165.45,-58.84,34.58,211.94,325.72,293.16,-70.39,-369.79,-249.45,-58.84,34.58,165.45,0,224.29,-0.17
KLaL_cation_pi_RCCE_opt_0p3.xyz,Nucleus 8C :,-4.26639,0.26235,-13.56389,55.14,177.22,-56.41,44.61,221.66,337.86,287.28,-71.67,-262.36,-347.34,-56.41,44.61,177.22,0,233.63,-0.14
KLaL_cation_pi_RCCE_opt_0p3.xyz,Nucleus 10C :,-3.86508,0.37227,-15.67146,44.36,166.05,30.42,-63.39,227.48,345.1,295.79,-106.74,-347.35,-281.2,-63.39,30.42,166.05,0,229.44,-0.18
KLaL_cation_pi_RCCE_opt_0p3.xyz,Nucleus 12C :,-4.13466,1.42199,-15.74103,42.56,163.99,-39.88,3.56,230.53,315.4,271.73,-78.32,-332.83,-278.84,-39.88,3.56,163.99,0,203.87,-0.57
KLaL_cation_pi_RCCE_opt_0p3.xyz,Nucleus 13C :,-3.41889,-0.29236,-16.78652,152.47,134.43,164.47,158.51,341.34,245.78,288.11,-89.99,-177.04,-150.77,134.43,158.51,164.47,0,30.04,0.6
KLaL_cation_pi_RCCE_opt_0p3.xyz,Nucleus 16C :,-3.30176,0.23385,-17.72915,43.62,161.05,-28.8,-1.4,319.33,260.86,238.14,-85.58,-347.01,-254.88,-28.8,-1.4,161.05,0,189.85,-0.71
KLaL_cation_pi_RCCE_opt_0p3.xyz,Nucleus 17C :,-3.10266,-1.66591,-16.73126,44.91,-59.73,37.63,156.83,345.86,283.03,258.66,-381.71,-245.46,-125.66,-59.73,37.63,156.83,0,216.56,-0.1
KLaL_cation_pi_RCCE_opt_0p3.xyz,Nucleus 19C :,-2.49736,-2.31516,-17.95972,59.43,176.14,49.53,-47.38,330.56,237.44,283.65,-107.77,-279.11,-286.49,-47.38,49.53,176.14,0,223.52,-0.13
KLaL_cation_pi_RCCE_opt_0p3.xyz,Nucleus 21C :,-2.47907,-3.407,-17.86462,49.21,-53.27,43.65,157.25,361.01,253.15,267.07,-387.03,-106.66,-239.92,-53.27,43.65,157.25,0,210.52,-0.08
KLaL_cation_pi_RCCE_opt_0p3.xyz,Nucleus 23C :,-3.14888,-2.11605,-18.81737,47.22,155.88,-31.29,17.07,332.32,255.09,286.22,-352.79,-270.58,-108.61,-31.29,17.07,155.88,0,187.17,-0.48
KLaL_cation_pi_RCCE_opt_0p3.xyz,Nucleus 24C :,-1.12737,-1.77181,-18.26735,21.52,121.43,12.3,-69.16,249.75,307.74,286.19,-160.58,-287.32,-331.21,-69.16,12.3,121.43,0,190.59,-0.15
KLaL_cation_pi_RCCE_opt_0p3.xyz,Nucleus 25C :,-0.91658,-0.74033,-19.18898,21.68,110.45,-59.48,14.08,220.98,290.05,271.37,-111.99,-341.48,-263.87,-59.48,14.08,110.45,0,169.93,-0.13
KLaL_cation_pi_RCCE_opt_0p3.xyz,Nucleus 28C :,-1.75776,-0.38293,-19.77633,152.91,135.39,164.71,158.63,328.8,214.69,272.18,-166.63,-73.18,-117.13,135.39,158.63,164.71,0,29.32,0.59
KLaL_cation_pi_RCCE_opt_0p3.xyz,Nucleus 31C :,0.34176,-0.19192,-19.37488,41.1,163.79,4.96,-45.44,212.3,281.27,256.83,-68.54,-246.68,-311.88,-45.44,4.96,163.79,0,209.23,-0.52
KLaL_cation_pi_RCCE_opt_0p3.xyz,Nucleus 32C :,0.49023,0.59144,-20.11041,44.57,165.77,-61.01,28.95,191.11,326.54,270.22,-103.7,-259.01,-291.45,-61.01,28.95,165.77,0,226.78,-0.21
KLaL_cation_pi_RCCE_opt_0p3.xyz,Nucleus 34C :,1.40802,-0.66952,-18.64383,50.79,178.4,-62.44,36.42,328.62,176.65,242.95,-47.28,-341.38,-207.18,-62.44,36.42,178.4,0,240.84,-0.18
KLaL_cation_pi_RCCE_opt_0p3.xyz,Nucleus 36C :,2.40209,-0.26185,-18.80495,44.59,166.46,28.56,-61.25,144.48,330.53,242.63,-37.84,-353.42,-192.61,-61.25,28.56,166.46,0,227.71,-0.21
KLaL_cation_pi_RCCE_opt_0p3.xyz,Nucleus 38C :,1.26331,-1.70665,-17.72336,42.74,163.56,-43.6,8.27,219.77,288.97,307.47,-115.62,-267.25,-305.1,-43.6,8.27,163.56,0,207.16,-0.5
KLaL_cation_pi_RCCE_opt_0p3.xyz,Nucleus 39C :,-0.02275,-2.248,-17.50932,153.84,136.55,165.87,159.09,272.0,142.44,192.01,17.07,-112.79,-49.22,136.55,159.09,165.87,0,29.32,0.54
KLaL_cation_pi_RCCE_opt_0p3.xyz,Nucleus 42C :,-3.29932,-2.31449,-15.5209,45.62,156.2,-33.44,14.09,163.69,235.97,274.25,-53.11,-249.79,-234.15,-33.44,14.09,156.2,0,189.64,-0.5
KLaL_cation_pi_RCCE_opt_0p3.xyz,Nucleus 43C :,-0.634,-0.23327,-14.92549,46.7,-56.93,39.71,157.31,144.57,206.08,289.83,-304.34,-142.26,-53.78,-56.93,39.71,157.31,0,214.24,-0.1
KLaL_cation_pi_RCCE_opt_0p3.xyz,Nucleus 45C :,-0.61955,-0.72075,-14.04083,58.44,176.49,47.41,-48.57,304.63,226.09,211.97,-35.93,-178.99,-352.43,-48.57,47.41,176.49,0,225.06,-0.15
KLaL_cation_pi_RCCE_opt_0p3.xyz,Nucleus 47C :,-0.34639,1.74638,-16.01492,46.87,-56.09,39.7,157.01,172.54,305.0,230.9,-307.38,-187.6,-72.83,-56.09,39.7,157.01,0,213.1,-0.1
KLaL_cation_pi_RCCE_opt_0p3.xyz,Nucleus 49C :,-0.35573,2.75022,-16.04481,46.57,161.51,-24.45,2.64,224.18,260.4,303.88,-101.18,-245.66,-301.91,-24.45,2.64,161.51,0,185.96,-0.71
KLaL_cation_pi_RCCE_opt_0p3.xyz,Nucleus 50C :,-0.07021,1.25851,-16.85674,22.73,-69.74,16.12,121.81,144.09,262.9,280.42,-34.74,-248.85,-335.63,-69.74,16.12,121.81,0,191.55,-0.1
KLaL_cation_pi_RCCE_opt_0p3.xyz,Nucleus 51C :,-0.64706,1.08323,-14.92389,28.53,-57.97,105.11,38.44,152.56,295.78,271.65,-81.84,-227.47,-325.09,-57.97,38.44,105.11,0,163.08,0.18
KLaL_cation_pi_RCCE_opt_0p3.xyz,Nucleus 57C :,-0.16135,-0.70342,-15.68304,29.19,131.39,-30.57,-13.24,237.54,277.03,322.24,-116.17,-286.46,-346.59,-30.57,-13.24,131.39,0,161.96,-0.79
KLaL_cation_pi_RCCE_opt_0p3.xyz,Nucleus 52N :,-0.9608,1.73763,-13.83124,170.12,104.91,198.92,206.52,304.4,350.74,419.26,-279.87,-118.35,-165.84,104.91,198.92,206.52,0,101.61,0.85
KLaL_cation_pi_RCCE_opt_0p3.xyz,Nucleus 54N :,-0.9621,2.74135,-13.79599,178.09,226.2,182.82,125.24,219.9,322.11,388.75,-37.72,-209.22,-149.55,125.24,182.82,226.2,0,100.96,0.14
KLaL_cation_pi_RCCE_opt_0p3.xyz,Nucleus 59N :,-1.16151,1.24139,-12.97253,177.73,226.06,182.77,124.37,411.3,317.66,371.22,-100.68,-224.55,-241.74,124.37,182.77,226.06,0,101.69,0.15
KLaL_cation_pi_RCCE_opt_0p4.xyz,Nucleus 3H :,1.85056,-3.65399,-14.42354,27.66,34.58,24.87,23.54,-81.93,77.36,23.45,108.24,3.19,-47.32,23.54,24.87,34.58,0,11.04,-0.76
KLaL_cation_pi_RCCE_opt_0p4.xyz,Nucleus 4H :,-1.00867,-3.16908,-13.28325,26.87,23.3,27.33,29.98,-57.52,14.32,84.69,82.4,13.78,-57.06,23.3,27.33,29.98,0,6.68,0.21
KLaL_cation_pi_RCCE_opt_0p4.xyz,Nucleus 7H :,2.41198,-2.20461,-16.88088,24.33,29.02,23.42,20.54,-51.62,64.38,97.73,76.53,-39.23,-74.8,20.54,23.42,29.02,0,8.48,-0.32
KLaL_cation_pi_RCCE_opt_0p4.xyz,Nucleus 9H :,3.34765,-1.9455,-17.38756,24.77,21.2,26.28,26.82,4.16,95.28,71.04,21.72,-69.03,-48.89,21.2,26.28,26.82,0,5.62,0.81
KLaL_cation_pi_RCCE_opt_0p4.xyz,Nucleus 11H :,2.39691,-3.29532,-16.81784,24.23,29.06,20.42,23.2,141.48,56.86,32.52,-117.17,-31.94,-9.07,20.42,23.2,29.06,0,8.64,-0.36
KLaL_cation_pi_RCCE_opt_0p4.xyz,Nucleus 14H :,2.4252,-1.57784,-15.50033,26.22,22.96,29.5,26.21,17.34,92.47,67.79,8.85,-68.39,-39.39,22.96,26.21,29.5,0,6.54,-0.0
KLaL_cation_pi_RCCE_opt_0p4.xyz,Nucleus 15H :,2.68791,-0.21348,-15.39687,27.87,34.87,25.17,23.57,134.63,36.93,60.51,-107.96,-3.85,-36.65,23.57,25.17,34.87,0,11.3,-0.72
KLaL_cation_pi_RCCE_opt_0p4.xyz,Nucleus 18H :,2.98968,0.34051,-16.28164,23.66,28.07,22.68,20.24,125.16,85.67,37.17,-103.13,-63.72,-10.16,20.24,22.68,28.07,0,7.83,-0.38
KLaL_cation_pi_RCCE_opt_0p4.xyz,Nucleus 20H :,2.57849,0.43438,-14.17723,24.26,20.61,26.28,25.89,89.67,101.37,35.04,-63.66,-80.39,-9.26,20.61,25.89,26.28,0,5.67,0.86
KLaL_cation_pi_RCCE_opt_0p4.xyz,Nucleus 22H :,2.82822,1.48929,-14.10622,23.94,23.12,20.25,28.44,122.13,24.83,70.67,-98.92,2.81,-49.7,20.25,23.12,28.44,0,8.19,-0.3
KLaL_cation_pi_RCCE_opt_0p4.xyz,Nucleus 29H :,2.14561,-0.24168,-13.06379,27.5,34.49,24.76,23.24,128.93,8.49,27.7,-100.83,22.34,-4.15,23.24,24.76,34.49,0,11.25,-0.73
KLaL_cation_pi_RCCE_opt_0p4.xyz,Nucleus 30H :,2.02109,0.28044,-12.11936,26.99,23.29,27.55,30.13,4.79,90.93,62.98,22.6,-65.65,-34.69,23.29,27.55,30.13,0,6.84,0.25
KLaL_cation_pi_RCCE_opt_0p4.xyz,Nucleus 33H :,1.85668,-1.6211,-13.12241,24.12,28.86,23.04,20.45,132.44,17.83,4.32,-108.28,6.73,19.29,20.45,23.04,28.86,0,8.41,-0.39
KLaL_cation_pi_RCCE_opt_0p4.xyz,Nucleus 35H :,1.26442,-2.28521,-11.89554,24.51,20.89,25.97,26.68,91.7,-29.42,5.44,-65.76,54.38,17.2,20.89,25.97,26.68,0,5.79,0.76
KLaL_cation_pi_RCCE_opt_0p4.xyz,Nucleus 37H :,1.23472,-3.36627,-12.0504,24.19,29.06,20.47,23.04,-92.33,84.2,16.62,117.32,-60.8,7.55,20.47,23.04,29.06,0,8.59,-0.4
KLaL_cation_pi_RCCE_opt_0p4.xyz,Nucleus 40H :,1.91674,-2.09261,-11.03742,27.12,23.61,30.19,27.56,60.14,-71.12,-21.09,-31.54,94.73,50.24,23.61,27.56,30.19,0,6.58,0.2
KLaL_cation_pi_RCCE_opt_0p4.xyz,Nucleus 41H :,-0.11608,-1.76989,-11.58662,27.45,34.56,24.68,23.12,-117.11,57.99,-37.76,141.6,-24.19,61.82,23.12,24.68,34.56,0,11.44,-0.73
KLaL_cation_pi_RCCE_opt_0p4.xyz,Nucleus 44H :,-0.34726,-0.74504,-10.66249,23.79,28.29,22.86,20.21,61.43,-86.97,-41.28,-35.56,108.77,64.97,20.21,22.86,28.29,0,8.08,-0.35
KLaL_cation_pi_RCCE_opt_0p4.xyz,Nucleus 46H :,0.48968,-0.37756,-10.07614,24.19,20.53,26.2,25.83,71.35,-31.66,-68.16,-45.62,57.85,88.8,20.53,25.83,26.2,0,5.67,0.87
KLaL_cation_pi_RCCE_opt_0p4.xyz,Nucleus 48H :,-1.61623,-0.22215,-10.4753,23.74,28.19,22.83,20.2,65.98,-48.4,-7.66,-39.52,71.2,29.63,20.2,22.83,28.19,0,7.99,-0.34
KLaL_cation_pi_RCCE_opt_0p4.xyz,Nucleus 53H :,-1.78286,0.55559,-9.73755,30.58,38.59,30.68,22.47,10.03,94.47,112.94,13.0,-78.94,-59.76,22.47,30.68,38.59,0,16.12,0.02
KLaL_cation_pi_RCCE_opt_0p4.xyz,Nucleus 55H :,-2.67282,-0.71904,-11.20753,28.33,21.92,25.69,37.39,-30.14,25.99,85.03,53.37,0.9,-50.15,21.92,25.69,37.39,0,15.47,-0.51
KLaL_cation_pi_RCCE_opt_0p4.xyz,Nucleus 56H :,-3.67284,-0.32653,-11.04041,29.26,38.58,22.14,27.05,-61.46,36.55,94.68,83.71,1.25,-66.95,22.14,27.05,38.58,0,16.44,-0.4
KLaL_cation_pi_RCCE_opt_0p4.xyz,Nucleus 58H :,-2.50759,-1.75085,-12.13052,30.73,38.62,30.78,22.8,14.48,49.15,116.2,-93.14,16.57,-11.06,22.8,30.78,38.62,0,15.82,0.01
KLaL_cation_pi_RCCE_opt_0p4.xyz,Nucleus 60H :,-1.21105,-2.26606,-12.34584,28.33,37.37,21.94,25.67,95.04,66.27,22.51,-70.06,-38.86,10.08,21.94,25.67,37.37,0,15.43,-0.52
KLaL_cation_pi_RCCE_opt_0p4.xyz,Nucleus 61H :,2.06614,-2.26271,-14.33433,29.23,38.6,22.15,26.94,143.27,7.69,89.92,-120.59,19.57,-52.18,22.15,26.94,38.6,0,16.45,-0.42
KLaL_cation_pi_RCCE_opt_0p4.xyz,Nucleus 62H :,-3.05617,-3.70143,-15.43508,25.93,37.36,18.46,21.96,22.51,41.27,67.08,-1.0,-12.06,-40.02,18.46,21.96,37.36,0,18.9,-0.63
KLaL_cation_pi_RCCE_opt_0p4.xyz,Nucleus 63H :,-0.20716,-3.15713,-16.57412,24.63,35.78,22.5,15.61,84.92,40.3,12.81,-51.04,-18.06,4.97,15.61,22.5,35.78,0,20.17,-0.32
KLaL_cation_pi_RCCE_opt_0p4.xyz,Nucleus 64H :,-3.64618,-2.26946,-12.97424,27.77,42.29,19.49,21.52,77.15,-19.97,8.45,-36.89,41.14,13.41,19.49,21.52,42.29,0,22.8,-0.82
KLaL_cation_pi_RCCE_opt_0p4.xyz,Nucleus 65H :,-4.58558,-2.02912,-12.46536,24.3,36.42,22.2,14.28,19.04,51.82,39.04,7.13,-11.98,-32.16,14.28,22.2,36.42,0,22.14,-0.28
KLaL_cation_pi_RCCE_opt_0p4.xyz,Nucleus 2C :,-3.63086,-3.36289,-13.04152,152.03,135.17,163.43,157.5,300.27,170.41,224.3,-9.02,-146.75,-83.11,135.17,157.5,163.43,0,28.26,0.58
KLaL_cation_pi_RCCE_opt_0p4.xyz,Nucleus 5C :,-3.67186,-1.63971,-14.35326,42.67,162.24,9.57,-43.79,259.01,295.97,279.31,-108.14,-281.84,-316.28,-43.79,9.57,162.24,0,206.03,-0.48
KLaL_cation_pi_RCCE_opt_0p4.xyz,Nucleus 6C :,-3.9616,-0.28059,-14.4534,47.42,165.43,-58.52,35.36,214.53,324.23,293.67,-72.04,-369.31,-248.82,-58.52,35.36,165.43,0,223.95,-0.16
KLaL_cation_pi_RCCE_opt_0p4.xyz,Nucleus 8C :,-4.26639,0.26235,-13.56389,55.39,177.19,-56.46,45.45,222.5,337.25,287.73,-72.33,-261.14,-347.81,-56.46,45.45,177.19,0,233.65,-0.13
KLaL_cation_pi_RCCE_opt_0p4.xyz,Nucleus 10C :,-3.86508,0.37227,-15.67146,44.63,166.02,31.02,-63.14,229.14,343.72,294.38,-107.12,-345.55,-280.67,-63.14,31.02,166.02,0,229.16,-0.18
KLaL_cation_pi_RCCE_opt_0p4.xyz,Nucleus 12C :,-4.13466,1.42199,-15.74103,42.24,163.93,-39.87,2.66,229.61,315.43,271.62,-77.81,-332.58,-279.54,-39.87,2.66,163.93,0,203.8,-0.58
KLaL_cation_pi_RCCE_opt_0p4.xyz,Nucleus 13C :,-3.41889,-0.29236,-16.78652,152.45,134.44,164.44,158.48,341.17,245.76,289.34,-89.98,-176.9,-152.03,134.44,158.48,164.44,0,30.0,0.6
KLaL_cation_pi_RCCE_opt_0p4.xyz,Nucleus 16C :,-3.30176,0.23385,-17.72915,43.62,160.99,-28.7,-1.44,319.0,260.92,240.26,-85.93,-346.65,-256.75,-28.7,-1.44,160.99,0,189.69,-0.71
KLaL_cation_pi_RCCE_opt_0p4.xyz,Nucleus 17C :,-3.10266,-1.66591,-16.73126,44.99,-59.71,37.91,156.78,346.72,283.16,259.05,-382.72,-245.47,-125.77,-59.71,37.91,156.78,0,216.49,-0.1
KLaL_cation_pi_RCCE_opt_0p4.xyz,Nucleus 19C :,-2.49736,-2.31516,-17.95972,59.68,176.06,50.09,-47.12,331.69,236.99,283.44,-107.73,-279.08,-286.27,-47.12,50.09,176.06,0,223.18,-0.13
KLaL_cation_pi_RCCE_opt_0p4.xyz,Nucleus 21C :,-2.47907,-3.407,-17.86462,49.25,-53.32,43.89,157.19,362.05,267.18,253.21,-388.8,-106.18,-239.7,-53.32,43.89,157.19,0,210.51,-0.08
KLaL_cation_pi_RCCE_opt_0p4.xyz,Nucleus 23C :,-3.14888,-2.11605,-18.81737,47.29,155.8,-31.03,17.1,331.02,255.99,286.6,-351.79,-271.2,-108.75,-31.03,17.1,155.8,0,186.83,-0.48
KLaL_cation_pi_RCCE_opt_0p4.xyz,Nucleus 24C :,-1.12737,-1.77181,-18.26735,21.25,121.33,11.78,-69.37,250.19,308.61,286.81,-159.3,-289.14,-333.44,-69.37,11.78,121.33,0,190.7,-0.15
KLaL_cation_pi_RCCE_opt_0p4.xyz,Nucleus 25C :,-0.91658,-0.74033,-19.18898,21.56,110.35,-59.43,13.76,221.13,290.62,272.27,-112.57,-342.64,-264.13,-59.43,13.76,110.35,0,169.78,-0.14
KLaL_cation_pi_RCCE_opt_0p4.xyz,Nucleus 28C :,-1.75776,-0.38293,-19.77633,152.88,135.41,164.69,158.55,328.43,214.67,272.6,-166.32,-73.03,-117.7,135.41,158.55,164.69,0,29.28,0.58
KLaL_cation_pi_RCCE_opt_0p4.xyz,Nucleus 31C :,0.34176,-0.19192,-19.37488,40.89,163.74,4.26,-45.34,213.15,280.75,256.19,-68.1,-247.07,-312.26,-45.34,4.26,163.74,0,209.08,-0.53
KLaL_cation_pi_RCCE_opt_0p4.xyz,Nucleus 32C :,0.49023,0.59144,-20.11041,44.76,165.74,-60.95,29.48,190.87,326.54,269.78,-102.93,-258.65,-291.34,-60.95,29.48,165.74,0,226.69,-0.2
KLaL_cation_pi_RCCE_opt_0p4.xyz,Nucleus 34C :,1.40802,-0.66952,-18.64383,50.96,178.36,-62.56,37.07,328.62,176.27,242.67,-47.24,-340.86,-206.59,-62.56,37.07,178.36,0,240.92,-0.17
KLaL_cation_pi_RCCE_opt_0p4.xyz,Nucleus 36C :,2.40209,-0.26185,-18.80495,44.72,166.42,28.97,-61.22,145.0,330.63,242.38,-38.65,-353.63,-191.57,-61.22,28.97,166.42,0,227.64,-0.21
KLaL_cation_pi_RCCE_opt_0p4.xyz,Nucleus 38C :,1.26331,-1.70665,-17.72336,42.57,163.51,-43.44,7.63,220.24,288.84,307.88,-116.27,-266.46,-306.53,-43.44,7.63,163.51,0,206.95,-0.51
KLaL_cation_pi_RCCE_opt_0p4.xyz,Nucleus 39C :,-0.02275,-2.248,-17.50932,153.82,136.58,165.87,159.02,271.84,142.31,192.28,17.07,-112.71,-49.32,136.58,159.02,165.87,0,29.29,0.53
KLaL_cation_pi_RCCE_opt_0p4.xyz,Nucleus 42C :,-3.29932,-2.31449,-15.5209,45.7,156.13,-33.17,14.15,164.9,234.72,273.97,-52.88,-250.17,-233.43,-33.17,14.15,156.13,0,189.3,-0.5
KLaL_cation_pi_RCCE_opt_0p4.xyz,Nucleus 43C :,-0.634,-0.13327,-14.92549,46.78,-56.91,39.98,157.26,143.42,205.92,289.36,-302.98,-141.21,-54.15,-56.91,39.98,157.26,0,214.17,-0.1
KLaL_cation_pi_RCCE_opt_0p4.xyz,Nucleus 45C :,-0.61955,-0.62075,-14.04083,58.68,176.42,47.95,-48.33,305.52,224.14,211.93,-35.84,-176.55,-353.18,-48.33,47.95,176.42,0,224.75,-0.14
KLaL_cation_pi_RCCE_opt_0p4.xyz,Nucleus 47C :,-0.34639,1.84638,-16.01492,46.91,-56.14,39.92,156.96,170.45,304.27,230.88,-305.89,-185.92,-73.05,-56.14,39.92,156.96,0,213.1,-0.1
KLaL_cation_pi_RCCE_opt_0p4.xyz,Nucleus 49C :,-0.35573,2.85022,-16.04481,46.51,161.46,-24.4,2.48,224.44,260.44,300.73,-101.05,-245.34,-299.68,-24.4,2.48,161.46,0,185.86,-0.71
KLaL_cation_pi_RCCE_opt_0p4.xyz,Nucleus 50C :,-0.07021,1.35851,-16.85674,22.5,-69.91,15.68,121.72,144.38,261.96,278.81,-35.68,-247.8,-334.18,-69.91,15.68,121.72,0,191.63,-0.11
KLaL_cation_pi_RCCE_opt_0p4.xyz,Nucleus 51C :,-0.64706,1.18323,-14.92389,28.54,105.03,-57.71,38.29,153.51,295.75,271.23,-82.84,-227.41,-324.63,-57.71,38.29,105.03,0,162.74,0.18
KLaL_cation_pi_RCCE_opt_0p4.xyz,Nucleus 57C :,-0.16135,-0.60342,-15.68304,29.1,131.03,-30.61,-13.11,237.46,277.01,321.54,-116.58,-286.27,-345.85,-30.61,-13.11,131.03,0,161.64,-0.78
KLaL_cation_pi_RCCE_opt_0p4.xyz,Nucleus 52N :,-0.9608,1.83763,-13.83124,170.94,105.1,198.86,208.85,419.51,350.66,304.71,-279.38,-118.77,-163.91,105.1,198.86,208.85,0,103.75,0.81
KLaL_cation_pi_RCCE_opt_0p4.xyz,Nucleus 54N :,-0.9621,2.84135,-13.79599,178.27,226.96,182.62,125.23,218.57,322.04,387.68,-36.59,-207.98,-148.93,125.23,182.62,226.96,0,101.73,0.13
KLaL_cation_pi_RCCE_opt_0p4.xyz,Nucleus 59N :,-1.16151,1.34139,-12.97253,177.9,226.78,182.59,124.34,411.41,317.75,370.1,-224.7,-240.94,-99.92,124.34,182.59,226.78,0,102.44,0.14
KLaL_cation_pi_RCCE_opt_0p5.xyz,Nucleus 3H :,1.85056,-3.65399,-14.42354,27.67,34.56,24.89,23.57,-81.64,77.24,22.87,107.95,-47.13,3.73,23.57,24.89,34.56,0,10.99,-0.76
KLaL_cation_pi_RCCE_opt_0p5.xyz,Nucleus 4H :,-1.00867,-3.16908,-13.28325,26.87,23.32,27.32,29.98,-57.45,13.83,84.57,82.35,14.29,-56.97,23.32,27.32,29.98,0,6.66,0.2
KLaL_cation_pi_RCCE_opt_0p5.xyz,Nucleus 7H :,2.41198,-2.20461,-16.88088,24.33,29.02,23.41,20.56,-50.45,64.08,97.77,75.36,-38.91,-74.86,20.56,23.41,29.02,0,8.46,-0.33
KLaL_cation_pi_RCCE_opt_0p5.xyz,Nucleus 9H :,3.34765,-1.9455,-17.38756,24.77,21.26,26.23,26.81,4.25,95.74,71.24,21.63,-69.48,-49.07,21.26,26.23,26.81,0,5.55,0.79
KLaL_cation_pi_RCCE_opt_0p5.xyz,Nucleus 11H :,2.39691,-3.29532,-16.81784,24.23,29.07,20.44,23.19,140.58,56.99,32.66,-116.22,-32.07,-9.24,20.44,23.19,29.07,0,8.63,-0.36
KLaL_cation_pi_RCCE_opt_0p5.xyz,Nucleus 14H :,2.4252,-1.57784,-15.50033,26.22,22.97,29.51,26.19,17.26,92.41,68.28,8.9,-68.33,-39.85,22.97,26.19,29.51,0,6.54,-0.01
KLaL_cation_pi_RCCE_opt_0p5.xyz,Nucleus 15H :,2.68791,-0.21348,-15.39687,27.88,34.85,25.19,23.6,134.34,36.95,60.98,-107.68,-3.87,-37.08,23.6,25.19,34.85,0,11.25,-0.72
KLaL_cation_pi_RCCE_opt_0p5.xyz,Nucleus 18H :,2.98968,0.34051,-16.28164,23.67,28.07,22.68,20.27,125.31,85.92,37.32,-103.27,-63.92,-10.34,20.27,22.68,28.07,0,7.8,-0.38
KLaL_cation_pi_RCCE_opt_0p5.xyz,Nucleus 20H :,2.57849,0.43438,-14.17723,24.28,20.65,26.3,25.88,90.09,101.52,35.03,-64.09,-80.47,-9.25,20.65,25.88,26.3,0,5.65,0.85
KLaL_cation_pi_RCCE_opt_0p5.xyz,Nucleus 22H :,2.82822,1.48929,-14.10622,23.95,23.11,20.28,28.45,122.52,24.8,70.93,-99.3,2.8,-49.92,20.28,23.11,28.45,0,8.17,-0.31
KLaL_cation_pi_RCCE_opt_0p5.xyz,Nucleus 29H :,2.14561,-0.24168,-13.06379,27.5,34.47,24.77,23.27,128.61,8.55,28.1,-100.51,22.3,-4.52,23.27,24.77,34.47,0,11.2,-0.73
KLaL_cation_pi_RCCE_opt_0p5.xyz,Nucleus 30H :,2.02109,0.28044,-12.11936,26.99,23.3,27.55,30.12,4.81,90.82,63.26,22.58,-65.56,-34.92,23.3,27.55,30.12,0,6.82,0.25
KLaL_cation_pi_RCCE_opt_0p5.xyz,Nucleus 33H :,1.85668,-1.6211,-13.12241,24.11,28.86,23.01,20.47,132.29,17.6,4.36,-108.14,6.96,19.27,20.47,23.01,28.86,0,8.39,-0.39
KLaL_cation_pi_RCCE_opt_0p5.xyz,Nucleus 35H :,1.26442,-2.28521,-11.89554,24.51,20.95,25.92,26.67,91.89,-30.0,5.33,-65.99,55.0,17.29,20.95,25.92,26.67,0,5.72,0.74
KLaL_cation_pi_RCCE_opt_0p5.xyz,Nucleus 37H :,1.23472,-3.36627,-12.0504,24.19,29.07,20.49,23.02,-91.97,84.26,16.82,117.0,7.36,-60.89,20.49,23.02,29.07,0,8.58,-0.41
KLaL_cation_pi_RCCE_opt_0p5.xyz,Nucleus 40H :,1.91674,-2.09261,-11.03742,27.12,23.62,30.19,27.56,60.23,-70.96,-20.92,-31.67,94.58,50.1,23.62,27.56,30.19,0,6.57,0.2
KLaL_cation_pi_RCCE_opt_0p5.xyz,Nucleus 41H :,-0.11608,-1.76989,-11.58662,27.46,34.54,24.7,23.14,-116.7,58.01,-37.61,141.2,-24.22,61.7,23.14,24.7,34.54,0,11.4,-0.73
KLaL_cation_pi_RCCE_opt_0p5.xyz,Nucleus 44H :,-0.34726,-0.74504,-10.66249,23.79,28.29,22.86,20.23,61.34,-87.43,-41.27,-35.49,109.23,65.0,20.23,22.86,28.29,0,8.06,-0.35
KLaL_cation_pi_RCCE_opt_0p5.xyz,Nucleus 46H :,0.48968,-0.37756,-10.07614,24.2,20.57,26.22,25.82,71.37,-32.5,-68.31,-45.65,58.72,88.99,20.57,25.82,26.22,0,5.65,0.86
KLaL_cation_pi_RCCE_opt_0p5.xyz,Nucleus 48H :,-1.61623,-0.22215,-10.4753,23.75,28.19,22.82,20.23,65.92,-48.73,-8.45,-39.51,71.55,30.45,20.23,22.82,28.19,0,7.96,-0.35
KLaL_cation_pi_RCCE_opt_0p5.xyz,Nucleus 53H :,-1.78286,0.55559,-9.73755,30.7,38.65,30.66,22.8,10.96,95.2,113.75,12.34,-80.09,-60.05,22.8,30.66,38.65,0,15.85,-0.01
KLaL_cation_pi_RCCE_opt_0p5.xyz,Nucleus 55H :,-2.67282,-0.71904,-11.20753,28.24,21.79,25.56,37.38,-31.22,25.77,84.0,54.33,0.99,-49.13,21.79,25.56,37.38,0,15.59,-0.52
KLaL_cation_pi_RCCE_opt_0p5.xyz,Nucleus 56H :,-3.67284,-0.32653,-11.04041,29.07,38.18,21.96,27.08,-62.45,35.74,92.67,84.52,1.58,-64.85,21.96,27.08,38.18,0,16.22,-0.37
KLaL_cation_pi_RCCE_opt_0p5.xyz,Nucleus 58H :,-2.50759,-1.75085,-12.13052,30.85,38.7,30.73,23.11,14.54,48.66,114.49,-91.11,16.44,-10.49,23.11,30.73,38.7,0,15.59,-0.02
KLaL_cation_pi_RCCE_opt_0p5.xyz,Nucleus 60H :,-1.21105,-2.26606,-12.34584,28.24,37.36,21.8,25.55,94.24,65.46,22.44,-69.32,-38.17,10.06,21.8,25.55,37.36,0,15.56,-0.52
KLaL_cation_pi_RCCE_opt_0p5.xyz,Nucleus 61H :,2.06614,-2.26271,-14.33433,29.04,38.19,21.96,26.98,143.34,8.52,89.09,-120.85,18.8,-51.77,21.96,26.98,38.19,0,16.23,-0.38
KLaL_cation_pi_RCCE_opt_0p5.xyz,Nucleus 62H :,-3.05617,-3.70143,-15.43508,25.91,37.36,18.41,21.95,22.21,41.37,67.27,-0.64,-12.18,-40.32,18.41,21.95,37.36,0,18.95,-0.63
KLaL_cation_pi_RCCE_opt_0p5.xyz,Nucleus 63H :,-0.20716,-3.15713,-16.57412,24.64,35.77,22.56,15.58,85.02,40.72,12.99,-51.19,-18.34,4.71,15.58,22.56,35.77,0,20.19,-0.31
KLaL_cation_pi_RCCE_opt_0p5.xyz,Nucleus 64H :,-3.64618,-2.26946,-12.97424,27.77,42.27,19.5,21.54,77.12,-19.83,8.4,-36.87,41.01,13.48,19.5,21.54,42.27,0,22.77,-0.82
KLaL_cation_pi_RCCE_opt_0p5.xyz,Nucleus 65H :,-4.58558,-2.02912,-12.46536,24.3,36.42,22.26,14.23,19.48,52.08,38.74,6.53,-11.48,-32.42,14.23,22.26,36.42,0,22.19,-0.28
KLaL_cation_pi_RCCE_opt_0p5.xyz,Nucleus 2C :,-3.63086,-3.36289,-13.04152,152.01,135.15,163.41,157.46,299.57,170.22,223.03,-8.84,-145.83,-82.13,135.15,157.46,163.41,0,28.26,0.58
KLaL_cation_pi_RCCE_opt_0p5.xyz,Nucleus 5C :,-3.67186,-1.63971,-14.35326,42.36,162.2,8.7,-43.83,259.32,296.02,279.16,-108.15,-283.23,-316.05,-43.83,8.7,162.2,0,206.03,-0.49
KLaL_cation_pi_RCCE_opt_0p5.xyz,Nucleus 6C :,-3.9616,-0.28059,-14.4534,47.77,165.4,-58.19,36.1,217.2,322.97,293.95,-73.81,-368.86,-248.15,-58.19,36.1,165.4,0,223.59,-0.16
KLaL_cation_pi_RCCE_opt_0p5.xyz,Nucleus 8C :,-4.26639,0.26235,-13.56389,55.63,177.15,-56.49,46.23,223.59,336.38,288.02,-73.1,-259.79,-348.22,-56.49,46.23,177.15,0,233.64,-0.12
KLaL_cation_pi_RCCE_opt_0p5.xyz,Nucleus 10C :,-3.86508,0.37227,-15.67146,44.91,166.0,31.6,-62.86,230.75,342.24,293.0,-107.48,-343.7,-280.07,-62.86,31.6,166.0,0,228.86,-0.17
KLaL_cation_pi_RCCE_opt_0p5.xyz,Nucleus 12C :,-4.13466,1.42199,-15.74103,41.92,163.88,-39.89,1.78,229.07,315.33,271.36,-77.58,-332.39,-280.03,-39.89,1.78,163.88,0,203.77,-0.59
KLaL_cation_pi_RCCE_opt_0p5.xyz,Nucleus 13C :,-3.41889,-0.29236,-16.78652,152.43,134.44,164.41,158.44,341.12,245.75,290.4,-89.98,-176.87,-153.12,134.44,158.44,164.41,0,29.97,0.6
KLaL_cation_pi_RCCE_opt_0p5.xyz,Nucleus 16C :,-3.30176,0.23385,-17.72915,43.59,160.94,-28.64,-1.54,318.53,261.2,242.44,-86.4,-346.21,-258.79,-28.64,-1.54,160.94,0,189.58,-0.71
KLaL_cation_pi_RCCE_opt_0p5.xyz,Nucleus 17C :,-3.10266,-1.66591,-16.73126,45.08,-59.69,38.19,156.73,347.51,283.34,259.42,-383.51,-245.61,-125.93,-59.69,38.19,156.73,0,216.42,-0.1
KLaL_cation_pi_RCCE_opt_0p5.xyz,Nucleus 19C :,-2.49736,-2.31516,-17.95972,59.91,175.98,50.63,-46.88,332.91,236.77,283.36,-107.79,-286.4,-279.12,-46.88,50.63,175.98,0,222.86,-0.12
KLaL_cation_pi_RCCE_opt_0p5.xyz,Nucleus 21C :,-2.47907,-3.407,-17.86462,49.3,-53.36,44.13,157.14,362.95,267.25,253.4,-390.43,-105.75,-239.52,-53.36,44.13,157.14,0,210.5,-0.07
KLaL_cation_pi_RCCE_opt_0p5.xyz,Nucleus 23C :,-3.14888,-2.11605,-18.81737,47.35,155.72,-30.79,17.11,329.67,287.01,257.05,-350.78,-271.77,-109.12,-30.79,17.11,155.72,0,186.51,-0.49
KLaL_cation_pi_RCCE_opt_0p5.xyz,Nucleus 24C :,-1.12737,-1.77181,-18.26735,20.98,121.23,11.32,-69.6,250.4,309.61,287.99,-158.2,-290.89,-335.95,-69.6,11.32,121.23,0,190.83,-0.15
KLaL_cation_pi_RCCE_opt_0p5.xyz,Nucleus 25C :,-0.91658,-0.74033,-19.18898,21.43,110.26,-59.44,13.48,221.12,273.12,291.16,-113.07,-343.63,-264.39,-59.44,13.48,110.26,0,169.7,-0.14
KLaL_cation_pi_RCCE_opt_0p5.xyz,Nucleus 28C :,-1.75776,-0.38293,-19.77633,152.86,135.42,164.68,158.48,328.2,214.76,272.96,-166.13,-72.95,-118.26,135.42,158.48,164.68,0,29.26,0.58
KLaL_cation_pi_RCCE_opt_0p5.xyz,Nucleus 31C :,0.34176,-0.19192,-19.37488,40.68,163.7,3.6,-45.25,213.81,280.35,255.36,-67.66,-247.2,-312.59,-45.25,3.6,163.7,0,208.95,-0.53
KLaL_cation_pi_RCCE_opt_0p5.xyz,Nucleus 32C :,0.49023,0.59144,-20.11041,44.93,165.7,-60.87,29.95,191.06,326.42,269.25,-102.41,-258.25,-291.3,-60.87,29.95,165.7,0,226.57,-0.2
KLaL_cation_pi_RCCE_opt_0p5.xyz,Nucleus 34C :,1.40802,-0.66952,-18.64383,51.1,178.32,-62.67,37.64,328.5,176.05,242.31,-47.2,-340.26,-206.09,-62.67,37.64,178.32,0,240.99,-0.17
KLaL_cation_pi_RCCE_opt_0p5.xyz,Nucleus 36C :,2.40209,-0.26185,-18.80495,44.86,166.38,29.35,-61.15,145.88,330.59,242.42,-39.61,-353.88,-190.82,-61.15,29.35,166.38,0,227.53,-0.2
KLaL_cation_pi_RCCE_opt_0p5.xyz,Nucleus 38C :,1.26331,-1.70665,-17.72336,42.39,163.46,-43.3,7.02,220.58,288.93,308.52,-116.93,-265.93,-307.98,-43.3,7.02,163.46,0,206.76,-0.51
KLaL_cation_pi_RCCE_opt_0p5.xyz,Nucleus 39C :,-0.02275,-2.248,-17.50932,153.81,136.61,165.86,158.95,271.71,142.36,192.4,16.98,-112.67,-49.37,136.61,158.95,165.86,0,29.25,0.53
KLaL_cation_pi_RCCE_opt_0p5.xyz,Nucleus 42C :,-3.29932,-2.31449,-15.5209,45.78,156.06,-32.92,14.19,165.83,233.62,273.7,-52.39,-250.83,-232.61,-32.92,14.19,156.06,0,188.98,-0.5
KLaL_cation_pi_RCCE_opt_0p5.xyz,Nucleus 43C :,-0.634,-0.03327,-14.92549,46.86,-56.89,40.26,157.22,142.48,205.7,288.83,-301.59,-140.47,-54.37,-56.89,40.26,157.22,0,214.11,-0.09
KLaL_cation_pi_RCCE_opt_0p5.xyz,Nucleus 45C :,-0.61955,-0.52075,-14.04083,58.9,176.35,48.45,-48.11,305.99,222.0,211.73,-35.63,-173.93,-353.47,-48.11,48.45,176.35,0,224.46,-0.14
KLaL_cation_pi_RCCE_opt_0p5.xyz,Nucleus 47C :,-0.34639,1.94638,-16.01492,46.96,-56.18,40.15,156.9,168.56,303.48,230.85,-304.55,-184.26,-73.21,-56.18,40.15,156.9,0,213.08,-0.1
KLaL_cation_pi_RCCE_opt_0p5.xyz,Nucleus 49C :,-0.35573,2.95022,-16.04481,46.44,161.41,-24.38,2.3,225.2,260.41,297.4,-100.71,-245.59,-297.4,-24.38,2.3,161.41,0,185.79,-0.71
KLaL_cation_pi_RCCE_opt_0p5.xyz,Nucleus 50C :,-0.07021,1.45851,-16.85674,22.28,-70.08,15.28,121.63,144.02,260.84,277.1,-36.17,-246.73,-332.23,-70.08,15.28,121.63,0,191.71,-0.11
KLaL_cation_pi_RCCE_opt_0p5.xyz,Nucleus 51C :,-0.64706,1.28323,-14.92389,28.54,104.96,-57.5,38.17,154.4,295.75,270.84,-83.81,-227.35,-324.2,-57.5,38.17,104.96,0,162.46,0.18
KLaL_cation_pi_RCCE_opt_0p5.xyz,Nucleus 57C :,-0.16135,-0.50342,-15.68304,29.05,130.65,-30.54,-12.97,237.35,276.85,320.94,-116.94,-285.94,-345.12,-30.54,-12.97,130.65,0,161.19,-0.78
KLaL_cation_pi_RCCE_opt_0p5.xyz,Nucleus 52N :,-0.9608,1.93763,-13.83124,171.39,105.01,198.76,210.41,419.93,350.53,305.06,-279.34,-119.35,-162.64,105.01,198.76,210.41,0,105.4,0.78
KLaL_cation_pi_RCCE_opt_0p5.xyz,Nucleus 54N :,-0.9621,2.94135,-13.79599,178.46,227.66,182.48,125.23,217.22,321.93,386.68,-35.35,-206.81,-148.31,125.23,182.48,227.66,0,102.43,0.12
KLaL_cation_pi_RCCE_opt_0p5.xyz,Nucleus 59N :,-1.16151,1.44139,-12.97253,178.08,227.45,182.47,124.32,411.47,317.8,369.04,-99.18,-224.76,-240.13,124.32,182.47,227.45,0,103.13,0.13
KLaL_cation_pi_RCCE_opt_0p6.xyz,Nucleus 3H :,1.85056,-3.65399,-14.42354,27.68,34.54,24.91,23.6,-81.28,77.16,22.29,107.58,-46.99,4.29,23.6,24.91,34.54,0,10.94,-0.76
KLaL_cation_pi_RCCE_opt_0p6.xyz,Nucleus 4H :,-1.00867,-3.16908,-13.28325,26.87,23.33,27.31,29.98,-57.43,13.33,84.51,82.33,14.81,-56.93,23.33,27.31,29.98,0,6.65,0.2
KLaL_cation_pi_RCCE_opt_0p6.xyz,Nucleus 7H :,2.41198,-2.20461,-16.88088,24.34,29.02,23.4,20.59,-49.23,63.72,97.79,74.13,-38.53,-74.88,20.59,23.4,29.02,0,8.43,-0.33
KLaL_cation_pi_RCCE_opt_0p6.xyz,Nucleus 9H :,3.34765,-1.9455,-17.38756,24.77,21.33,26.19,26.8,4.43,96.05,71.38,21.45,-69.79,-49.2,21.33,26.19,26.8,0,5.47,0.78
KLaL_cation_pi_RCCE_opt_0p6.xyz,Nucleus 11H :,2.39691,-3.29532,-16.81784,24.24,29.07,20.47,23.17,139.63,57.18,32.74,-115.23,-32.26,-9.35,20.47,23.17,29.07,0,8.6,-0.37
KLaL_cation_pi_RCCE_opt_0p6.xyz,Nucleus 14H :,2.4252,-1.57784,-15.50033,26.23,22.99,29.52,26.17,17.18,92.45,68.74,8.97,-68.37,-40.28,22.99,26.17,29.52,0,6.53,-0.03
KLaL_cation_pi_RCCE_opt_0p6.xyz,Nucleus 15H :,2.68791,-0.21348,-15.39687,27.89,34.83,25.21,23.63,134.09,36.95,61.4,-107.42,-3.87,-37.47,23.63,25.21,34.83,0,11.2,-0.72
KLaL_cation_pi_RCCE_opt_0p6.xyz,Nucleus 18H :,2.98968,0.34051,-16.28164,23.68,28.07,22.67,20.3,125.4,86.18,37.45,-103.36,-64.13,-10.49,20.3,22.67,28.07,0,7.77,-0.39
KLaL_cation_pi_RCCE_opt_0p6.xyz,Nucleus 20H :,2.57849,0.43438,-14.17723,24.29,20.68,26.32,25.87,90.52,101.76,35.02,-64.53,-80.64,-9.25,20.68,25.87,26.32,0,5.64,0.84
KLaL_cation_pi_RCCE_opt_0p6.xyz,Nucleus 22H :,2.82822,1.48929,-14.10622,23.95,28.45,23.1,20.31,122.88,24.76,71.24,-99.66,2.82,-50.18,20.31,23.1,28.45,0,8.14,-0.31
KLaL_cation_pi_RCCE_opt_0p6.xyz,Nucleus 29H :,2.14561,-0.24168,-13.06379,27.51,34.45,24.79,23.29,128.35,8.58,28.5,-100.26,22.28,-4.91,23.29,24.79,34.45,0,11.16,-0.73
KLaL_cation_pi_RCCE_opt_0p6.xyz,Nucleus 30H :,2.02109,0.28044,-12.11936,26.99,23.32,27.55,30.11,4.8,90.72,63.53,22.59,-65.5,-35.16,23.32,27.55,30.11,0,6.79,0.25
KLaL_cation_pi_RCCE_opt_0p6.xyz,Nucleus 33H :,1.85668,-1.6211,-13.12241,24.11,28.87,22.98,20.49,132.13,17.56,4.42,-108.0,7.0,19.21,20.49,22.98,28.87,0,8.38,-0.4
KLaL_cation_pi_RCCE_opt_0p6.xyz,Nucleus 35H :,1.26442,-2.28521,-11.89554,24.51,21.02,25.86,26.66,92.05,-30.44,5.28,-66.18,55.49,17.34,21.02,25.86,26.66,0,5.64,0.72
KLaL_cation_pi_RCCE_opt_0p6.xyz,Nucleus 37H :,1.23472,-3.36627,-12.0504,24.19,29.08,20.51,22.99,-91.51,84.34,17.02,116.56,7.16,-61.0,20.51,22.99,29.08,0,8.57,-0.42
KLaL_cation_pi_RCCE_opt_0p6.xyz,Nucleus 40H :,1.91674,-2.09261,-11.03742,27.12,23.63,30.18,27.56,60.32,-70.82,-20.74,-31.78,94.46,49.93,23.63,27.56,30.18,0,6.55,0.2
KLaL_cation_pi_RCCE_opt_0p6.xyz,Nucleus 41H :,-0.11608,-1.76989,-11.58662,27.47,34.52,24.72,23.16,-116.29,58.04,-37.36,140.8,-24.25,61.48,23.16,24.72,34.52,0,11.36,-0.73
KLaL_cation_pi_RCCE_opt_0p6.xyz,Nucleus 44H :,-0.34726,-0.74504,-10.66249,23.8,28.29,22.85,20.26,61.26,-87.81,-41.16,-35.45,109.62,64.93,20.26,22.85,28.29,0,8.03,-0.35
KLaL_cation_pi_RCCE_opt_0p6.xyz,Nucleus 46H :,0.48968,-0.37756,-10.07614,24.22,20.61,26.24,25.81,71.35,-33.34,-68.61,-45.65,59.58,89.32,20.61,25.81,26.24,0,5.63,0.85
KLaL_cation_pi_RCCE_opt_0p6.xyz,Nucleus 48H :,-1.61623,-0.22215,-10.4753,23.75,28.19,22.81,20.26,65.9,-48.99,-9.28,-39.53,71.84,31.31,20.26,22.81,28.19,0,7.93,-0.36
KLaL_cation_pi_RCCE_opt_0p6.xyz,Nucleus 53H :,-1.78286,0.55559,-9.73755,30.8,38.67,30.6,23.12,11.62,95.76,114.48,11.95,-81.15,-60.28,23.12,30.6,38.67,0,15.55,-0.04
KLaL_cation_pi_RCCE_opt_0p6.xyz,Nucleus 55H :,-2.67282,-0.71904,-11.20753,28.16,21.66,25.46,37.37,-32.33,25.55,83.0,55.3,1.11,-48.15,21.66,25.46,37.37,0,15.71,-0.52
KLaL_cation_pi_RCCE_opt_0p6.xyz,Nucleus 56H :,-3.67284,-0.32653,-11.04041,28.9,37.81,21.79,27.1,-63.5,34.92,90.8,85.41,1.95,-62.88,21.79,27.1,37.81,0,16.02,-0.34
KLaL_cation_pi_RCCE_opt_0p6.xyz,Nucleus 58H :,-2.50759,-1.75085,-12.13052,30.93,38.75,30.62,23.41,14.61,48.16,112.97,-89.26,16.26,-9.95,23.41,30.62,38.75,0,15.34,-0.06
KLaL_cation_pi_RCCE_opt_0p6.xyz,Nucleus 60H :,-1.21105,-2.26606,-12.34584,28.15,37.34,21.68,25.44,93.42,64.7,22.36,-68.54,-37.52,10.05,21.68,25.44,37.34,0,15.66,-0.52
KLaL_cation_pi_RCCE_opt_0p6.xyz,Nucleus 61H :,2.06614,-2.26271,-14.33433,28.87,37.82,21.79,27.01,143.47,9.26,88.29,-121.15,18.11,-51.37,21.79,27.01,37.82,0,16.03,-0.35
KLaL_cation_pi_RCCE_opt_0p6.xyz,Nucleus 62H :,-3.05617,-3.70143,-15.43508,25.89,37.37,18.36,21.94,21.97,41.51,67.42,-0.33,-12.31,-40.6,18.36,21.94,37.37,0,19.01,-0.62
KLaL_cation_pi_RCCE_opt_0p6.xyz,Nucleus 63H :,-0.20716,-3.15713,-16.57412,24.64,35.77,22.61,15.54,85.17,41.03,13.02,-51.36,-18.52,4.59,15.54,22.61,35.77,0,20.23,-0.3
KLaL_cation_pi_RCCE_opt_0p6.xyz,Nucleus 64H :,-3.64618,-2.26946,-12.97424,27.77,42.24,19.52,21.55,77.1,-19.72,8.31,-36.88,40.91,13.58,19.52,21.55,42.24,0,22.72,-0.82
KLaL_cation_pi_RCCE_opt_0p6.xyz,Nucleus 65H :,-4.58558,-2.02912,-12.46536,24.31,36.42,22.32,14.18,20.06,52.32,38.31,-32.69,5.74,-10.81,14.18,22.32,36.42,0,22.24,-0.27
KLaL_cation_pi_RCCE_opt_0p6.xyz,Nucleus 2C :,-3.63086,-3.36289,-13.04152,151.97,135.13,163.38,157.41,299.07,170.17,221.9,-8.79,-145.17,-81.26,135.13,157.41,163.38,0,28.25,0.58
KLaL_cation_pi_RCCE_opt_0p6.xyz,Nucleus 5C :,-3.67186,-1.63971,-14.35326,42.05,162.16,7.88,-43.9,296.42,259.78,278.72,-108.18,-284.73,-315.87,-43.9,7.88,162.16,0,206.06,-0.5
KLaL_cation_pi_RCCE_opt_0p6.xyz,Nucleus 6C :,-3.9616,-0.28059,-14.4534,48.11,165.38,-57.84,36.8,219.69,321.91,293.92,-75.35,-368.4,-247.43,-57.84,36.8,165.38,0,223.22,-0.15
KLaL_cation_pi_RCCE_opt_0p6.xyz,Nucleus 8C :,-4.26639,0.26235,-13.56389,55.84,177.09,-56.5,46.93,224.84,335.26,288.3,-73.99,-258.37,-348.52,-56.5,46.93,177.09,0,233.59,-0.11
KLaL_cation_pi_RCCE_opt_0p6.xyz,Nucleus 10C :,-3.86508,0.37227,-15.67146,45.19,165.97,32.17,-62.56,232.22,340.7,291.72,-107.75,-341.9,-279.4,-62.56,32.17,165.97,0,228.53,-0.17
KLaL_cation_pi_RCCE_opt_0p6.xyz,Nucleus 12C :,-4.13466,1.42199,-15.74103,41.61,163.83,-39.94,0.93,228.87,314.88,270.99,-77.43,-332.15,-280.34,-39.94,0.93,163.83,0,203.77,-0.6
KLaL_cation_pi_RCCE_opt_0p6.xyz,Nucleus 13C :,-3.41889,-0.29236,-16.78652,152.4,134.43,164.39,158.39,341.15,245.72,291.3,-89.96,-176.93,-154.07,134.43,158.39,164.39,0,29.96,0.6
KLaL_cation_pi_RCCE_opt_0p6.xyz,Nucleus 16C :,-3.30176,0.23385,-17.72915,43.54,160.9,-28.61,-1.66,318.05,244.6,261.74,-87.02,-345.82,-260.93,-28.61,-1.66,160.9,0,189.51,-0.72
KLaL_cation_pi_RCCE_opt_0p6.xyz,Nucleus 17C :,-3.10266,-1.66591,-16.73126,45.16,-59.66,38.47,156.67,348.13,283.55,259.78,-384.03,-245.85,-126.1,-59.66,38.47,156.67,0,216.33,-0.09
KLaL_cation_pi_RCCE_opt_0p6.xyz,Nucleus 19C :,-2.49736,-2.31516,-17.95972,60.13,175.9,51.13,-46.65,334.21,236.82,283.33,-107.89,-286.85,-279.24,-46.65,51.13,175.9,0,222.55,-0.12
KLaL_cation_pi_RCCE_opt_0p6.xyz,Nucleus 21C :,-2.47907,-3.407,-17.86462,49.35,-53.4,44.37,157.08,363.77,267.31,253.7,-391.93,-105.44,-239.38,-53.4,44.37,157.08,0,210.48,-0.07
KLaL_cation_pi_RCCE_opt_0p6.xyz,Nucleus 23C :,-3.14888,-2.11605,-18.81737,47.4,155.66,-30.58,17.11,328.3,287.47,258.19,-349.8,-272.31,-109.68,-30.58,17.11,155.66,0,186.24,-0.49
KLaL_cation_pi_RCCE_opt_0p6.xyz,Nucleus 24C :,-1.12737,-1.77181,-18.26735,20.74,121.13,10.92,-69.82,250.4,310.71,289.59,-157.33,-292.52,-338.62,-69.82,10.92,121.13,0,190.95,-0.15
KLaL_cation_pi_RCCE_opt_0p6.xyz,Nucleus 25C :,-0.91658,-0.74033,-19.18898,21.31,110.17,-59.49,13.26,221.17,273.84,291.62,-113.57,-344.49,-264.63,-59.49,13.26,110.17,0,169.66,-0.14
KLaL_cation_pi_RCCE_opt_0p6.xyz,Nucleus 28C :,-1.75776,-0.38293,-19.77633,152.84,135.44,164.68,158.4,328.02,215.02,273.23,-165.96,-72.99,-118.8,135.44,158.4,164.68,0,29.24,0.57
KLaL_cation_pi_RCCE_opt_0p6.xyz,Nucleus 31C :,0.34176,-0.19192,-19.37488,40.49,163.67,2.97,-45.16,214.24,280.07,254.54,-67.21,-247.28,-312.88,-45.16,2.97,163.67,0,208.83,-0.54
KLaL_cation_pi_RCCE_opt_0p6.xyz,Nucleus 32C :,0.49023,0.59144,-20.11041,45.09,165.66,-60.76,30.38,191.61,326.16,268.68,-102.01,-257.88,-291.29,-60.76,30.38,165.66,0,226.42,-0.19
KLaL_cation_pi_RCCE_opt_0p6.xyz,Nucleus 34C :,1.40802,-0.66952,-18.64383,51.21,178.27,-62.75,38.12,328.33,176.14,241.88,-47.37,-339.65,-205.69,-62.75,38.12,178.27,0,241.02,-0.16
KLaL_cation_pi_RCCE_opt_0p6.xyz,Nucleus 36C :,2.40209,-0.26185,-18.80495,44.99,166.34,29.69,-61.05,147.15,330.47,242.67,-40.8,-354.12,-190.39,-61.05,29.69,166.34,0,227.39,-0.2
KLaL_cation_pi_RCCE_opt_0p6.xyz,Nucleus 38C :,1.26331,-1.70665,-17.72336,42.23,163.42,-43.17,6.44,220.96,289.01,309.35,-117.54,-265.67,-309.41,-43.17,6.44,163.42,0,206.59,-0.52
KLaL_cation_pi_RCCE_opt_0p6.xyz,Nucleus 39C :,-0.02275,-2.248,-17.50932,153.79,136.64,165.86,158.87,271.59,142.54,192.58,16.82,-112.63,-49.53,136.64,158.87,165.86,0,29.22,0.52
KLaL_cation_pi_RCCE_opt_0p6.xyz,Nucleus 42C :,-3.29932,-2.31449,-15.5209,45.84,156.0,-32.7,14.21,166.55,232.65,273.41,-51.76,-251.56,-231.8,-32.7,14.21,156.0,0,188.7,-0.5
KLaL_cation_pi_RCCE_opt_0p6.xyz,Nucleus 43C :,-0.634,0.06673,-14.92549,46.94,-56.87,40.53,157.17,141.89,205.68,288.29,-300.3,-140.14,-54.58,-56.87,40.53,157.17,0,214.04,-0.09
KLaL_cation_pi_RCCE_opt_0p6.xyz,Nucleus 45C :,-0.61955,-0.42075,-14.04083,59.1,176.27,48.93,-47.91,305.95,219.89,211.41,-35.41,-171.29,-353.25,-47.91,48.93,176.27,0,224.18,-0.14
KLaL_cation_pi_RCCE_opt_0p6.xyz,Nucleus 47C :,-0.34639,2.04638,-16.01492,47.0,-56.21,40.38,156.84,166.84,302.59,230.85,-303.27,-182.62,-73.38,-56.21,40.38,156.84,0,213.05,-0.09
KLaL_cation_pi_RCCE_opt_0p6.xyz,Nucleus 49C :,-0.35573,3.05022,-16.04481,46.35,161.36,-24.4,2.09,226.35,260.38,293.69,-100.19,-246.15,-295.01,-24.4,2.09,161.36,0,185.76,-0.71
KLaL_cation_pi_RCCE_opt_0p6.xyz,Nucleus 50C :,-0.07021,1.55851,-16.85674,22.07,-70.27,14.93,121.54,143.25,259.4,275.45,-36.37,-245.71,-329.82,-70.27,14.93,121.54,0,191.81,-0.11
KLaL_cation_pi_RCCE_opt_0p6.xyz,Nucleus 51C :,-0.64706,1.38323,-14.92389,28.55,104.89,-57.33,38.08,155.22,295.81,270.37,-84.59,-227.29,-323.87,-57.33,38.08,104.89,0,162.22,0.18
KLaL_cation_pi_RCCE_opt_0p6.xyz,Nucleus 57C :,-0.16135,-0.40342,-15.68304,29.0,130.24,-30.38,-12.85,237.15,276.61,320.36,-117.23,-285.5,-344.37,-30.38,-12.85,130.24,0,160.62,-0.78
KLaL_cation_pi_RCCE_opt_0p6.xyz,Nucleus 52N :,-0.9608,2.03763,-13.83124,171.53,104.71,198.62,211.26,420.34,350.33,305.44,-279.52,-120.08,-161.92,104.71,198.62,211.26,0,106.55,0.76
KLaL_cation_pi_RCCE_opt_0p6.xyz,Nucleus 54N :,-0.9621,3.04135,-13.79599,178.66,228.32,182.4,125.25,215.85,321.78,385.72,-34.04,-205.68,-147.66,125.25,182.4,228.32,0,103.07,0.11
KLaL_cation_pi_RCCE_opt_0p6.xyz,Nucleus 59N :,-1.16151,1.54139,-12.97253,178.27,228.07,182.41,124.34,411.5,317.84,368.05,-98.46,-224.77,-239.33,124.34,182.41,228.07,0,103.73,0.12
KLaL_cation_pi_RCCE_opt_0p7.xyz,Nucleus 3H :,1.85056,-3.65399,-14.42354,27.69,34.52,24.93,23.62,-80.91,77.13,21.73,107.21,-46.91,4.83,23.62,24.93,34.52,0,10.9,-0.76
KLaL_cation_pi_RCCE_opt_0p7.xyz,Nucleus 4H :,-1.00867,-3.16908,-13.28325,26.88,23.35,27.3,29.98,-57.48,12.86,84.49,82.39,15.31,-56.93,23.35,27.3,29.98,0,6.63,0.19
KLaL_cation_pi_RCCE_opt_0p7.xyz,Nucleus 7H :,2.41198,-2.20461,-16.88088,24.34,29.03,23.38,20.61,-47.97,63.3,97.78,72.86,-38.09,-74.87,20.61,23.38,29.03,0,8.42,-0.34
KLaL_cation_pi_RCCE_opt_0p7.xyz,Nucleus 9H :,3.34765,-1.9455,-17.38756,24.78,21.4,26.14,26.8,4.74,96.23,71.48,21.14,-69.96,-49.28,21.4,26.14,26.8,0,5.4,0.76
KLaL_cation_pi_RCCE_opt_0p7.xyz,Nucleus 11H :,2.39691,-3.29532,-16.81784,24.24,29.08,20.49,23.15,138.63,57.47,32.76,-114.21,-32.53,-9.39,20.49,23.15,29.08,0,8.59,-0.38
KLaL_cation_pi_RCCE_opt_0p7.xyz,Nucleus 14H :,2.4252,-1.57784,-15.50033,26.23,23.0,29.53,26.16,17.1,92.57,69.15,9.02,-68.5,-40.66,23.0,26.16,29.53,0,6.53,-0.03
KLaL_cation_pi_RCCE_opt_0p7.xyz,Nucleus 15H :,2.68791,-0.21348,-15.39687,27.9,34.81,25.23,23.65,133.87,36.93,61.79,-107.2,-3.86,-37.83,23.65,25.23,34.81,0,11.16,-0.72
KLaL_cation_pi_RCCE_opt_0p7.xyz,Nucleus 18H :,2.98968,0.34051,-16.28164,23.69,28.08,22.66,20.32,125.42,86.41,37.55,-103.38,-64.32,-10.62,20.32,22.66,28.08,0,7.76,-0.4
KLaL_cation_pi_RCCE_opt_0p7.xyz,Nucleus 20H :,2.57849,0.43438,-14.17723,24.31,20.72,26.34,25.86,90.94,102.05,35.03,-64.95,-80.88,-9.27,20.72,25.86,26.34,0,5.62,0.83
KLaL_cation_pi_RCCE_opt_0p7.xyz,Nucleus 22H :,2.82822,1.48929,-14.10622,23.96,28.45,23.09,20.34,123.16,24.71,71.59,-99.94,2.84,-50.48,20.34,23.09,28.45,0,8.11,-0.32
KLaL_cation_pi_RCCE_opt_0p7.xyz,Nucleus 29H :,2.14561,-0.24168,-13.06379,27.52,34.43,24.81,23.32,128.12,8.59,28.87,-100.04,22.27,-5.25,23.32,24.81,34.43,0,11.11,-0.73
KLaL_cation_pi_RCCE_opt_0p7.xyz,Nucleus 30H :,2.02109,0.28044,-12.11936,27.0,23.33,27.56,30.1,4.77,90.67,63.78,22.61,-65.47,-35.37,23.33,27.56,30.1,0,6.77,0.25
KLaL_cation_pi_RCCE_opt_0p7.xyz,Nucleus 33H :,1.85668,-1.6211,-13.12241,24.11,28.88,22.95,20.51,131.94,17.67,4.47,-107.82,6.91,19.16,20.51,22.95,28.88,0,8.37,-0.42
KLaL_cation_pi_RCCE_opt_0p7.xyz,Nucleus 35H :,1.26442,-2.28521,-11.89554,24.52,21.09,25.8,26.67,92.17,-30.75,5.28,-66.34,55.85,17.35,21.09,25.8,26.67,0,5.58,0.69
KLaL_cation_pi_RCCE_opt_0p7.xyz,Nucleus 37H :,1.23472,-3.36627,-12.0504,24.19,29.09,20.53,22.95,-90.98,84.45,17.23,116.07,6.96,-61.15,20.53,22.95,29.09,0,8.56,-0.43
KLaL_cation_pi_RCCE_opt_0p7.xyz,Nucleus 40H :,1.91674,-2.09261,-11.03742,27.12,23.64,30.17,27.55,60.4,-70.73,-20.55,-31.89,94.38,49.76,23.64,27.55,30.17,0,6.53,0.2
KLaL_cation_pi_RCCE_opt_0p7.xyz,Nucleus 41H :,-0.11608,-1.76989,-11.58662,27.47,34.5,24.74,23.18,-115.88,58.05,-36.99,140.39,-24.27,61.14,23.18,24.74,34.5,0,11.32,-0.72
KLaL_cation_pi_RCCE_opt_0p7.xyz,Nucleus 44H :,-0.34726,-0.74504,-10.66249,23.81,28.29,22.85,20.28,61.2,-88.1,-40.86,-35.42,109.92,64.69,20.28,22.85,28.29,0,8.01,-0.36
KLaL_cation_pi_RCCE_opt_0p7.xyz,Nucleus 46H :,0.48968,-0.37756,-10.07614,24.24,20.65,26.26,25.8,71.3,-34.09,-69.01,-45.61,60.35,89.77,20.65,25.8,26.26,0,5.61,0.83
KLaL_cation_pi_RCCE_opt_0p7.xyz,Nucleus 48H :,-1.61623,-0.22215,-10.4753,23.76,28.2,22.8,20.29,65.88,-49.11,-10.1,-39.55,71.99,32.17,20.29,22.8,28.2,0,7.91,-0.36
KLaL_cation_pi_RCCE_opt_0p7.xyz,Nucleus 53H :,-1.78286,0.55559,-9.73755,30.86,38.67,30.48,23.43,12.04,96.24,115.12,11.79,-82.13,-60.48,23.43,30.48,38.67,0,15.24,-0.07
KLaL_cation_pi_RCCE_opt_0p7.xyz,Nucleus 55H :,-2.67282,-0.71904,-11.20753,28.09,21.55,25.36,37.35,-33.4,25.34,82.03,56.26,1.24,-47.2,21.55,25.36,37.35,0,15.8,-0.52
KLaL_cation_pi_RCCE_opt_0p7.xyz,Nucleus 56H :,-3.67284,-0.32653,-11.04041,28.74,37.47,21.64,27.12,-64.57,34.12,89.04,86.34,2.32,-61.02,21.64,27.12,37.47,0,15.83,-0.31
KLaL_cation_pi_RCCE_opt_0p7.xyz,Nucleus 58H :,-2.50759,-1.75085,-12.13052,30.98,38.77,30.47,23.7,14.69,47.66,111.56,-87.53,16.0,-9.44,23.7,30.47,38.77,0,15.07,-0.1
KLaL_cation_pi_RCCE_opt_0p7.xyz,Nucleus 60H :,-1.21105,-2.26606,-12.34584,28.08,37.32,21.57,25.35,92.58,63.97,22.29,-67.74,-36.9,10.04,21.57,25.35,37.32,0,15.75,-0.52
KLaL_cation_pi_RCCE_opt_0p7.xyz,Nucleus 61H :,2.06614,-2.26271,-14.33433,28.71,37.47,21.64,27.03,143.66,9.94,87.5,-121.49,17.48,-50.95,21.64,27.03,37.47,0,15.83,-0.32
KLaL_cation_pi_RCCE_opt_0p7.xyz,Nucleus 62H :,-3.05617,-3.70143,-15.43508,25.87,37.38,18.31,21.93,21.79,41.59,67.53,-0.07,-12.39,-40.83,18.31,21.93,37.38,0,19.07,-0.62
KLaL_cation_pi_RCCE_opt_0p7.xyz,Nucleus 63H :,-0.20716,-3.15713,-16.57412,24.65,35.77,22.66,15.51,85.27,41.31,12.93,-51.51,-18.66,4.58,15.51,22.66,35.77,0,20.26,-0.29
KLaL_cation_pi_RCCE_opt_0p7.xyz,Nucleus 64H :,-3.64618,-2.26946,-12.97424,27.77,42.21,19.53,21.57,77.12,-19.66,8.22,-36.91,40.85,13.69,19.53,21.57,42.21,0,22.68,-0.82
KLaL_cation_pi_RCCE_opt_0p7.xyz,Nucleus 65H :,-4.58558,-2.02912,-12.46536,24.31,36.43,22.37,14.13,20.63,52.68,37.82,-33.06,4.96,-10.1,14.13,22.37,36.43,0,22.3,-0.26
KLaL_cation_pi_RCCE_opt_0p7.xyz,Nucleus 2C :,-3.63086,-3.36289,-13.04152,151.95,135.11,163.37,157.36,298.74,170.12,220.96,-8.76,-144.71,-80.52,135.11,157.36,163.37,0,28.26,0.57
KLaL_cation_pi_RCCE_opt_0p7.xyz,Nucleus 5C :,-3.67186,-1.63971,-14.35326,41.74,162.12,7.11,-44.01,297.02,260.55,277.94,-108.15,-286.36,-315.78,-44.01,7.11,162.12,0,206.13,-0.5
KLaL_cation_pi_RCCE_opt_0p7.xyz,Nucleus 6C :,-3.9616,-0.28059,-14.4534,48.45,165.35,-57.47,37.46,222.24,321.08,293.69,-76.99,-367.95,-246.72,-57.47,37.46,165.35,0,222.82,-0.15
KLaL_cation_pi_RCCE_opt_0p7.xyz,Nucleus 8C :,-4.26639,0.26235,-13.56389,56.03,177.03,-56.48,47.55,226.33,333.9,288.46,-75.02,-256.87,-348.71,-56.48,47.55,177.03,0,233.51,-0.11
KLaL_cation_pi_RCCE_opt_0p7.xyz,Nucleus 10C :,-3.86508,0.37227,-15.67146,45.47,165.93,32.7,-62.22,233.49,339.1,290.59,-107.94,-340.16,-278.66,-62.22,32.7,165.93,0,228.15,-0.17
KLaL_cation_pi_RCCE_opt_0p7.xyz,Nucleus 12C :,-4.13466,1.42199,-15.74103,41.3,163.78,-40.02,0.14,228.81,314.27,270.56,-77.32,-331.86,-280.56,-40.02,0.14,163.78,0,203.8,-0.61
KLaL_cation_pi_RCCE_opt_0p7.xyz,Nucleus 13C :,-3.41889,-0.29236,-16.78652,152.38,134.42,164.37,158.34,341.27,245.67,292.12,-89.94,-177.08,-154.91,134.42,158.34,164.37,0,29.95,0.6
KLaL_cation_pi_RCCE_opt_0p7.xyz,Nucleus 16C :,-3.30176,0.23385,-17.72915,43.48,160.86,-28.61,-1.8,317.62,246.53,262.58,-87.65,-345.5,-263.12,-28.61,-1.8,160.86,0,189.47,-0.72
KLaL_cation_pi_RCCE_opt_0p7.xyz,Nucleus 17C :,-3.10266,-1.66591,-16.73126,45.25,-59.64,38.76,156.62,348.48,283.84,260.13,-384.24,-246.16,-126.32,-59.64,38.76,156.62,0,216.26,-0.09
KLaL_cation_pi_RCCE_opt_0p7.xyz,Nucleus 19C :,-2.49736,-2.31516,-17.95972,60.33,175.82,51.61,-46.44,335.44,237.1,283.41,-108.08,-287.47,-279.41,-46.44,51.61,175.82,0,222.26,-0.12
KLaL_cation_pi_RCCE_opt_0p7.xyz,Nucleus 21C :,-2.47907,-3.407,-17.86462,49.4,-53.44,44.61,157.02,364.33,267.35,254.24,-393.17,-105.31,-239.25,-53.44,44.61,157.02,0,210.46,-0.07
KLaL_cation_pi_RCCE_opt_0p7.xyz,Nucleus 23C :,-3.14888,-2.11605,-18.81737,47.43,155.6,-30.41,17.1,326.9,287.95,259.45,-348.8,-272.8,-110.41,-30.41,17.1,155.6,0,186.01,-0.49
KLaL_cation_pi_RCCE_opt_0p7.xyz,Nucleus 24C :,-1.12737,-1.77181,-18.26735,20.52,121.05,10.57,-70.06,250.17,311.88,291.58,-156.56,-294.1,-341.41,-70.06,10.57,121.05,0,191.11,-0.16
KLaL_cation_pi_RCCE_opt_0p7.xyz,Nucleus 25C :,-0.91658,-0.74033,-19.18898,21.2,110.09,-59.58,13.08,220.93,274.57,292.02,-113.83,-345.24,-264.85,-59.58,13.08,110.09,0,169.67,-0.14
KLaL_cation_pi_RCCE_opt_0p7.xyz,Nucleus 28C :,-1.75776,-0.38293,-19.77633,152.82,135.45,164.67,158.33,327.82,215.35,273.43,-165.77,-73.1,-119.29,135.45,158.33,164.67,0,29.22,0.57
KLaL_cation_pi_RCCE_opt_0p7.xyz,Nucleus 31C :,0.34176,-0.19192,-19.37488,40.31,163.64,2.39,-45.09,214.47,279.87,253.66,-66.75,-247.16,-313.16,-45.09,2.39,163.64,0,208.73,-0.55
KLaL_cation_pi_RCCE_opt_0p7.xyz,Nucleus 32C :,0.49023,0.59144,-20.11041,45.25,165.62,-60.62,30.76,192.43,325.82,268.11,-101.8,-257.55,-291.26,-60.62,30.76,165.62,0,226.24,-0.19
KLaL_cation_pi_RCCE_opt_0p7.xyz,Nucleus 34C :,1.40802,-0.66952,-18.64383,51.3,178.21,-62.82,38.51,328.11,176.48,241.38,-47.66,-339.05,-205.36,-62.82,38.51,178.21,0,241.03,-0.16
KLaL_cation_pi_RCCE_opt_0p7.xyz,Nucleus 36C :,2.40209,-0.26185,-18.80495,45.13,166.29,30.0,-60.9,148.7,330.27,243.07,-42.11,-354.37,-190.17,-60.9,30.0,166.29,0,227.19,-0.2
KLaL_cation_pi_RCCE_opt_0p7.xyz,Nucleus 38C :,1.26331,-1.70665,-17.72336,42.07,163.38,-43.07,5.9,221.27,289.22,310.37,-118.15,-265.68,-310.81,-43.07,5.9,163.38,0,206.45,-0.53
KLaL_cation_pi_RCCE_opt_0p7.xyz,Nucleus 39C :,-0.02275,-2.248,-17.50932,153.78,136.67,165.86,158.8,271.46,142.75,192.79,16.66,-112.59,-49.74,136.67,158.8,165.86,0,29.19,0.52
KLaL_cation_pi_RCCE_opt_0p7.xyz,Nucleus 42C :,-3.29932,-2.31449,-15.5209,45.88,155.94,-32.51,14.22,167.31,231.67,273.17,-51.08,-252.41,-231.01,-32.51,14.22,155.94,0,188.45,-0.5
KLaL_cation_pi_RCCE_opt_0p7.xyz,Nucleus 43C :,-0.634,0.16673,-14.92549,47.02,-56.85,40.8,157.12,141.71,205.64,287.76,-299.09,-140.37,-54.58,-56.85,40.8,157.12,0,213.97,-0.09
KLaL_cation_pi_RCCE_opt_0p7.xyz,Nucleus 45C :,-0.61955,-0.32075,-14.04083,59.29,176.19,49.39,-47.72,305.47,218.12,210.84,-35.14,-168.87,-352.57,-47.72,49.39,176.19,0,223.91,-0.13
KLaL_cation_pi_RCCE_opt_0p7.xyz,Nucleus 47C :,-0.34639,2.14638,-16.01492,47.05,-56.24,40.62,156.78,165.61,301.59,230.71,-301.97,-181.34,-73.43,-56.24,40.62,156.78,0,213.02,-0.09
KLaL_cation_pi_RCCE_opt_0p7.xyz,Nucleus 49C :,-0.35573,3.15022,-16.04481,46.26,161.32,-24.44,1.89,227.59,260.33,289.8,-99.54,-246.7,-292.7,-24.44,1.89,161.32,0,185.76,-0.72
KLaL_cation_pi_RCCE_opt_0p7.xyz,Nucleus 50C :,-0.07021,1.65851,-16.85674,21.88,-70.45,14.63,121.45,142.04,257.57,273.81,-36.27,-244.6,-326.92,-70.45,14.63,121.45,0,191.9,-0.11
KLaL_cation_pi_RCCE_opt_0p7.xyz,Nucleus 51C :,-0.64706,1.48323,-14.92389,28.56,104.83,-57.18,38.02,155.86,295.86,270.03,-85.21,-227.21,-323.65,-57.18,38.02,104.83,0,162.01,0.18
KLaL_cation_pi_RCCE_opt_0p7.xyz,Nucleus 57C :,-0.16135,-0.30342,-15.68304,28.98,129.82,-30.15,-12.72,236.91,276.31,319.77,-117.48,-284.99,-343.57,-30.15,-12.72,129.82,0,159.97,-0.78
KLaL_cation_pi_RCCE_opt_0p7.xyz,Nucleus 52N :,-0.9608,2.13763,-13.83124,171.4,104.24,198.42,211.53,420.7,350.14,305.85,-279.83,-121.02,-161.65,104.24,198.42,211.53,0,107.29,0.76
KLaL_cation_pi_RCCE_opt_0p7.xyz,Nucleus 54N :,-0.9621,3.14135,-13.79599,178.87,228.94,182.35,125.32,214.5,321.61,384.76,-32.72,-204.59,-146.97,125.32,182.35,228.94,0,103.62,0.1
KLaL_cation_pi_RCCE_opt_0p7.xyz,Nucleus 59N :,-1.16151,1.64139,-12.97253,178.48,228.65,182.38,124.4,411.48,317.88,367.1,-97.79,-224.73,-238.51,124.4,182.38,228.65,0,104.25,0.11
KLaL_cation_pi_RCCE_opt_0p8.xyz,Nucleus 3H :,1.85056,-3.65399,-14.42354,27.7,34.5,24.95,23.65,-80.56,77.14,21.19,106.85,-46.89,5.37,23.65,24.95,34.5,0,10.85,-0.76
KLaL_cation_pi_RCCE_opt_0p8.xyz,Nucleus 4H :,-1.00867,-3.16908,-13.28325,26.88,23.37,27.3,29.98,-57.6,12.42,84.48,82.52,15.79,-56.95,23.37,27.3,29.98,0,6.61,0.19
KLaL_cation_pi_RCCE_opt_0p8.xyz,Nucleus 7H :,2.41198,-2.20461,-16.88088,24.35,29.04,23.36,20.64,-46.72,62.8,97.75,71.6,-37.55,-74.84,20.64,23.36,29.04,0,8.4,-0.35
KLaL_cation_pi_RCCE_opt_0p8.xyz,Nucleus 9H :,3.34765,-1.9455,-17.38756,24.79,21.47,26.09,26.8,5.17,96.29,71.51,20.7,-70.02,-49.29,21.47,26.09,26.8,0,5.33,0.73
KLaL_cation_pi_RCCE_opt_0p8.xyz,Nucleus 11H :,2.39691,-3.29532,-16.81784,24.24,29.09,20.51,23.13,137.6,57.86,32.74,-113.16,-32.92,-9.39,20.51,23.13,29.09,0,8.58,-0.39
KLaL_cation_pi_RCCE_opt_0p8.xyz,Nucleus 14H :,2.4252,-1.57784,-15.50033,26.23,23.02,29.54,26.14,17.02,92.75,69.52,9.09,-68.68,-41.01,23.02,26.14,29.54,0,6.52,-0.04
KLaL_cation_pi_RCCE_opt_0p8.xyz,Nucleus 15H :,2.68791,-0.21348,-15.39687,27.91,34.79,25.25,23.68,133.73,36.9,62.16,-107.06,-3.84,-38.18,23.68,25.25,34.79,0,11.11,-0.72
KLaL_cation_pi_RCCE_opt_0p8.xyz,Nucleus 18H :,2.98968,0.34051,-16.28164,23.69,28.08,22.66,20.34,125.38,86.65,37.63,-103.34,-64.5,-10.73,20.34,22.66,28.08,0,7.74,-0.4
KLaL_cation_pi_RCCE_opt_0p8.xyz,Nucleus 20H :,2.57849,0.43438,-14.17723,24.32,20.75,26.35,25.85,91.34,102.4,35.06,-65.35,-81.17,-9.32,20.75,25.85,26.35,0,5.6,0.82
KLaL_cation_pi_RCCE_opt_0p8.xyz,Nucleus 22H :,2.82822,1.48929,-14.10622,23.97,28.46,23.08,20.36,123.37,24.67,71.97,-100.16,2.86,-50.81,20.36,23.08,28.46,0,8.1,-0.33
KLaL_cation_pi_RCCE_opt_0p8.xyz,Nucleus 29H :,2.14561,-0.24168,-13.06379,27.53,34.42,24.83,23.34,127.97,8.59,29.2,-99.9,22.27,-5.55,23.34,24.83,34.42,0,11.08,-0.73
KLaL_cation_pi_RCCE_opt_0p8.xyz,Nucleus 30H :,2.02109,0.28044,-12.11936,27.0,23.34,27.55,30.1,4.74,90.63,63.99,22.63,-65.46,-35.54,23.34,27.55,30.1,0,6.76,0.24
KLaL_cation_pi_RCCE_opt_0p8.xyz,Nucleus 33H :,1.85668,-1.6211,-13.12241,24.11,28.9,22.92,20.52,131.77,18.0,4.53,-107.67,6.62,19.08,20.52,22.92,28.9,0,8.38,-0.43
KLaL_cation_pi_RCCE_opt_0p8.xyz,Nucleus 35H :,1.26442,-2.28521,-11.89554,24.52,21.15,25.74,26.68,92.26,-30.94,5.29,-66.48,56.08,17.36,21.15,25.74,26.68,0,5.53,0.66
KLaL_cation_pi_RCCE_opt_0p8.xyz,Nucleus 37H :,1.23472,-3.36627,-12.0504,24.2,29.12,20.55,22.92,-90.4,84.59,17.39,115.5,6.8,-61.31,20.55,22.92,29.12,0,8.57,-0.45
KLaL_cation_pi_RCCE_opt_0p8.xyz,Nucleus 40H :,1.91674,-2.09261,-11.03742,27.12,23.65,30.16,27.55,60.49,-70.59,-20.33,-32.01,94.25,49.56,23.65,27.55,30.16,0,6.51,0.2
KLaL_cation_pi_RCCE_opt_0p8.xyz,Nucleus 41H :,-0.11608,-1.76989,-11.58662,27.49,34.49,24.76,23.21,-115.47,58.06,-36.58,139.99,-24.3,60.74,23.21,24.76,34.49,0,11.28,-0.73
KLaL_cation_pi_RCCE_opt_0p8.xyz,Nucleus 44H :,-0.34726,-0.74504,-10.66249,23.82,28.3,22.85,20.31,61.17,-88.32,-40.46,-35.41,110.13,64.35,20.31,22.85,28.3,0,7.99,-0.36
KLaL_cation_pi_RCCE_opt_0p8.xyz,Nucleus 46H :,0.48968,-0.37756,-10.07614,24.25,20.68,26.28,25.79,71.2,-34.74,-69.52,-45.52,61.02,90.32,20.68,25.79,26.28,0,5.6,0.82
KLaL_cation_pi_RCCE_opt_0p8.xyz,Nucleus 48H :,-1.61623,-0.22215,-10.4753,23.77,28.2,22.79,20.32,65.85,-49.11,-10.94,-39.56,72.02,33.06,20.32,22.79,28.2,0,7.88,-0.37
KLaL_cation_pi_RCCE_opt_0p8.xyz,Nucleus 53H :,-1.78286,0.55559,-9.73755,30.89,38.64,30.31,23.73,12.35,96.65,115.65,11.75,-83.03,-60.69,23.73,30.31,38.64,0,14.91,-0.12
KLaL_cation_pi_RCCE_opt_0p8.xyz,Nucleus 55H :,-2.67282,-0.71904,-11.20753,28.02,21.45,25.28,37.32,-34.47,25.13,81.09,57.22,1.37,-46.28,21.45,25.28,37.32,0,15.87,-0.52
KLaL_cation_pi_RCCE_opt_0p8.xyz,Nucleus 56H :,-3.67284,-0.32653,-11.04041,28.6,37.15,21.51,27.13,-65.71,33.34,87.37,87.35,2.7,-59.27,21.51,27.13,37.15,0,15.64,-0.28
KLaL_cation_pi_RCCE_opt_0p8.xyz,Nucleus 58H :,-2.50759,-1.75085,-12.13052,31.01,38.76,30.28,23.98,14.78,47.15,110.27,-85.93,15.7,-8.95,23.98,30.28,38.76,0,14.78,-0.15
KLaL_cation_pi_RCCE_opt_0p8.xyz,Nucleus 60H :,-1.21105,-2.26606,-12.34584,28.01,37.3,21.47,25.26,91.72,63.28,22.21,-66.91,-36.3,10.03,21.47,25.26,37.3,0,15.83,-0.52
KLaL_cation_pi_RCCE_opt_0p8.xyz,Nucleus 61H :,2.06614,-2.26271,-14.33433,28.56,37.14,21.49,27.05,143.89,10.56,86.72,-121.87,16.9,-50.53,21.49,27.05,37.14,0,15.65,-0.29
KLaL_cation_pi_RCCE_opt_0p8.xyz,Nucleus 62H :,-3.05617,-3.70143,-15.43508,25.86,37.39,18.26,21.92,21.64,41.62,67.62,0.16,-12.43,-41.03,18.26,21.92,37.39,0,19.13,-0.62
KLaL_cation_pi_RCCE_opt_0p8.xyz,Nucleus 63H :,-0.20716,-3.15713,-16.57412,24.65,35.76,22.71,15.48,85.36,41.55,12.74,-51.62,-18.77,4.69,15.48,22.71,35.76,0,20.28,-0.29
KLaL_cation_pi_RCCE_opt_0p8.xyz,Nucleus 64H :,-3.64618,-2.26946,-12.97424,27.77,42.19,19.54,21.58,77.16,-19.64,8.1,-36.96,40.84,13.82,19.54,21.58,42.19,0,22.65,-0.82
KLaL_cation_pi_RCCE_opt_0p8.xyz,Nucleus 65H :,-4.58558,-2.02912,-12.46536,24.31,36.44,22.42,14.07,21.16,53.14,37.34,-33.49,4.2,-9.42,14.07,22.42,36.44,0,22.37,-0.25
KLaL_cation_pi_RCCE_opt_0p8.xyz,Nucleus 2C :,-3.63086,-3.36289,-13.04152,151.92,135.09,163.35,157.32,298.5,170.18,220.2,-8.82,-144.37,-79.93,135.09,157.32,163.35,0,28.26,0.57
KLaL_cation_pi_RCCE_opt_0p8.xyz,Nucleus 5C :,-3.67186,-1.63971,-14.35326,41.44,162.07,6.41,-44.15,297.94,261.68,276.86,-108.22,-288.14,-315.79,-44.15,6.41,162.07,0,206.22,-0.51
KLaL_cation_pi_RCCE_opt_0p8.xyz,Nucleus 6C :,-3.9616,-0.28059,-14.4534,48.77,165.31,-57.08,38.08,224.93,320.54,293.27,-78.86,-367.56,-246.01,-57.08,38.08,165.31,0,222.39,-0.14
KLaL_cation_pi_RCCE_opt_0p8.xyz,Nucleus 8C :,-4.26639,0.26235,-13.56389,56.2,176.95,-56.44,48.1,227.92,332.37,288.46,-76.01,-255.32,-348.8,-56.44,48.1,176.95,0,233.39,-0.1
KLaL_cation_pi_RCCE_opt_0p8.xyz,Nucleus 10C :,-3.86508,0.37227,-15.67146,45.74,165.89,33.21,-61.87,234.46,337.45,289.62,-107.93,-338.53,-277.86,-61.87,33.21,165.89,0,227.76,-0.17
KLaL_cation_pi_RCCE_opt_0p8.xyz,Nucleus 12C :,-4.13466,1.42199,-15.74103,41.01,163.75,-40.14,-0.59,228.93,313.47,270.09,-77.29,-331.52,-280.66,-40.14,-0.59,163.75,0,203.89,-0.61
KLaL_cation_pi_RCCE_opt_0p8.xyz,Nucleus 13C :,-3.41889,-0.29236,-16.78652,152.35,134.41,164.35,158.29,341.48,245.62,292.82,-89.92,-177.31,-155.64,134.41,158.29,164.35,0,29.94,0.6
KLaL_cation_pi_RCCE_opt_0p8.xyz,Nucleus 16C :,-3.30176,0.23385,-17.72915,43.42,160.83,-28.63,-1.94,317.24,248.26,263.75,-88.4,-345.24,-265.35,-28.63,-1.94,160.83,0,189.46,-0.72
KLaL_cation_pi_RCCE_opt_0p8.xyz,Nucleus 17C :,-3.10266,-1.66591,-16.73126,45.33,-59.62,39.04,156.56,348.52,284.15,260.46,-384.16,-246.46,-126.54,-59.62,39.04,156.56,0,216.18,-0.09
KLaL_cation_pi_RCCE_opt_0p8.xyz,Nucleus 19C :,-2.49736,-2.31516,-17.95972,60.51,175.73,52.04,-46.25,336.56,237.61,283.63,-108.41,-288.2,-279.67,-46.25,52.04,175.73,0,221.98,-0.11
KLaL_cation_pi_RCCE_opt_0p8.xyz,Nucleus 21C :,-2.47907,-3.407,-17.86462,49.44,-53.47,44.84,156.95,364.63,267.39,255.0,-394.17,-105.37,-239.16,-53.47,44.84,156.95,0,210.42,-0.07
KLaL_cation_pi_RCCE_opt_0p8.xyz,Nucleus 23C :,-3.14888,-2.11605,-18.81737,47.46,155.54,-30.26,17.09,325.5,288.48,260.75,-347.83,-273.26,-111.26,-30.26,17.09,155.54,0,185.8,-0.49
KLaL_cation_pi_RCCE_opt_0p8.xyz,Nucleus 24C :,-1.12737,-1.77181,-18.26735,20.31,120.96,10.26,-70.29,249.64,313.16,293.96,-155.67,-295.69,-344.47,-70.29,10.26,120.96,0,191.25,-0.16
KLaL_cation_pi_RCCE_opt_0p8.xyz,Nucleus 25C :,-0.91658,-0.74033,-19.18898,21.09,110.02,-59.69,12.95,220.5,275.33,292.32,-113.92,-345.88,-265.07,-59.69,12.95,110.02,0,169.71,-0.14
KLaL_cation_pi_RCCE_opt_0p8.xyz,Nucleus 28C :,-1.75776,-0.38293,-19.77633,152.79,135.46,164.66,158.24,327.72,215.75,273.63,-165.67,-73.29,-119.79,135.46,158.24,164.66,0,29.2,0.56
KLaL_cation_pi_RCCE_opt_0p8.xyz,Nucleus 31C :,0.34176,-0.19192,-19.37488,40.14,163.61,1.85,-45.05,214.58,279.78,252.85,-66.37,-247.0,-313.4,-45.05,1.85,163.61,0,208.66,-0.55
KLaL_cation_pi_RCCE_opt_0p8.xyz,Nucleus 32C :,0.49023,0.59144,-20.11041,45.41,165.57,-60.44,31.1,193.58,325.36,267.51,-101.7,-257.24,-291.28,-60.44,31.1,165.57,0,226.01,-0.19
KLaL_cation_pi_RCCE_opt_0p8.xyz,Nucleus 34C :,1.40802,-0.66952,-18.64383,51.36,178.14,-62.87,38.82,327.89,177.09,240.79,-48.11,-338.46,-205.1,-62.87,38.82,178.14,0,241.01,-0.16
KLaL_cation_pi_RCCE_opt_0p8.xyz,Nucleus 36C :,2.40209,-0.26185,-18.80495,45.26,166.24,30.27,-60.72,150.45,329.99,243.61,-43.56,-354.52,-190.19,-60.72,30.27,166.24,0,226.96,-0.2
KLaL_cation_pi_RCCE_opt_0p8.xyz,Nucleus 38C :,1.26331,-1.70665,-17.72336,41.92,163.33,-42.99,5.41,221.75,289.32,311.42,-118.66,-265.97,-312.11,-42.99,5.41,163.33,0,206.32,-0.53
KLaL_cation_pi_RCCE_opt_0p8.xyz,Nucleus 39C :,-0.02275,-2.248,-17.50932,153.76,136.69,165.86,158.73,271.37,143.18,193.1,16.32,-112.58,-50.1,136.69,158.73,165.86,0,29.17,0.51
KLaL_cation_pi_RCCE_opt_0p8.xyz,Nucleus 42C :,-3.29932,-2.31449,-15.5209,45.93,155.89,-32.34,14.24,167.88,230.67,272.94,-50.16,-253.3,-230.26,-32.34,14.24,155.89,0,188.23,-0.51
KLaL_cation_pi_RCCE_opt_0p8.xyz,Nucleus 43C :,-0.634,0.26673,-14.92549,47.11,-56.82,41.07,157.07,141.93,287.28,205.67,-298.04,-141.0,-54.5,-56.82,41.07,157.07,0,213.89,-0.08
KLaL_cation_pi_RCCE_opt_0p8.xyz,Nucleus 45C :,-0.61955,-0.22075,-14.04083,59.46,176.11,49.82,-47.54,304.49,216.88,209.89,-34.68,-166.83,-351.35,-47.54,49.82,176.11,0,223.65,-0.13
KLaL_cation_pi_RCCE_opt_0p8.xyz,Nucleus 47C :,-0.34639,2.24638,-16.01492,47.1,-56.26,40.85,156.72,164.91,300.41,230.39,-300.57,-180.49,-73.34,-56.26,40.85,156.72,0,212.98,-0.09
KLaL_cation_pi_RCCE_opt_0p8.xyz,Nucleus 49C :,-0.35573,3.25022,-16.04481,46.17,161.29,-24.5,1.71,228.76,260.29,285.72,-98.79,-246.98,-290.51,-24.5,1.71,161.29,0,185.79,-0.72
KLaL_cation_pi_RCCE_opt_0p8.xyz,Nucleus 50C :,-0.07021,1.75851,-16.85674,21.71,-70.64,14.37,121.39,140.46,255.27,272.19,-35.98,-243.32,-323.51,-70.64,14.37,121.39,0,192.03,-0.11
KLaL_cation_pi_RCCE_opt_0p8.xyz,Nucleus 51C :,-0.64706,1.58323,-14.92389,28.56,104.77,-57.07,37.99,156.37,295.94,269.57,-85.61,-227.1,-323.47,-57.07,37.99,104.77,0,161.84,0.17
KLaL_cation_pi_RCCE_opt_0p8.xyz,Nucleus 57C :,-0.16135,-0.20342,-15.68304,28.98,129.4,-29.86,-12.61,236.61,275.96,319.22,-117.64,-284.43,-342.78,-29.86,-12.61,129.4,0,159.26,-0.78
KLaL_cation_pi_RCCE_opt_0p8.xyz,Nucleus 52N :,-0.9608,2.23763,-13.83124,171.05,103.68,198.16,211.32,421.0,349.95,306.29,-280.19,-122.14,-161.75,103.68,198.16,211.32,0,107.64,0.76
KLaL_cation_pi_RCCE_opt_0p8.xyz,Nucleus 54N :,-0.9621,3.24135,-13.79599,179.08,229.5,182.33,125.42,213.19,321.43,383.82,-31.4,-203.54,-146.25,125.42,182.33,229.5,0,104.08,0.09
KLaL_cation_pi_RCCE_opt_0p8.xyz,Nucleus 59N :,-1.16151,1.74139,-12.97253,178.69,229.19,182.37,124.5,411.41,317.93,366.21,-97.18,-224.63,-237.68,124.5,182.37,229.19,0,104.69,0.11
KLaL_cation_pi_RCCE_opt_0p9.xyz,Nucleus 3H :,1.85056,-3.65399,-14.42354,27.71,34.48,24.97,23.68,-80.2,77.16,20.68,106.49,-46.88,5.87,23.68,24.97,34.48,0,10.8,-0.76
KLaL_cation_pi_RCCE_opt_0p9.xyz,Nucleus 4H :,-1.00867,-3.16908,-13.28325,26.88,23.38,27.29,29.98,-57.76,11.97,84.49,82.68,16.26,-56.99,23.38,27.29,29.98,0,6.6,0.19
KLaL_cation_pi_RCCE_opt_0p9.xyz,Nucleus 7H :,2.41198,-2.20461,-16.88088,24.36,29.06,23.35,20.66,-45.45,62.22,97.66,70.32,-36.93,-74.75,20.66,23.35,29.06,0,8.4,-0.36
KLaL_cation_pi_RCCE_opt_0p9.xyz,Nucleus 9H :,3.34765,-1.9455,-17.38756,24.79,21.54,26.03,26.81,5.73,96.21,71.46,20.14,-69.94,-49.23,21.54,26.03,26.81,0,5.27,0.71
KLaL_cation_pi_RCCE_opt_0p9.xyz,Nucleus 11H :,2.39691,-3.29532,-16.81784,24.25,29.11,20.54,23.11,136.51,58.36,32.69,-112.06,-33.4,-9.35,20.54,23.11,29.11,0,8.57,-0.4
KLaL_cation_pi_RCCE_opt_0p9.xyz,Nucleus 14H :,2.4252,-1.57784,-15.50033,26.23,23.03,29.54,26.12,16.95,93.03,69.86,9.14,-68.95,-41.33,23.03,26.12,29.54,0,6.51,-0.05
KLaL_cation_pi_RCCE_opt_0p9.xyz,Nucleus 15H :,2.68791,-0.21348,-15.39687,27.91,34.77,25.27,23.7,133.57,36.85,62.49,-106.9,-3.79,-38.48,23.7,25.27,34.77,0,11.07,-0.72
KLaL_cation_pi_RCCE_opt_0p9.xyz,Nucleus 18H :,2.98968,0.34051,-16.28164,23.7,28.09,22.65,20.36,125.2,86.86,37.7,-103.17,-64.67,-10.82,20.36,22.65,28.09,0,7.73,-0.41
KLaL_cation_pi_RCCE_opt_0p9.xyz,Nucleus 20H :,2.57849,0.43438,-14.17723,24.33,20.79,26.37,25.84,91.69,102.78,35.11,-65.68,-81.51,-9.38,20.79,25.84,26.37,0,5.58,0.81
KLaL_cation_pi_RCCE_opt_0p9.xyz,Nucleus 22H :,2.82822,1.48929,-14.10622,23.97,28.46,23.07,20.39,123.42,24.61,72.35,-100.22,2.9,-51.14,20.39,23.07,28.46,0,8.07,-0.33
KLaL_cation_pi_RCCE_opt_0p9.xyz,Nucleus 29H :,2.14561,-0.24168,-13.06379,27.54,34.4,24.85,23.36,127.8,8.58,29.48,-99.74,22.29,-5.8,23.36,24.85,34.4,0,11.04,-0.73
KLaL_cation_pi_RCCE_opt_0p9.xyz,Nucleus 30H :,2.02109,0.28044,-12.11936,27.0,23.35,27.56,30.09,4.68,90.66,64.16,22.69,-65.52,-35.68,23.35,27.56,30.09,0,6.74,0.25
KLaL_cation_pi_RCCE_opt_0p9.xyz,Nucleus 33H :,1.85668,-1.6211,-13.12241,24.12,28.92,22.89,20.54,131.46,18.52,4.56,-107.37,6.15,19.02,20.54,22.89,28.92,0,8.38,-0.44
KLaL_cation_pi_RCCE_opt_0p9.xyz,Nucleus 35H :,1.26442,-2.28521,-11.89554,24.53,21.22,25.67,26.69,92.27,-30.92,5.34,-66.54,56.1,17.34,21.22,25.67,26.69,0,5.47,0.63
KLaL_cation_pi_RCCE_opt_0p9.xyz,Nucleus 37H :,1.23472,-3.36627,-12.0504,24.2,29.14,20.56,22.89,-89.63,84.72,17.52,114.76,6.69,-61.47,20.56,22.89,29.14,0,8.58,-0.46
KLaL_cation_pi_RCCE_opt_0p9.xyz,Nucleus 40H :,1.91674,-2.09261,-11.03742,27.12,23.67,30.15,27.55,60.52,-70.53,-20.06,-32.06,94.2,49.3,23.67,27.55,30.15,0,6.48,0.2
KLaL_cation_pi_RCCE_opt_0p9.xyz,Nucleus 41H :,-0.11608,-1.76989,-11.58662,27.49,34.47,24.77,23.23,-115.1,58.06,-36.03,139.63,-24.31,60.22,23.23,24.77,34.47,0,11.24,-0.73
KLaL_cation_pi_RCCE_opt_0p9.xyz,Nucleus 44H :,-0.34726,-0.74504,-10.66249,23.83,28.3,22.85,20.34,61.14,-88.42,-39.9,-35.41,110.22,63.86,20.34,22.85,28.3,0,7.96,-0.37
KLaL_cation_pi_RCCE_opt_0p9.xyz,Nucleus 46H :,0.48968,-0.37756,-10.07614,24.27,20.72,26.31,25.77,71.05,-35.26,-70.07,-45.4,61.55,90.91,20.72,25.77,26.31,0,5.59,0.81
KLaL_cation_pi_RCCE_opt_0p9.xyz,Nucleus 48H :,-1.61623,-0.22215,-10.4753,23.78,28.21,22.78,20.35,65.8,-48.98,-11.71,-39.57,71.93,33.86,20.35,22.78,28.21,0,7.86,-0.38
KLaL_cation_pi_RCCE_opt_0p9.xyz,Nucleus 53H :,-1.78286,0.55559,-9.73755,30.9,38.59,30.11,24.01,12.56,116.1,96.99,11.79,-83.87,-60.87,24.01,30.11,38.59,0,14.58,-0.16
KLaL_cation_pi_RCCE_opt_0p9.xyz,Nucleus 55H :,-2.67282,-0.71904,-11.20753,27.95,21.36,25.2,37.29,-35.51,24.94,80.16,58.15,1.49,-45.37,21.36,25.2,37.29,0,15.93,-0.52
KLaL_cation_pi_RCCE_opt_0p9.xyz,Nucleus 56H :,-3.67284,-0.32653,-11.04041,28.46,36.86,21.38,27.14,-66.83,32.6,85.77,88.35,3.06,-57.58,21.38,27.14,36.86,0,15.48,-0.26
KLaL_cation_pi_RCCE_opt_0p9.xyz,Nucleus 58H :,-2.50759,-1.75085,-12.13052,31.01,38.73,30.05,24.24,14.8,46.63,108.99,-84.36,15.44,-8.48,24.24,30.05,38.73,0,14.49,-0.2
KLaL_cation_pi_RCCE_opt_0p9.xyz,Nucleus 60H :,-1.21105,-2.26606,-12.34584,27.95,37.27,21.38,25.19,90.82,62.61,22.15,-66.04,-35.71,10.02,21.38,25.19,37.27,0,15.89,-0.52
KLaL_cation_pi_RCCE_opt_0p9.xyz,Nucleus 61H :,2.06614,-2.26271,-14.33433,28.42,36.85,21.36,27.06,144.13,11.14,85.96,-122.24,16.36,-50.09,21.36,27.06,36.85,0,15.49,-0.26
KLaL_cation_pi_RCCE_opt_0p9.xyz,Nucleus 62H :,-3.05617,-3.70143,-15.43508,25.84,37.4,18.22,21.91,21.5,41.68,67.66,0.4,-12.51,-41.2,18.22,21.91,37.4,0,19.18,-0.61
KLaL_cation_pi_RCCE_opt_0p9.xyz,Nucleus 63H :,-0.20716,-3.15713,-16.57412,24.65,35.77,22.75,15.44,85.43,41.76,12.48,-51.72,-18.84,4.85,15.44,22.75,35.77,0,20.33,-0.28
KLaL_cation_pi_RCCE_opt_0p9.xyz,Nucleus 64H :,-3.64618,-2.26946,-12.97424,27.77,42.17,19.56,21.59,77.23,-19.63,8.01,-37.04,40.83,13.91,19.56,21.59,42.17,0,22.61,-0.82
KLaL_cation_pi_RCCE_opt_0p9.xyz,Nucleus 65H :,-4.58558,-2.02912,-12.46536,24.31,36.45,22.47,14.02,53.49,21.77,36.87,-33.84,3.44,-8.8,14.02,22.47,36.45,0,22.43,-0.25
KLaL_cation_pi_RCCE_opt_0p9.xyz,Nucleus 2C :,-3.63086,-3.36289,-13.04152,151.89,135.06,163.34,157.27,298.4,170.24,219.46,-8.88,-144.2,-79.34,135.06,157.27,163.34,0,28.28,0.57
KLaL_cation_pi_RCCE_opt_0p9.xyz,Nucleus 5C :,-3.67186,-1.63971,-14.35326,41.17,162.04,5.79,-44.32,298.95,262.82,275.48,-108.09,-289.78,-315.87,-44.32,5.79,162.04,0,206.36,-0.51
KLaL_cation_pi_RCCE_opt_0p9.xyz,Nucleus 6C :,-3.9616,-0.28059,-14.4534,49.07,165.27,-56.7,38.64,227.44,320.14,292.56,-80.51,-367.12,-245.3,-56.7,38.64,165.27,0,221.97,-0.14
KLaL_cation_pi_RCCE_opt_0p9.xyz,Nucleus 8C :,-4.26639,0.26235,-13.56389,56.36,176.86,-56.37,48.58,229.69,330.7,288.29,-77.08,-253.74,-348.78,-56.37,48.58,176.86,0,233.23,-0.1
KLaL_cation_pi_RCCE_opt_0p9.xyz,Nucleus 10C :,-3.86508,0.37227,-15.67146,46.0,165.84,33.68,-61.51,235.31,335.76,288.85,-107.94,-336.96,-277.02,-61.51,33.68,165.84,0,227.35,-0.16
KLaL_cation_pi_RCCE_opt_0p9.xyz,Nucleus 12C :,-4.13466,1.42199,-15.74103,40.72,163.7,-40.29,-1.24,229.21,312.49,269.64,-77.32,-331.15,-280.7,-40.29,-1.24,163.7,0,203.99,-0.62
KLaL_cation_pi_RCCE_opt_0p9.xyz,Nucleus 13C :,-3.41889,-0.29236,-16.78652,152.32,134.39,164.34,158.24,341.66,245.46,293.45,-89.8,-177.51,-156.3,134.39,158.24,164.34,0,29.95,0.59
KLaL_cation_pi_RCCE_opt_0p9.xyz,Nucleus 16C :,-3.30176,0.23385,-17.72915,43.35,160.8,-28.68,-2.07,317.04,249.55,265.3,-89.11,-345.17,-267.56,-28.68,-2.07,160.8,0,189.48,-0.72
KLaL_cation_pi_RCCE_opt_0p9.xyz,Nucleus 17C :,-3.10266,-1.66591,-16.73126,45.41,-59.59,39.32,156.5,348.26,284.55,260.74,-383.68,-246.83,-126.8,-59.59,39.32,156.5,0,216.09,-0.08
KLaL_cation_pi_RCCE_opt_0p9.xyz,Nucleus 19C :,-2.49736,-2.31516,-17.95972,60.68,175.65,52.46,-46.08,337.39,238.4,283.97,-108.82,-288.96,-279.96,-46.08,52.46,175.65,0,221.73,-0.11
KLaL_cation_pi_RCCE_opt_0p9.xyz,Nucleus 21C :,-2.47907,-3.407,-17.86462,49.49,-53.49,45.07,156.89,364.47,267.39,255.99,-394.71,-105.64,-239.04,-53.49,45.07,156.89,0,210.38,-0.06
KLaL_cation_pi_RCCE_opt_0p9.xyz,Nucleus 23C :,-3.14888,-2.11605,-18.81737,47.48,155.49,-30.15,17.1,324.17,288.99,262.04,-346.92,-273.68,-112.18,-30.15,17.1,155.49,0,185.64,-0.49
KLaL_cation_pi_RCCE_opt_0p9.xyz,Nucleus 24C :,-1.12737,-1.77181,-18.26735,20.12,120.88,10.0,-70.53,248.89,314.53,296.59,-154.72,-297.26,-347.66,-70.53,10.0,120.88,0,191.41,-0.16
KLaL_cation_pi_RCCE_opt_0p9.xyz,Nucleus 25C :,-0.91658,-0.74033,-19.18898,20.99,109.95,-59.84,12.87,220.19,276.14,292.38,-114.17,-346.28,-265.29,-59.84,12.87,109.95,0,169.79,-0.14
KLaL_cation_pi_RCCE_opt_0p9.xyz,Nucleus 28C :,-1.75776,-0.38293,-19.77633,152.76,135.47,164.66,158.16,327.7,216.06,273.8,-165.63,-73.38,-120.26,135.47,158.16,164.66,0,29.19,0.55
KLaL_cation_pi_RCCE_opt_0p9.xyz,Nucleus 31C :,0.34176,-0.19192,-19.37488,39.98,163.58,1.38,-45.02,214.48,279.77,252.08,-66.04,-246.72,-313.63,-45.02,1.38,163.58,0,208.6,-0.56
KLaL_cation_pi_RCCE_opt_0p9.xyz,Nucleus 32C :,0.49023,0.59144,-20.11041,45.56,165.52,-60.24,31.4,195.03,324.8,266.98,-101.87,-256.96,-291.29,-60.24,31.4,165.52,0,225.76,-0.19
KLaL_cation_pi_RCCE_opt_0p9.xyz,Nucleus 34C :,1.40802,-0.66952,-18.64383,51.41,178.06,-62.88,39.05,327.49,177.93,240.21,-48.54,-337.91,-204.95,-62.88,39.05,178.06,0,240.94,-0.15
KLaL_cation_pi_RCCE_opt_0p9.xyz,Nucleus 36C :,2.40209,-0.26185,-18.80495,45.4,166.19,30.51,-60.51,152.61,329.59,244.26,-45.18,-354.64,-190.45,-60.51,30.51,166.19,0,226.7,-0.2
KLaL_cation_pi_RCCE_opt_0p9.xyz,Nucleus 38C :,1.26331,-1.70665,-17.72336,41.78,163.29,-42.94,4.98,222.06,289.54,312.61,-119.06,-266.51,-313.31,-42.94,4.98,163.29,0,206.23,-0.54
KLaL_cation_pi_RCCE_opt_0p9.xyz,Nucleus 39C :,-0.02275,-2.248,-17.50932,153.75,136.71,165.87,158.66,271.23,143.36,193.38,16.25,-112.52,-50.47,136.71,158.66,165.87,0,29.16,0.51
KLaL_cation_pi_RCCE_opt_0p9.xyz,Nucleus 42C :,-3.29932,-2.31449,-15.5209,45.96,155.84,-32.2,14.25,168.56,229.78,272.75,-49.41,-254.26,-229.53,-32.2,14.25,155.84,0,188.04,-0.51
KLaL_cation_pi_RCCE_opt_0p9.xyz,Nucleus 43C :,-0.634,0.36673,-14.92549,47.19,-56.78,41.33,157.01,142.66,286.84,205.73,-297.17,-142.22,-54.28,-56.78,41.33,157.01,0,213.79,-0.08
KLaL_cation_pi_RCCE_opt_0p9.xyz,Nucleus 45C :,-0.61955,-0.12075,-14.04083,59.62,176.03,50.21,-47.39,303.22,216.04,208.81,-34.25,-165.13,-349.83,-47.39,50.21,176.03,0,223.42,-0.13
KLaL_cation_pi_RCCE_opt_0p9.xyz,Nucleus 47C :,-0.34639,2.34638,-16.01492,47.15,-56.28,41.08,156.66,164.76,299.18,230.08,-299.18,-180.09,-73.3,-56.28,41.08,156.66,0,212.94,-0.09
KLaL_cation_pi_RCCE_opt_0p9.xyz,Nucleus 49C :,-0.35573,3.35022,-16.04481,46.07,161.26,-24.59,1.54,229.66,260.18,281.64,-98.04,-246.83,-288.4,-24.59,1.54,161.26,0,185.85,-0.72
KLaL_cation_pi_RCCE_opt_0p9.xyz,Nucleus 50C :,-0.07021,1.85851,-16.85674,21.54,-70.83,14.15,121.31,138.64,252.45,270.74,-35.56,-241.78,-319.85,-70.83,14.15,121.31,0,192.14,-0.12
KLaL_cation_pi_RCCE_opt_0p9.xyz,Nucleus 51C :,-0.64706,1.68323,-14.92389,28.57,104.72,-56.99,37.99,156.78,296.08,269.25,-86.01,-227.01,-323.37,-56.99,37.99,104.72,0,161.71,0.17
KLaL_cation_pi_RCCE_opt_0p9.xyz,Nucleus 57C :,-0.16135,-0.10342,-15.68304,28.98,128.99,-29.53,-12.52,236.29,275.55,318.66,-117.76,-283.82,-341.98,-29.53,-12.52,128.99,0,158.52,-0.79
KLaL_cation_pi_RCCE_opt_0p9.xyz,Nucleus 52N :,-0.9608,2.33763,-13.83124,170.56,103.08,197.81,210.8,421.21,349.63,306.74,-280.5,-123.42,-161.96,103.08,197.81,210.8,0,107.72,0.76
KLaL_cation_pi_RCCE_opt_0p9.xyz,Nucleus 54N :,-0.9621,3.34135,-13.79599,179.29,230.01,182.31,125.56,211.97,321.23,382.86,-30.16,-202.52,-145.51,125.56,182.31,230.01,0,104.45,0.09
KLaL_cation_pi_RCCE_opt_0p9.xyz,Nucleus 59N :,-1.16151,1.84139,-12.97253,178.89,229.68,182.37,124.63,411.26,317.97,365.36,-96.63,-224.45,-236.84,124.63,182.37,229.68,0,105.05,0.1
KLaL_cation_pi_RCCE_opt_1p0.xyz,Nucleus 3H :,1.85056,-3.65399,-14.42354,27.72,34.46,24.99,23.7,-79.88,77.22,20.13,106.16,-46.91,6.43,23.7,24.99,34.46,0,10.76,-0.76
KLaL_cation_pi_RCCE_opt_1p0.xyz,Nucleus 4H :,-1.00867,-3.16908,-13.28325,26.89,23.4,27.28,29.98,-57.96,11.49,84.47,82.89,16.77,-57.0,23.4,27.28,29.98,0,6.58,0.18
KLaL_cation_pi_RCCE_opt_1p0.xyz,Nucleus 7H :,2.41198,-2.20461,-16.88088,24.36,29.08,23.33,20.68,-44.12,61.52,97.54,68.97,-36.2,-74.62,20.68,23.33,29.08,0,8.4,-0.37
KLaL_cation_pi_RCCE_opt_1p0.xyz,Nucleus 9H :,3.34765,-1.9455,-17.38756,24.8,21.61,25.98,26.82,6.43,95.99,71.38,19.45,-69.71,-49.12,21.61,25.98,26.82,0,5.21,0.68
KLaL_cation_pi_RCCE_opt_1p0.xyz,Nucleus 11H :,2.39691,-3.29532,-16.81784,24.26,29.13,20.56,23.08,135.35,58.97,32.62,-110.89,-33.98,-9.29,20.56,23.08,29.13,0,8.57,-0.41
KLaL_cation_pi_RCCE_opt_1p0.xyz,Nucleus 14H :,2.4252,-1.57784,-15.50033,26.23,23.04,29.55,26.11,16.86,93.35,70.16,9.21,-69.25,-41.62,23.04,26.11,29.55,0,6.51,-0.06
KLaL_cation_pi_RCCE_opt_1p0.xyz,Nucleus 15H :,2.68791,-0.21348,-15.39687,27.92,34.75,25.29,23.73,133.46,36.78,62.8,-106.78,-3.73,-38.76,23.73,25.29,34.75,0,11.02,-0.72
KLaL_cation_pi_RCCE_opt_1p0.xyz,Nucleus 18H :,2.98968,0.34051,-16.28164,23.71,28.09,22.64,20.39,124.94,87.05,37.74,-102.92,-64.81,-10.89,20.39,22.64,28.09,0,7.7,-0.42
KLaL_cation_pi_RCCE_opt_1p0.xyz,Nucleus 20H :,2.57849,0.43438,-14.17723,24.35,20.82,26.39,25.83,91.99,103.18,35.18,-65.96,-81.88,-9.47,20.82,25.83,26.39,0,5.57,0.8
KLaL_cation_pi_RCCE_opt_1p0.xyz,Nucleus 22H :,2.82822,1.48929,-14.10622,23.98,28.47,23.06,20.41,123.36,24.55,72.71,-100.16,2.94,-51.45,20.41,23.06,28.47,0,8.06,-0.34
KLaL_cation_pi_RCCE_opt_1p0.xyz,Nucleus 29H :,2.14561,-0.24168,-13.06379,27.54,34.38,24.86,23.39,127.69,8.56,29.69,-99.63,22.31,-6.0,23.39,24.86,34.38,0,10.99,-0.73
KLaL_cation_pi_RCCE_opt_1p0.xyz,Nucleus 30H :,2.02109,0.28044,-12.11936,27.0,23.37,27.56,30.08,4.63,90.71,64.29,22.74,-65.59,-35.77,23.37,27.56,30.08,0,6.71,0.25
KLaL_cation_pi_RCCE_opt_1p0.xyz,Nucleus 33H :,1.85668,-1.6211,-13.12241,24.12,28.94,20.56,22.86,131.14,19.22,4.6,-107.07,5.51,18.95,20.56,22.86,28.94,0,8.38,-0.45
KLaL_cation_pi_RCCE_opt_1p0.xyz,Nucleus 35H :,1.26442,-2.28521,-11.89554,24.53,21.28,25.61,26.71,92.24,-30.75,5.41,-66.55,55.96,17.3,21.28,25.61,26.71,0,5.43,0.6
KLaL_cation_pi_RCCE_opt_1p0.xyz,Nucleus 37H :,1.23472,-3.36627,-12.0504,24.2,29.16,20.58,22.86,-88.73,84.87,17.6,113.87,6.63,-61.64,20.58,22.86,29.16,0,8.58,-0.47
KLaL_cation_pi_RCCE_opt_1p0.xyz,Nucleus 40H :,1.91674,-2.09261,-11.03742,27.12,23.68,30.14,27.55,60.52,-70.5,-19.73,-32.09,94.18,48.99,23.68,27.55,30.14,0,6.46,0.2
KLaL_cation_pi_RCCE_opt_1p0.xyz,Nucleus 41H :,-0.11608,-1.76989,-11.58662,27.5,34.45,24.79,23.25,-114.73,58.05,-35.39,139.27,-24.32,59.61,23.25,24.79,34.45,0,11.2,-0.73
KLaL_cation_pi_RCCE_opt_1p0.xyz,Nucleus 44H :,-0.34726,-0.74504,-10.66249,23.84,28.31,22.85,20.36,61.14,-88.36,-39.22,-35.44,110.14,63.25,20.36,22.85,28.31,0,7.95,-0.37
KLaL_cation_pi_RCCE_opt_1p0.xyz,Nucleus 46H :,0.48968,-0.37756,-10.07614,24.28,20.75,26.33,25.76,70.85,-35.61,-70.68,-45.21,61.92,91.56,20.75,25.76,26.33,0,5.58,0.8
KLaL_cation_pi_RCCE_opt_1p0.xyz,Nucleus 48H :,-1.61623,-0.22215,-10.4753,23.78,28.21,22.77,20.37,65.75,-48.65,-12.39,-39.56,71.61,34.59,20.37,22.77,28.21,0,7.84,-0.39
KLaL_cation_pi_RCCE_opt_1p0.xyz,Nucleus 53H :,-1.78286,0.55559,-9.73755,30.89,38.53,29.87,24.27,12.73,116.54,97.3,11.86,-84.73,-61.03,24.27,29.87,38.53,0,14.26,-0.21
KLaL_cation_pi_RCCE_opt_1p0.xyz,Nucleus 55H :,-2.67282,-0.71904,-11.20753,27.89,21.28,25.14,37.26,-36.52,24.76,79.25,59.07,1.61,-44.48,21.28,25.14,37.26,0,15.98,-0.52
KLaL_cation_pi_RCCE_opt_1p0.xyz,Nucleus 56H :,-3.67284,-0.32653,-11.04041,28.33,36.59,21.26,27.15,-67.94,31.89,84.23,89.35,3.42,-55.95,21.26,27.15,36.59,0,15.33,-0.23
KLaL_cation_pi_RCCE_opt_1p0.xyz,Nucleus 58H :,-2.50759,-1.75085,-12.13052,30.98,38.68,29.79,24.48,14.71,46.13,107.72,-82.81,15.26,-8.05,24.48,29.79,38.68,0,14.2,-0.25
KLaL_cation_pi_RCCE_opt_1p0.xyz,Nucleus 60H :,-1.21105,-2.26606,-12.34584,27.89,37.23,21.3,25.13,89.92,61.97,22.08,-65.16,-35.15,10.0,21.3,25.13,37.23,0,15.93,-0.52
KLaL_cation_pi_RCCE_opt_1p0.xyz,Nucleus 61H :,2.06614,-2.26271,-14.33433,28.29,36.57,21.24,27.07,144.39,11.68,85.2,-122.61,15.86,-49.63,21.24,27.07,36.57,0,15.33,-0.24
KLaL_cation_pi_RCCE_opt_1p0.xyz,Nucleus 62H :,-3.05617,-3.70143,-15.43508,25.84,37.41,18.19,21.91,21.35,41.66,67.68,0.65,-12.5,-41.33,18.19,21.91,37.41,0,19.22,-0.61
KLaL_cation_pi_RCCE_opt_1p0.xyz,Nucleus 63H :,-0.20716,-3.15713,-16.57412,24.65,35.77,22.79,15.4,85.51,41.94,12.23,-51.82,-18.9,5.01,15.4,22.79,35.77,0,20.37,-0.27
KLaL_cation_pi_RCCE_opt_1p0.xyz,Nucleus 64H :,-3.64618,-2.26946,-12.97424,27.77,42.14,19.57,21.61,77.3,-19.68,7.95,-37.12,40.9,13.98,19.57,21.61,42.14,0,22.57,-0.82
KLaL_cation_pi_RCCE_opt_1p0.xyz,Nucleus 65H :,-4.58558,-2.02912,-12.46536,24.32,36.46,22.51,13.98,53.76,22.35,36.42,-34.12,2.77,-8.24,13.98,22.51,36.46,0,22.48,-0.24
KLaL_cation_pi_RCCE_opt_1p0.xyz,Nucleus 2C :,-3.63086,-3.36289,-13.04152,151.86,135.03,163.34,157.21,298.29,170.33,218.56,-8.95,-144.01,-78.62,135.03,157.21,163.34,0,28.31,0.57
KLaL_cation_pi_RCCE_opt_1p0.xyz,Nucleus 5C :,-3.67186,-1.63971,-14.35326,40.91,162.0,5.25,-44.51,300.14,264.0,273.91,-107.82,-291.44,-316.05,-44.51,5.25,162.0,0,206.51,-0.52
KLaL_cation_pi_RCCE_opt_1p0.xyz,Nucleus 6C :,-3.9616,-0.28059,-14.4534,49.35,165.21,-56.31,39.16,229.99,319.88,291.65,-82.17,-366.7,-244.58,-56.31,39.16,165.21,0,221.52,-0.14
KLaL_cation_pi_RCCE_opt_1p0.xyz,Nucleus 8C :,-4.26639,0.26235,-13.56389,56.5,176.76,-56.27,49.01,231.62,328.86,288.02,-78.24,-252.12,-348.65,-56.27,49.01,176.76,0,233.03,-0.1
KLaL_cation_pi_RCCE_opt_1p0.xyz,Nucleus 10C :,-3.86508,0.37227,-15.67146,46.25,165.78,34.11,-61.15,235.97,334.06,288.29,-107.94,-335.5,-276.14,-61.15,34.11,165.78,0,226.93,-0.16
KLaL_cation_pi_RCCE_opt_1p0.xyz,Nucleus 12C :,-4.13466,1.42199,-15.74103,40.46,163.65,-40.47,-1.81,229.68,311.37,269.25,-77.5,-330.76,-280.67,-40.47,-1.81,163.65,0,204.12,-0.62
KLaL_cation_pi_RCCE_opt_1p0.xyz,Nucleus 13C :,-3.41889,-0.29236,-16.78652,152.3,134.37,164.33,158.19,341.9,245.29,294.03,-89.66,-177.76,-156.92,134.37,158.19,164.33,0,29.96,0.59
KLaL_cation_pi_RCCE_opt_1p0.xyz,Nucleus 16C :,-3.30176,0.23385,-17.72915,43.28,160.77,-28.75,-2.18,316.94,250.39,267.13,-89.75,-345.22,-269.65,-28.75,-2.18,160.77,0,189.52,-0.72
KLaL_cation_pi_RCCE_opt_1p0.xyz,Nucleus 17C :,-3.10266,-1.66591,-16.73126,45.49,-59.56,39.59,156.44,347.67,285.0,260.99,-382.91,-247.2,-127.09,-59.56,39.59,156.44,0,216.0,-0.08
KLaL_cation_pi_RCCE_opt_1p0.xyz,Nucleus 19C :,-2.49736,-2.31516,-17.95972,60.82,175.56,52.83,-45.93,337.92,239.41,284.33,-109.2,-289.75,-280.26,-45.93,52.83,175.56,0,221.49,-0.11
KLaL_cation_pi_RCCE_opt_1p0.xyz,Nucleus 21C :,-2.47907,-3.407,-17.86462,49.53,-53.5,45.28,156.82,363.87,267.33,257.12,-394.82,-106.04,-238.86,-53.5,45.28,156.82,0,210.32,-0.06
KLaL_cation_pi_RCCE_opt_1p0.xyz,Nucleus 23C :,-3.14888,-2.11605,-18.81737,47.51,155.45,-30.05,17.12,322.99,289.34,263.27,-346.1,-273.88,-113.1,-30.05,17.12,155.45,0,185.5,-0.49
KLaL_cation_pi_RCCE_opt_1p0.xyz,Nucleus 24C :,-1.12737,-1.77181,-18.26735,19.95,120.82,9.79,-70.75,247.95,315.97,299.35,-153.68,-298.82,-350.92,-70.75,9.79,120.82,0,191.57,-0.16
KLaL_cation_pi_RCCE_opt_1p0.xyz,Nucleus 25C :,-0.91658,-0.74033,-19.18898,20.9,109.88,-60.01,12.82,219.68,276.97,292.31,-114.22,-346.56,-265.49,-60.01,12.82,109.88,0,169.89,-0.14
KLaL_cation_pi_RCCE_opt_1p0.xyz,Nucleus 28C :,-1.75776,-0.38293,-19.77633,152.74,135.47,164.66,158.09,327.72,216.34,273.92,-165.62,-73.45,-120.69,135.47,158.09,164.66,0,29.19,0.55
KLaL_cation_pi_RCCE_opt_1p0.xyz,Nucleus 31C :,0.34176,-0.19192,-19.37488,39.83,163.55,0.97,-45.02,214.14,279.83,251.38,-65.67,-246.42,-313.76,-45.02,0.97,163.55,0,208.57,-0.56
KLaL_cation_pi_RCCE_opt_1p0.xyz,Nucleus 32C :,0.49023,0.59144,-20.11041,45.7,165.46,-60.01,31.66,196.71,324.13,266.43,-102.11,-256.69,-291.36,-60.01,31.66,165.46,0,225.47,-0.19
KLaL_cation_pi_RCCE_opt_1p0.xyz,Nucleus 34C :,1.40802,-0.66952,-18.64383,51.44,177.97,-62.87,39.22,327.09,179.17,239.68,-49.32,-337.42,-204.89,-62.87,39.22,177.97,0,240.84,-0.15
KLaL_cation_pi_RCCE_opt_1p0.xyz,Nucleus 36C :,2.40209,-0.26185,-18.80495,45.53,166.13,30.73,-60.27,154.97,329.16,244.92,-46.86,-354.76,-190.84,-60.27,30.73,166.13,0,226.4,-0.2
KLaL_cation_pi_RCCE_opt_1p0.xyz,Nucleus 38C :,1.26331,-1.70665,-17.72336,41.64,163.25,-42.91,4.59,222.36,289.85,313.93,-119.49,-267.24,-314.48,-42.91,4.59,163.25,0,206.16,-0.54
KLaL_cation_pi_RCCE_opt_1p0.xyz,Nucleus 39C :,-0.02275,-2.248,-17.50932,153.73,136.73,165.87,158.59,271.13,143.64,193.68,16.13,-112.49,-50.89,136.73,158.59,165.87,0,29.14,0.5
KLaL_cation_pi_RCCE_opt_1p0.xyz,Nucleus 42C :,-3.29932,-2.31449,-15.5209,46.0,155.8,-32.08,14.28,169.52,228.9,272.6,-48.74,-255.28,-228.99,-32.08,14.28,155.8,0,187.88,-0.51
KLaL_cation_pi_RCCE_opt_1p0.xyz,Nucleus 43C :,-0.634,0.46673,-14.92549,47.26,-56.75,41.58,156.96,143.98,286.44,205.86,-296.52,-143.96,-54.01,-56.75,41.58,156.96,0,213.71,-0.08
KLaL_cation_pi_RCCE_opt_1p0.xyz,Nucleus 45C :,-0.61955,-0.02075,-14.04083,59.75,175.95,50.57,-47.26,301.43,215.68,207.73,-33.75,-164.08,-347.75,-47.26,50.57,175.95,0,223.21,-0.12
KLaL_cation_pi_RCCE_opt_1p0.xyz,Nucleus 47C :,-0.34639,2.44638,-16.01492,47.2,-56.3,41.3,156.59,165.41,297.92,229.7,-297.96,-180.27,-73.19,-56.3,41.3,156.59,0,212.89,-0.08
KLaL_cation_pi_RCCE_opt_1p0.xyz,Nucleus 49C :,-0.35573,3.45022,-16.04481,45.98,161.22,-24.69,1.4,230.23,260.05,277.45,-97.33,-246.26,-286.2,-24.69,1.4,161.22,0,185.91,-0.72
KLaL_cation_pi_RCCE_opt_1p0.xyz,Nucleus 50C :,-0.07021,1.95851,-16.85674,21.39,-71.02,13.96,121.24,136.79,249.12,269.47,-35.17,-240.01,-316.02,-71.02,13.96,121.24,0,192.26,-0.12
KLaL_cation_pi_RCCE_opt_1p0.xyz,Nucleus 51C :,-0.64706,1.78323,-14.92389,28.58,104.67,-56.94,38.02,156.99,296.3,268.98,-86.16,-226.94,-323.41,-56.94,38.02,104.67,0,161.61,0.18
KLaL_cation_pi_RCCE_opt_1p0.xyz,Nucleus 57C :,-0.16135,-0.00342,-15.68304,28.99,128.59,-29.17,-12.44,235.95,275.13,318.1,-117.83,-283.22,-341.16,-29.17,-12.44,128.59,0,157.76,-0.79
KLaL_cation_pi_RCCE_opt_1p0.xyz,Nucleus 52N :,-0.9608,2.43763,-13.83124,170.0,102.5,197.4,210.1,421.35,349.28,307.19,-280.77,-124.81,-162.24,102.5,197.4,210.1,0,107.6,0.76
KLaL_cation_pi_RCCE_opt_1p0.xyz,Nucleus 54N :,-0.9621,3.44135,-13.79599,179.48,230.46,182.29,125.7,210.82,321.01,381.91,-28.99,-201.53,-144.76,125.7,182.29,230.46,0,104.76,0.08
KLaL_cation_pi_RCCE_opt_1p0.xyz,Nucleus 59N :,-1.16151,1.94139,-12.97253,179.09,230.11,182.38,124.78,411.03,318.01,364.57,-224.17,-236.04,-96.14,124.78,182.38,230.11,0,105.33,0.09
KLaL_cation_pi_RCCE_opt_1p1.xyz,Nucleus 3H :,1.85056,-3.65399,-14.42354,27.72,34.44,25.01,23.72,-79.61,77.29,19.62,105.89,-46.96,6.94,23.72,25.01,34.44,0,10.72,-0.76
KLaL_cation_pi_RCCE_opt_1p1.xyz,Nucleus 4H :,-1.00867,-3.16908,-13.28325,26.89,23.41,27.28,29.98,-58.19,11.05,84.48,83.13,17.23,-57.03,23.41,27.28,29.98,0,6.57,0.18
KLaL_cation_pi_RCCE_opt_1p1.xyz,Nucleus 7H :,2.41198,-2.20461,-16.88088,24.37,29.1,23.3,20.71,-42.78,60.76,97.4,67.6,-35.4,-74.47,20.71,23.3,29.1,0,8.39,-0.38
KLaL_cation_pi_RCCE_opt_1p1.xyz,Nucleus 9H :,3.34765,-1.9455,-17.38756,24.82,21.68,25.93,26.84,7.21,95.66,71.28,18.67,-69.37,-48.99,21.68,25.93,26.84,0,5.16,0.65
KLaL_cation_pi_RCCE_opt_1p1.xyz,Nucleus 11H :,2.39691,-3.29532,-16.81784,24.27,29.15,20.59,23.06,134.21,59.65,32.55,-109.76,-34.62,-9.23,20.59,23.06,29.15,0,8.56,-0.42
KLaL_cation_pi_RCCE_opt_1p1.xyz,Nucleus 14H :,2.4252,-1.57784,-15.50033,26.24,23.06,29.55,26.1,16.76,93.67,70.44,9.29,-69.57,-41.9,23.06,26.1,29.55,0,6.49,-0.06
KLaL_cation_pi_RCCE_opt_1p1.xyz,Nucleus 15H :,2.68791,-0.21348,-15.39687,27.93,34.73,25.31,23.75,133.38,36.7,63.08,-106.7,-3.65,-39.02,23.75,25.31,34.73,0,10.98,-0.72
KLaL_cation_pi_RCCE_opt_1p1.xyz,Nucleus 18H :,2.98968,0.34051,-16.28164,23.72,28.1,22.64,20.41,124.63,87.26,37.78,-102.61,-64.97,-10.95,20.41,22.64,28.1,0,7.69,-0.42
KLaL_cation_pi_RCCE_opt_1p1.xyz,Nucleus 20H :,2.57849,0.43438,-14.17723,24.36,20.85,26.41,25.81,92.25,103.57,35.26,-66.18,-82.25,-9.57,20.85,25.81,26.41,0,5.56,0.78
KLaL_cation_pi_RCCE_opt_1p1.xyz,Nucleus 22H :,2.82822,1.48929,-14.10622,23.99,28.47,23.06,20.43,123.2,24.48,73.06,-100.01,3.0,-51.76,20.43,23.06,28.47,0,8.04,-0.35
KLaL_cation_pi_RCCE_opt_1p1.xyz,Nucleus 29H :,2.14561,-0.24168,-13.06379,27.55,34.36,24.88,23.41,127.59,8.52,29.88,-99.53,22.35,-6.17,23.41,24.88,34.36,0,10.95,-0.73
KLaL_cation_pi_RCCE_opt_1p1.xyz,Nucleus 30H :,2.02109,0.28044,-12.11936,27.0,23.38,27.56,30.07,4.56,90.8,64.38,22.8,-65.7,-35.84,23.38,27.56,30.07,0,6.69,0.25
KLaL_cation_pi_RCCE_opt_1p1.xyz,Nucleus 33H :,1.85668,-1.6211,-13.12241,24.12,28.96,20.57,22.83,130.74,20.08,4.63,-106.7,4.73,18.88,20.57,22.83,28.96,0,8.39,-0.46
KLaL_cation_pi_RCCE_opt_1p1.xyz,Nucleus 35H :,1.26442,-2.28521,-11.89554,24.54,21.35,25.54,26.74,92.16,-30.41,5.48,-66.51,55.64,17.26,21.35,25.54,26.74,0,5.39,0.56
KLaL_cation_pi_RCCE_opt_1p1.xyz,Nucleus 37H :,1.23472,-3.36627,-12.0504,24.2,29.19,20.59,22.83,-87.7,85.01,17.62,112.85,6.64,-61.81,20.59,22.83,29.19,0,8.6,-0.48
KLaL_cation_pi_RCCE_opt_1p1.xyz,Nucleus 40H :,1.91674,-2.09261,-11.03742,27.13,23.69,30.14,27.55,60.5,-70.48,-19.35,-32.09,94.18,48.62,23.69,27.55,30.14,0,6.45,0.2
KLaL_cation_pi_RCCE_opt_1p1.xyz,Nucleus 41H :,-0.11608,-1.76989,-11.58662,27.5,34.43,24.81,23.27,-114.43,58.05,-34.74,138.98,-24.33,58.98,23.27,24.81,34.43,0,11.16,-0.72
KLaL_cation_pi_RCCE_opt_1p1.xyz,Nucleus 44H :,-0.34726,-0.74504,-10.66249,23.84,28.31,22.84,20.38,61.14,-88.25,-38.49,-35.47,110.01,62.6,20.38,22.84,28.31,0,7.93,-0.38
KLaL_cation_pi_RCCE_opt_1p1.xyz,Nucleus 46H :,0.48968,-0.37756,-10.07614,24.29,20.78,26.35,25.74,70.63,-35.81,-71.32,-45.01,62.14,92.24,20.78,25.74,26.35,0,5.57,0.78
KLaL_cation_pi_RCCE_opt_1p1.xyz,Nucleus 48H :,-1.61623,-0.22215,-10.4753,23.79,28.22,22.76,20.4,65.7,-48.19,-13.0,-39.55,71.17,35.25,20.4,22.76,28.22,0,7.82,-0.4
KLaL_cation_pi_RCCE_opt_1p1.xyz,Nucleus 53H :,-1.78286,0.55559,-9.73755,30.85,38.45,29.59,24.5,12.86,116.98,97.56,11.95,-85.63,-61.17,24.5,29.59,38.45,0,13.95,-0.27
KLaL_cation_pi_RCCE_opt_1p1.xyz,Nucleus 55H :,-2.67282,-0.71904,-11.20753,27.84,21.21,25.08,37.22,-37.52,24.58,78.37,59.97,1.74,-43.63,21.21,25.08,37.22,0,16.01,-0.52
KLaL_cation_pi_RCCE_opt_1p1.xyz,Nucleus 56H :,-3.67284,-0.32653,-11.04041,28.22,36.34,21.16,27.15,-69.02,31.21,82.77,90.33,3.76,-54.4,21.16,27.15,36.34,0,15.18,-0.21
KLaL_cation_pi_RCCE_opt_1p1.xyz,Nucleus 58H :,-2.50759,-1.75085,-12.13052,30.94,38.62,29.49,24.7,14.51,45.64,106.47,-81.31,15.16,-7.66,24.7,29.49,38.62,0,13.92,-0.31
KLaL_cation_pi_RCCE_opt_1p1.xyz,Nucleus 60H :,-1.21105,-2.26606,-12.34584,27.83,37.2,21.22,25.07,89.01,61.35,22.02,-64.27,-34.61,9.99,21.22,25.07,37.2,0,15.98,-0.52
KLaL_cation_pi_RCCE_opt_1p1.xyz,Nucleus 61H :,2.06614,-2.26271,-14.33433,28.18,36.32,21.13,27.08,144.66,12.18,84.45,-122.99,15.4,-49.17,21.13,27.08,36.32,0,15.19,-0.22
KLaL_cation_pi_RCCE_opt_1p1.xyz,Nucleus 62H :,-3.05617,-3.70143,-15.43508,25.83,37.43,18.15,21.9,21.2,41.55,67.69,0.9,-12.4,-41.45,18.15,21.9,37.43,0,19.28,-0.61
KLaL_cation_pi_RCCE_opt_1p1.xyz,Nucleus 63H :,-0.20716,-3.15713,-16.57412,24.66,35.78,22.83,15.37,85.59,42.13,11.97,-51.92,-18.99,5.18,15.37,22.83,35.78,0,20.41,-0.27
KLaL_cation_pi_RCCE_opt_1p1.xyz,Nucleus 64H :,-3.64618,-2.26946,-12.97424,27.78,42.12,19.59,21.62,77.39,-19.74,7.91,-37.22,40.97,14.02,19.59,21.62,42.12,0,22.53,-0.82
KLaL_cation_pi_RCCE_opt_1p1.xyz,Nucleus 65H :,-4.58558,-2.02912,-12.46536,24.32,36.47,22.55,13.93,53.97,22.83,36.02,-34.37,2.23,-7.74,13.93,22.55,36.47,0,22.54,-0.24
KLaL_cation_pi_RCCE_opt_1p1.xyz,Nucleus 2C :,-3.63086,-3.36289,-13.04152,151.83,135.0,163.33,157.16,298.3,170.41,217.75,-9.01,-143.98,-77.98,135.0,157.16,163.33,0,28.33,0.56
KLaL_cation_pi_RCCE_opt_1p1.xyz,Nucleus 5C :,-3.67186,-1.63971,-14.35326,40.68,161.96,4.8,-44.72,301.45,265.1,272.49,-107.6,-293.09,-316.31,-44.72,4.8,161.96,0,206.68,-0.52
KLaL_cation_pi_RCCE_opt_1p1.xyz,Nucleus 6C :,-3.9616,-0.28059,-14.4534,49.61,165.15,-55.94,39.62,232.41,319.68,290.65,-83.73,-366.28,-243.91,-55.94,39.62,165.15,0,221.09,-0.14
KLaL_cation_pi_RCCE_opt_1p1.xyz,Nucleus 8C :,-4.26639,0.26235,-13.56389,56.63,176.64,-56.13,49.38,233.56,326.98,287.73,-79.4,-250.53,-348.44,-56.13,49.38,176.64,0,232.77,-0.09
KLaL_cation_pi_RCCE_opt_1p1.xyz,Nucleus 10C :,-3.86508,0.37227,-15.67146,46.47,165.71,34.51,-60.8,236.39,332.42,287.96,-107.86,-334.22,-275.28,-60.8,34.51,165.71,0,226.51,-0.16
KLaL_cation_pi_RCCE_opt_1p1.xyz,Nucleus 12C :,-4.13466,1.42199,-15.74103,40.22,163.61,-40.66,-2.29,230.03,310.15,269.01,-77.56,-330.35,-280.63,-40.66,-2.29,163.61,0,204.27,-0.62
KLaL_cation_pi_RCCE_opt_1p1.xyz,Nucleus 13C :,-3.41889,-0.29236,-16.78652,152.27,134.34,164.32,158.14,342.13,245.08,294.59,-89.47,-177.99,-157.53,134.34,158.14,164.32,0,29.98,0.59
KLaL_cation_pi_RCCE_opt_1p1.xyz,Nucleus 16C :,-3.30176,0.23385,-17.72915,43.21,160.74,-28.83,-2.27,316.98,250.85,269.2,-90.32,-345.39,-271.68,-28.83,-2.27,160.74,0,189.57,-0.72
KLaL_cation_pi_RCCE_opt_1p1.xyz,Nucleus 17C :,-3.10266,-1.66591,-16.73126,45.56,-59.54,39.85,156.38,346.89,285.46,261.22,-381.93,-247.61,-127.35,-59.54,39.85,156.38,0,215.92,-0.08
KLaL_cation_pi_RCCE_opt_1p1.xyz,Nucleus 19C :,-2.49736,-2.31516,-17.95972,60.95,175.47,53.18,-45.8,338.17,240.53,284.78,-109.61,-290.59,-280.43,-45.8,53.18,175.47,0,221.27,-0.11
KLaL_cation_pi_RCCE_opt_1p1.xyz,Nucleus 21C :,-2.47907,-3.407,-17.86462,49.58,-53.51,45.5,156.75,363.03,267.26,258.34,-394.65,-106.58,-238.64,-53.51,45.5,156.75,0,210.26,-0.06
KLaL_cation_pi_RCCE_opt_1p1.xyz,Nucleus 23C :,-3.14888,-2.11605,-18.81737,47.53,155.41,-29.98,17.15,321.89,289.56,264.45,-345.32,-273.93,-114.06,-29.98,17.15,155.41,0,185.39,-0.49
KLaL_cation_pi_RCCE_opt_1p1.xyz,Nucleus 24C :,-1.12737,-1.77181,-18.26735,19.79,120.75,9.6,-70.98,246.79,317.47,302.26,-152.51,-300.34,-354.29,-70.98,9.6,120.75,0,191.73,-0.16
KLaL_cation_pi_RCCE_opt_1p1.xyz,Nucleus 25C :,-0.91658,-0.74033,-19.18898,20.81,109.82,-60.19,12.8,219.01,277.8,292.19,-114.08,-265.7,-346.78,-60.19,12.8,109.82,0,170.01,-0.14
KLaL_cation_pi_RCCE_opt_1p1.xyz,Nucleus 28C :,-1.75776,-0.38293,-19.77633,152.72,135.48,164.66,158.03,327.78,216.56,274.0,-165.64,-73.47,-121.06,135.48,158.03,164.66,0,29.18,0.55
KLaL_cation_pi_RCCE_opt_1p1.xyz,Nucleus 31C :,0.34176,-0.19192,-19.37488,39.7,163.52,0.61,-45.04,213.69,279.97,250.89,-65.38,-246.2,-313.87,-45.04,0.61,163.52,0,208.56,-0.56
KLaL_cation_pi_RCCE_opt_1p1.xyz,Nucleus 32C :,0.49023,0.59144,-20.11041,45.84,165.4,-59.77,31.88,198.52,323.4,266.01,-102.5,-256.47,-291.46,-59.77,31.88,165.4,0,225.17,-0.19
KLaL_cation_pi_RCCE_opt_1p1.xyz,Nucleus 34C :,1.40802,-0.66952,-18.64383,51.46,177.87,-62.82,39.34,326.62,180.65,239.19,-50.18,-336.98,-204.91,-62.82,39.34,177.87,0,240.69,-0.15
KLaL_cation_pi_RCCE_opt_1p1.xyz,Nucleus 36C :,2.40209,-0.26185,-18.80495,45.66,166.06,30.92,-60.01,157.54,328.66,245.55,-48.56,-354.8,-191.42,-60.01,30.92,166.06,0,226.07,-0.2
KLaL_cation_pi_RCCE_opt_1p1.xyz,Nucleus 38C :,1.26331,-1.70665,-17.72336,41.53,163.22,-42.91,4.27,222.64,290.26,315.18,-119.92,-268.1,-315.48,-42.91,4.27,163.22,0,206.13,-0.54
KLaL_cation_pi_RCCE_opt_1p1.xyz,Nucleus 39C :,-0.02275,-2.248,-17.50932,153.72,136.75,165.87,158.53,271.0,143.81,194.11,16.09,-112.44,-51.43,136.75,158.53,165.87,0,29.12,0.5
KLaL_cation_pi_RCCE_opt_1p1.xyz,Nucleus 42C :,-3.29932,-2.31449,-15.5209,46.03,155.76,-31.99,14.33,272.49,228.21,170.49,-48.08,-256.49,-228.51,-31.99,14.33,155.76,0,187.75,-0.51
KLaL_cation_pi_RCCE_opt_1p1.xyz,Nucleus 43C :,-0.634,0.56673,-14.92549,47.34,-56.71,41.83,156.9,145.54,286.06,206.07,-295.91,-146.02,-53.72,-56.71,41.83,156.9,0,213.61,-0.08
KLaL_cation_pi_RCCE_opt_1p1.xyz,Nucleus 45C :,-0.61955,0.07925,-14.04083,59.87,175.86,50.9,-47.15,299.51,215.61,206.83,-33.35,-163.48,-345.51,-47.15,50.9,175.86,0,223.01,-0.12
KLaL_cation_pi_RCCE_opt_1p1.xyz,Nucleus 47C :,-0.34639,2.54638,-16.01492,47.25,-56.31,41.52,156.53,166.61,296.72,229.23,-296.93,-180.89,-72.99,-56.31,41.52,156.53,0,212.84,-0.08
KLaL_cation_pi_RCCE_opt_1p1.xyz,Nucleus 49C :,-0.35573,3.55022,-16.04481,45.9,161.19,-24.8,1.3,230.38,259.94,273.39,-96.68,-245.28,-284.06,-24.8,1.3,161.19,0,185.99,-0.72
KLaL_cation_pi_RCCE_opt_1p1.xyz,Nucleus 50C :,-0.07021,2.05851,-16.85674,21.26,-71.21,13.8,121.18,134.83,245.43,268.27,-34.79,-237.93,-312.03,-71.21,13.8,121.18,0,192.39,-0.12
KLaL_cation_pi_RCCE_opt_1p1.xyz,Nucleus 51C :,-0.64706,1.88323,-14.92389,28.59,104.63,-56.91,38.06,157.01,296.52,268.81,-86.12,-226.9,-323.54,-56.91,38.06,104.63,0,161.54,0.18
KLaL_cation_pi_RCCE_opt_1p1.xyz,Nucleus 57C :,-0.16135,0.09658,-15.68304,29.0,128.21,-28.82,-12.4,235.58,274.72,317.51,-117.84,-282.65,-340.32,-28.82,-12.4,128.21,0,157.03,-0.79
KLaL_cation_pi_RCCE_opt_1p1.xyz,Nucleus 52N :,-0.9608,2.53763,-13.83124,169.42,101.98,196.92,209.37,421.37,348.92,307.65,-280.93,-126.29,-162.45,101.98,196.92,209.37,0,107.39,0.77
KLaL_cation_pi_RCCE_opt_1p1.xyz,Nucleus 54N :,-0.9621,3.54135,-13.79599,179.66,230.85,182.28,125.85,209.71,320.77,380.97,-27.88,-200.57,-144.02,125.85,182.28,230.85,0,105.0,0.07
KLaL_cation_pi_RCCE_opt_1p1.xyz,Nucleus 59N :,-1.16151,2.04139,-12.97253,179.26,230.48,182.38,124.92,410.72,318.06,363.84,-223.82,-235.3,-95.71,124.92,182.38,230.48,0,105.56,0.09
KLaL_cation_pi_RCCE_opt_1p2.xyz,Nucleus 3H :,1.85056,-3.65399,-14.42354,27.73,34.42,25.03,23.74,-79.39,77.38,19.12,105.67,-47.03,7.45,23.74,25.03,34.42,0,10.68,-0.76
KLaL_cation_pi_RCCE_opt_1p2.xyz,Nucleus 4H :,-1.00867,-3.16908,-13.28325,26.89,23.43,27.27,29.97,-58.42,10.62,84.49,83.37,17.68,-57.06,23.43,27.27,29.97,0,6.54,0.17
KLaL_cation_pi_RCCE_opt_1p2.xyz,Nucleus 7H :,2.41198,-2.20461,-16.88088,24.38,29.13,23.28,20.73,-41.43,59.96,97.22,66.23,-34.56,-74.29,20.73,23.28,29.13,0,8.4,-0.39
KLaL_cation_pi_RCCE_opt_1p2.xyz,Nucleus 9H :,3.34765,-1.9455,-17.38756,24.83,21.75,25.88,26.86,8.06,95.24,71.12,17.82,-68.96,-48.8,21.75,25.88,26.86,0,5.11,0.62
KLaL_cation_pi_RCCE_opt_1p2.xyz,Nucleus 11H :,2.39691,-3.29532,-16.81784,24.27,29.18,20.61,23.03,133.02,60.38,32.47,-108.59,-35.31,-9.16,20.61,23.03,29.18,0,8.57,-0.43
KLaL_cation_pi_RCCE_opt_1p2.xyz,Nucleus 14H :,2.4252,-1.57784,-15.50033,26.24,23.07,29.56,26.08,16.68,94.02,70.68,9.36,-69.9,-42.13,23.07,26.08,29.56,0,6.49,-0.07
KLaL_cation_pi_RCCE_opt_1p2.xyz,Nucleus 15H :,2.68791,-0.21348,-15.39687,27.94,34.71,25.33,23.77,133.32,36.61,63.32,-106.63,-3.57,-39.25,23.77,25.33,34.71,0,10.94,-0.72
KLaL_cation_pi_RCCE_opt_1p2.xyz,Nucleus 18H :,2.98968,0.34051,-16.28164,23.72,28.1,22.63,20.43,124.27,87.45,37.81,-102.25,-65.11,-10.99,20.43,22.63,28.1,0,7.67,-0.43
KLaL_cation_pi_RCCE_opt_1p2.xyz,Nucleus 20H :,2.57849,0.43438,-14.17723,24.37,20.88,26.43,25.8,92.43,103.95,35.35,-66.31,-82.62,-9.68,20.88,25.8,26.43,0,5.55,0.77
KLaL_cation_pi_RCCE_opt_1p2.xyz,Nucleus 22H :,2.82822,1.48929,-14.10622,23.99,28.48,23.05,20.45,122.96,24.42,73.4,-99.78,3.04,-52.06,20.45,23.05,28.48,0,8.03,-0.35
KLaL_cation_pi_RCCE_opt_1p2.xyz,Nucleus 29H :,2.14561,-0.24168,-13.06379,27.55,34.35,24.89,23.42,127.51,8.49,30.05,-99.45,22.38,-6.31,23.42,24.89,34.35,0,10.93,-0.73
KLaL_cation_pi_RCCE_opt_1p2.xyz,Nucleus 30H :,2.02109,0.28044,-12.11936,27.0,23.39,27.56,30.06,4.52,90.9,64.48,22.84,-65.82,-35.91,23.39,27.56,30.06,0,6.67,0.25
KLaL_cation_pi_RCCE_opt_1p2.xyz,Nucleus 33H :,1.85668,-1.6211,-13.12241,24.13,28.99,20.59,22.8,130.31,20.99,4.68,-106.29,3.88,18.8,20.59,22.8,28.99,0,8.4,-0.47
KLaL_cation_pi_RCCE_opt_1p2.xyz,Nucleus 35H :,1.26442,-2.28521,-11.89554,24.55,21.41,25.48,26.76,92.05,-29.95,5.57,-66.45,55.21,17.22,21.41,25.48,26.76,0,5.35,0.52
KLaL_cation_pi_RCCE_opt_1p2.xyz,Nucleus 37H :,1.23472,-3.36627,-12.0504,24.21,29.22,20.6,22.8,-86.61,85.15,17.59,111.77,6.7,-61.97,20.6,22.8,29.22,0,8.62,-0.49
KLaL_cation_pi_RCCE_opt_1p2.xyz,Nucleus 40H :,1.91674,-2.09261,-11.03742,27.13,23.7,30.13,27.55,60.43,-70.49,-18.97,-32.04,94.2,48.26,23.7,27.55,30.13,0,6.43,0.2
KLaL_cation_pi_RCCE_opt_1p2.xyz,Nucleus 41H :,-0.11608,-1.76989,-11.58662,27.51,34.42,24.83,23.29,-114.18,58.03,-34.07,138.74,-24.32,58.34,23.29,24.83,34.42,0,11.13,-0.72
KLaL_cation_pi_RCCE_opt_1p2.xyz,Nucleus 44H :,-0.34726,-0.74504,-10.66249,23.86,28.32,22.84,20.41,61.16,-88.11,-37.72,-35.51,109.84,61.91,20.41,22.84,28.32,0,7.91,-0.39
KLaL_cation_pi_RCCE_opt_1p2.xyz,Nucleus 46H :,0.48968,-0.37756,-10.07614,24.3,20.81,26.37,25.73,70.4,-35.81,-71.92,-44.81,62.15,92.88,20.81,25.73,26.37,0,5.56,0.77
KLaL_cation_pi_RCCE_opt_1p2.xyz,Nucleus 48H :,-1.61623,-0.22215,-10.4753,23.8,28.22,22.75,20.42,65.62,-47.61,-13.54,-39.52,70.59,35.85,20.42,22.75,28.22,0,7.8,-0.4
KLaL_cation_pi_RCCE_opt_1p2.xyz,Nucleus 53H :,-1.78286,0.55559,-9.73755,30.79,38.37,29.29,24.7,12.98,117.42,97.79,12.02,-86.56,-61.31,24.7,29.29,38.37,0,13.67,-0.33
KLaL_cation_pi_RCCE_opt_1p2.xyz,Nucleus 55H :,-2.67282,-0.71904,-11.20753,27.78,21.14,25.02,37.18,-38.49,24.39,77.51,60.86,1.88,-42.8,21.14,25.02,37.18,0,16.04,-0.52
KLaL_cation_pi_RCCE_opt_1p2.xyz,Nucleus 56H :,-3.67284,-0.32653,-11.04041,28.11,36.11,21.06,27.16,-70.06,30.54,81.37,91.27,4.1,-52.9,21.06,27.16,36.11,0,15.05,-0.19
KLaL_cation_pi_RCCE_opt_1p2.xyz,Nucleus 58H :,-2.50759,-1.75085,-12.13052,30.86,38.54,29.17,24.88,14.23,45.16,105.22,-79.85,15.11,-7.29,24.88,29.17,38.54,0,13.66,-0.37
KLaL_cation_pi_RCCE_opt_1p2.xyz,Nucleus 60H :,-1.21105,-2.26606,-12.34584,27.78,37.15,21.16,25.02,88.1,60.75,21.95,-63.37,-34.08,9.98,21.16,25.02,37.15,0,15.99,-0.52
KLaL_cation_pi_RCCE_opt_1p2.xyz,Nucleus 61H :,2.06614,-2.26271,-14.33433,28.07,36.09,21.03,27.09,144.93,12.66,83.72,-123.35,14.96,-48.71,21.03,27.09,36.09,0,15.06,-0.2
KLaL_cation_pi_RCCE_opt_1p2.xyz,Nucleus 62H :,-3.05617,-3.70143,-15.43508,25.82,37.44,18.12,21.9,21.05,41.4,67.69,1.14,-12.25,-41.56,18.12,21.9,37.44,0,19.32,-0.61
KLaL_cation_pi_RCCE_opt_1p2.xyz,Nucleus 63H :,-0.20716,-3.15713,-16.57412,24.66,35.79,22.87,15.33,85.7,42.36,11.75,-52.05,-19.11,5.34,15.33,22.87,35.79,0,20.46,-0.26
KLaL_cation_pi_RCCE_opt_1p2.xyz,Nucleus 64H :,-3.64618,-2.26946,-12.97424,27.78,42.11,19.6,21.64,77.47,-19.8,7.88,-37.31,41.05,14.06,19.6,21.64,42.11,0,22.51,-0.82
KLaL_cation_pi_RCCE_opt_1p2.xyz,Nucleus 65H :,-4.58558,-2.02912,-12.46536,24.32,36.48,22.58,13.89,54.1,23.1,35.64,-34.55,1.91,-7.25,13.89,22.58,36.48,0,22.59,-0.23
KLaL_cation_pi_RCCE_opt_1p2.xyz,Nucleus 2C :,-3.63086,-3.36289,-13.04152,151.8,134.97,163.33,157.11,298.35,170.39,216.97,-8.98,-143.99,-77.32,134.97,157.11,163.33,0,28.36,0.56
KLaL_cation_pi_RCCE_opt_1p2.xyz,Nucleus 5C :,-3.67186,-1.63971,-14.35326,40.48,161.92,4.45,-44.94,302.7,265.57,271.75,-107.31,-294.63,-316.65,-44.94,4.45,161.92,0,206.86,-0.52
KLaL_cation_pi_RCCE_opt_1p2.xyz,Nucleus 6C :,-3.9616,-0.28059,-14.4534,49.84,165.07,-55.6,40.04,234.65,289.6,319.54,-85.14,-365.87,-243.28,-55.6,40.04,165.07,0,220.67,-0.13
KLaL_cation_pi_RCCE_opt_1p2.xyz,Nucleus 8C :,-4.26639,0.26235,-13.56389,56.76,176.51,-55.96,49.73,235.56,325.14,287.28,-80.57,-248.98,-348.15,-55.96,49.73,176.51,0,232.47,-0.09
KLaL_cation_pi_RCCE_opt_1p2.xyz,Nucleus 10C :,-3.86508,0.37227,-15.67146,46.68,165.64,34.88,-60.47,236.6,330.86,287.77,-107.69,-333.08,-274.41,-60.47,34.88,165.64,0,226.11,-0.16
KLaL_cation_pi_RCCE_opt_1p2.xyz,Nucleus 12C :,-4.13466,1.42199,-15.74103,40.0,163.56,-40.86,-2.69,230.39,308.86,268.92,-77.72,-329.94,-280.49,-40.86,-2.69,163.56,0,204.42,-0.63
KLaL_cation_pi_RCCE_opt_1p2.xyz,Nucleus 13C :,-3.41889,-0.29236,-16.78652,152.24,134.32,164.31,158.09,342.33,244.82,295.07,-89.24,-178.18,-158.07,134.32,158.09,164.31,0,29.99,0.59
KLaL_cation_pi_RCCE_opt_1p2.xyz,Nucleus 16C :,-3.30176,0.23385,-17.72915,43.16,160.71,-28.92,-2.31,317.05,251.08,271.26,-90.83,-345.59,-273.49,-28.92,-2.31,160.71,0,189.63,-0.72
KLaL_cation_pi_RCCE_opt_1p2.xyz,Nucleus 17C :,-3.10266,-1.66591,-16.73126,45.64,-59.51,40.11,156.32,345.99,285.95,261.41,-380.84,-247.99,-127.61,-59.51,40.11,156.32,0,215.83,-0.08
KLaL_cation_pi_RCCE_opt_1p2.xyz,Nucleus 19C :,-2.49736,-2.31516,-17.95972,61.06,175.38,53.49,-45.69,338.13,241.63,285.28,-110.05,-280.4,-291.42,-45.69,53.49,175.38,0,221.07,-0.1
KLaL_cation_pi_RCCE_opt_1p2.xyz,Nucleus 21C :,-2.47907,-3.407,-17.86462,49.63,-53.5,45.7,156.68,361.95,267.18,259.57,-394.22,-107.16,-238.43,-53.5,45.7,156.68,0,210.18,-0.06
KLaL_cation_pi_RCCE_opt_1p2.xyz,Nucleus 23C :,-3.14888,-2.11605,-18.81737,47.55,155.36,-29.93,17.21,321.03,289.68,265.45,-344.68,-273.89,-114.94,-29.93,17.21,155.36,0,185.29,-0.49
KLaL_cation_pi_RCCE_opt_1p2.xyz,Nucleus 24C :,-1.12737,-1.77181,-18.26735,19.65,120.69,9.45,-71.2,245.51,319.13,305.19,-151.26,-301.88,-357.75,-71.2,9.45,120.69,0,191.89,-0.16
KLaL_cation_pi_RCCE_opt_1p2.xyz,Nucleus 25C :,-0.91658,-0.74033,-19.18898,20.73,109.77,-60.38,12.8,218.33,278.7,291.97,-114.0,-265.91,-346.91,-60.38,12.8,109.77,0,170.15,-0.14
KLaL_cation_pi_RCCE_opt_1p2.xyz,Nucleus 28C :,-1.75776,-0.38293,-19.77633,152.7,135.48,164.67,157.96,327.81,216.75,274.07,-165.64,-73.47,-121.41,135.48,157.96,164.67,0,29.19,0.54
KLaL_cation_pi_RCCE_opt_1p2.xyz,Nucleus 31C :,0.34176,-0.19192,-19.37488,39.57,163.49,0.3,-45.07,213.1,280.15,250.65,-65.05,-246.1,-314.03,-45.07,0.3,163.49,0,208.56,-0.56
KLaL_cation_pi_RCCE_opt_1p2.xyz,Nucleus 32C :,0.49023,0.59144,-20.11041,45.96,165.32,-59.53,32.08,200.22,322.65,265.71,-102.83,-256.33,-291.55,-59.53,32.08,165.32,0,224.85,-0.19
KLaL_cation_pi_RCCE_opt_1p2.xyz,Nucleus 34C :,1.40802,-0.66952,-18.64383,51.47,177.75,-62.76,39.43,326.1,182.27,238.81,-51.12,-336.64,-205.0,-62.76,39.43,177.75,0,240.51,-0.15
KLaL_cation_pi_RCCE_opt_1p2.xyz,Nucleus 36C :,2.40209,-0.26185,-18.80495,45.78,165.99,31.1,-59.74,160.21,328.21,246.17,-50.38,-354.8,-192.07,-59.74,31.1,165.99,0,225.73,-0.2
KLaL_cation_pi_RCCE_opt_1p2.xyz,Nucleus 38C :,1.26331,-1.70665,-17.72336,41.42,163.18,-42.92,3.99,222.93,290.73,316.3,-120.4,-268.97,-316.34,-42.92,3.99,163.18,0,206.1,-0.54
KLaL_cation_pi_RCCE_opt_1p2.xyz,Nucleus 39C :,-0.02275,-2.248,-17.50932,153.7,136.76,165.88,158.46,270.85,143.86,194.55,16.16,-112.35,-51.98,136.76,158.46,165.88,0,29.12,0.49
KLaL_cation_pi_RCCE_opt_1p2.xyz,Nucleus 42C :,-3.29932,-2.31449,-15.5209,46.07,155.73,-31.91,14.39,272.44,227.65,171.47,-47.49,-257.74,-228.13,-31.91,14.39,155.73,0,187.64,-0.51
KLaL_cation_pi_RCCE_opt_1p2.xyz,Nucleus 43C :,-0.634,0.66673,-14.92549,47.41,-56.66,42.06,156.84,147.22,285.73,206.28,-295.41,-148.19,-53.41,-56.66,42.06,156.84,0,213.5,-0.08
KLaL_cation_pi_RCCE_opt_1p2.xyz,Nucleus 45C :,-0.61955,0.17925,-14.04083,59.98,175.78,51.2,-47.05,297.67,215.86,206.1,-32.95,-163.42,-343.34,-47.05,51.2,175.78,0,222.83,-0.12
KLaL_cation_pi_RCCE_opt_1p2.xyz,Nucleus 47C :,-0.34639,2.64638,-16.01492,47.29,-56.32,41.73,156.47,168.23,295.57,228.69,-296.02,-181.85,-72.75,-56.32,41.73,156.47,0,212.79,-0.08
KLaL_cation_pi_RCCE_opt_1p2.xyz,Nucleus 49C :,-0.35573,3.65022,-16.04481,45.83,161.17,-24.93,1.24,230.26,259.77,269.5,-96.08,-244.03,-281.95,-24.93,1.24,161.17,0,186.1,-0.72
KLaL_cation_pi_RCCE_opt_1p2.xyz,Nucleus 50C :,-0.07021,2.15851,-16.85674,21.13,-71.4,13.67,121.12,132.72,241.54,267.13,-34.38,-235.64,-307.97,-71.4,13.67,121.12,0,192.52,-0.12
KLaL_cation_pi_RCCE_opt_1p2.xyz,Nucleus 51C :,-0.64706,1.98323,-14.92389,28.6,104.59,-56.9,38.12,156.99,296.71,268.61,-86.07,-226.86,-323.58,-56.9,38.12,104.59,0,161.49,0.18
KLaL_cation_pi_RCCE_opt_1p2.xyz,Nucleus 57C :,-0.16135,0.19658,-15.68304,29.0,127.84,-28.47,-12.38,235.19,274.31,316.89,-117.82,-282.11,-339.47,-28.47,-12.38,127.84,0,156.31,-0.79
KLaL_cation_pi_RCCE_opt_1p2.xyz,Nucleus 52N :,-0.9608,2.63763,-13.83124,168.87,101.57,196.34,208.71,421.29,348.57,308.06,-280.95,-127.81,-162.54,101.57,196.34,208.71,0,107.14,0.77
KLaL_cation_pi_RCCE_opt_1p2.xyz,Nucleus 54N :,-0.9621,3.64135,-13.79599,179.8,231.18,182.26,125.97,208.66,320.5,380.03,-26.83,-199.65,-143.29,125.97,182.26,231.18,0,105.21,0.07
KLaL_cation_pi_RCCE_opt_1p2.xyz,Nucleus 59N :,-1.16151,2.14139,-12.97253,179.41,230.8,182.38,125.06,410.34,318.11,363.15,-223.38,-234.65,-95.33,125.06,182.38,230.8,0,105.74,0.08
KLaL_cation_pi_RCCE_opt_1p3.xyz,Nucleus 3H :,1.85056,-3.65399,-14.42354,27.73,34.4,25.04,23.76,-79.22,77.46,18.64,105.49,-47.11,7.94,23.76,25.04,34.4,0,10.64,-0.76
KLaL_cation_pi_RCCE_opt_1p3.xyz,Nucleus 4H :,-1.00867,-3.16908,-13.28325,26.89,23.44,27.26,29.97,-58.68,10.24,84.5,83.63,18.08,-57.1,23.44,27.26,29.97,0,6.53,0.17
KLaL_cation_pi_RCCE_opt_1p3.xyz,Nucleus 7H :,2.41198,-2.20461,-16.88088,24.39,29.16,23.26,20.75,-40.11,59.11,97.04,64.88,-33.66,-74.09,20.75,23.26,29.16,0,8.41,-0.4
KLaL_cation_pi_RCCE_opt_1p3.xyz,Nucleus 9H :,3.34765,-1.9455,-17.38756,24.84,21.81,25.84,26.88,8.95,94.75,70.94,16.94,-68.46,-48.59,21.81,25.84,26.88,0,5.07,0.59
KLaL_cation_pi_RCCE_opt_1p3.xyz,Nucleus 11H :,2.39691,-3.29532,-16.81784,24.28,29.2,20.64,23.0,131.89,61.14,32.39,-107.48,-36.01,-9.08,20.64,23.0,29.2,0,8.56,-0.45
KLaL_cation_pi_RCCE_opt_1p3.xyz,Nucleus 14H :,2.4252,-1.57784,-15.50033,26.24,23.08,29.56,26.07,16.57,94.39,70.89,9.45,-70.24,-42.35,23.08,26.07,29.56,0,6.48,-0.08
KLaL_cation_pi_RCCE_opt_1p3.xyz,Nucleus 15H :,2.68791,-0.21348,-15.39687,27.94,34.69,25.34,23.78,133.3,36.51,63.57,-106.61,-3.48,-39.48,23.78,25.34,34.69,0,10.91,-0.71
KLaL_cation_pi_RCCE_opt_1p3.xyz,Nucleus 18H :,2.98968,0.34051,-16.28164,23.73,28.11,22.63,20.45,123.89,87.67,37.82,-101.88,-65.28,-11.03,20.45,22.63,28.11,0,7.66,-0.43
KLaL_cation_pi_RCCE_opt_1p3.xyz,Nucleus 20H :,2.57849,0.43438,-14.17723,24.38,20.9,26.45,25.79,92.54,104.28,35.42,-66.38,-82.95,-9.77,20.9,25.79,26.45,0,5.55,0.76
KLaL_cation_pi_RCCE_opt_1p3.xyz,Nucleus 22H :,2.82822,1.48929,-14.10622,24.0,28.49,23.05,20.47,122.67,24.39,73.74,-99.51,3.07,-52.35,20.47,23.05,28.49,0,8.02,-0.36
KLaL_cation_pi_RCCE_opt_1p3.xyz,Nucleus 29H :,2.14561,-0.24168,-13.06379,27.56,34.33,24.91,23.44,127.43,8.47,30.23,-99.37,22.41,-6.47,23.44,24.91,34.33,0,10.89,-0.73
KLaL_cation_pi_RCCE_opt_1p3.xyz,Nucleus 30H :,2.02109,0.28044,-12.11936,27.0,23.4,27.56,30.05,4.47,90.98,64.59,22.88,-65.91,-35.99,23.4,27.56,30.05,0,6.65,0.25
KLaL_cation_pi_RCCE_opt_1p3.xyz,Nucleus 33H :,1.85668,-1.6211,-13.12241,24.13,29.02,20.6,22.77,129.86,21.88,4.76,-105.86,3.06,18.69,20.6,22.77,29.02,0,8.42,-0.48
KLaL_cation_pi_RCCE_opt_1p3.xyz,Nucleus 35H :,1.26442,-2.28521,-11.89554,24.56,21.47,25.42,26.79,91.92,-29.4,5.68,-66.37,54.68,17.15,21.47,25.42,26.79,0,5.32,0.48
KLaL_cation_pi_RCCE_opt_1p3.xyz,Nucleus 37H :,1.23472,-3.36627,-12.0504,24.22,29.25,20.62,22.78,-85.48,85.26,17.51,110.65,6.79,-62.1,20.62,22.78,29.25,0,8.63,-0.5
KLaL_cation_pi_RCCE_opt_1p3.xyz,Nucleus 40H :,1.91674,-2.09261,-11.03742,27.13,23.72,30.12,27.55,60.36,-70.53,-18.63,-31.99,94.25,47.92,23.72,27.55,30.12,0,6.4,0.2
KLaL_cation_pi_RCCE_opt_1p3.xyz,Nucleus 41H :,-0.11608,-1.76989,-11.58662,27.51,34.4,24.84,23.3,-113.93,58.01,-33.48,138.5,-24.32,57.76,23.3,24.84,34.4,0,11.1,-0.72
KLaL_cation_pi_RCCE_opt_1p3.xyz,Nucleus 44H :,-0.34726,-0.74504,-10.66249,23.87,28.33,22.84,20.43,61.17,-87.9,-36.95,-35.54,109.59,61.22,20.43,22.84,28.33,0,7.9,-0.39
KLaL_cation_pi_RCCE_opt_1p3.xyz,Nucleus 46H :,0.48968,-0.37756,-10.07614,24.31,20.83,26.39,25.72,70.18,-35.63,-72.48,-44.61,61.99,93.49,20.83,25.72,26.39,0,5.56,0.76
KLaL_cation_pi_RCCE_opt_1p3.xyz,Nucleus 48H :,-1.61623,-0.22215,-10.4753,23.8,28.23,22.74,20.44,65.54,-46.97,-14.03,-39.49,69.96,36.4,20.44,22.74,28.23,0,7.79,-0.41
KLaL_cation_pi_RCCE_opt_1p3.xyz,Nucleus 53H :,-1.78286,0.55559,-9.73755,30.7,38.28,28.96,24.87,13.12,117.82,97.99,12.06,-87.43,-61.44,24.87,28.96,38.28,0,13.41,-0.39
KLaL_cation_pi_RCCE_opt_1p3.xyz,Nucleus 55H :,-2.67282,-0.71904,-11.20753,27.73,21.08,24.98,37.14,-39.45,24.2,76.68,61.73,2.03,-42.0,21.08,24.98,37.14,0,16.06,-0.51
KLaL_cation_pi_RCCE_opt_1p3.xyz,Nucleus 56H :,-3.67284,-0.32653,-11.04041,28.01,35.9,20.97,27.15,-71.04,29.89,80.02,92.17,4.45,-51.47,20.97,27.15,35.9,0,14.93,-0.17
KLaL_cation_pi_RCCE_opt_1p3.xyz,Nucleus 58H :,-2.50759,-1.75085,-12.13052,30.77,38.46,28.82,25.04,13.89,44.65,103.95,-78.39,15.11,-6.89,25.04,28.82,38.46,0,13.42,-0.44
KLaL_cation_pi_RCCE_opt_1p3.xyz,Nucleus 60H :,-1.21105,-2.26606,-12.34584,27.73,37.11,21.1,24.97,87.2,60.15,21.89,-62.47,-33.55,9.96,21.1,24.97,37.11,0,16.01,-0.52
KLaL_cation_pi_RCCE_opt_1p3.xyz,Nucleus 61H :,2.06614,-2.26271,-14.33433,27.97,20.94,35.88,27.09,145.16,13.11,83.0,-123.68,14.55,-48.23,20.94,27.09,35.88,0,14.94,-0.18
KLaL_cation_pi_RCCE_opt_1p3.xyz,Nucleus 62H :,-3.05617,-3.70143,-15.43508,25.81,37.45,18.09,21.9,20.91,41.2,67.7,1.39,-12.08,-41.69,18.09,21.9,37.45,0,19.36,-0.61
KLaL_cation_pi_RCCE_opt_1p3.xyz,Nucleus 63H :,-0.20716,-3.15713,-16.57412,24.67,35.8,22.9,15.3,85.81,42.64,11.55,-52.19,-19.29,5.48,15.3,22.9,35.8,0,20.5,-0.26
KLaL_cation_pi_RCCE_opt_1p3.xyz,Nucleus 64H :,-3.64618,-2.26946,-12.97424,27.79,42.09,19.62,21.65,77.55,-19.86,7.85,-37.39,41.11,14.09,19.62,21.65,42.09,0,22.47,-0.82
KLaL_cation_pi_RCCE_opt_1p3.xyz,Nucleus 65H :,-4.58558,-2.02912,-12.46536,24.32,36.49,22.62,13.85,54.14,35.28,23.22,-34.66,1.74,-6.76,13.85,22.62,36.49,0,22.64,-0.23
KLaL_cation_pi_RCCE_opt_1p3.xyz,Nucleus 2C :,-3.63086,-3.36289,-13.04152,151.77,134.94,163.32,157.05,298.45,170.43,216.15,-8.99,-144.07,-76.66,134.94,157.05,163.32,0,28.38,0.56
KLaL_cation_pi_RCCE_opt_1p3.xyz,Nucleus 5C :,-3.67186,-1.63971,-14.35326,40.3,161.87,4.19,-45.16,304.2,264.8,272.14,-106.94,-296.27,-317.03,-45.16,4.19,161.87,0,207.03,-0.52
KLaL_cation_pi_RCCE_opt_1p3.xyz,Nucleus 6C :,-3.9616,-0.28059,-14.4534,50.04,164.99,-55.28,40.41,236.75,288.58,319.5,-86.53,-365.5,-242.69,-55.28,40.41,164.99,0,220.27,-0.13
KLaL_cation_pi_RCCE_opt_1p3.xyz,Nucleus 8C :,-4.26639,0.26235,-13.56389,56.89,176.37,-55.76,50.07,237.41,323.42,286.85,-81.69,-247.53,-347.77,-55.76,50.07,176.37,0,232.13,-0.09
KLaL_cation_pi_RCCE_opt_1p3.xyz,Nucleus 10C :,-3.86508,0.37227,-15.67146,46.87,165.55,35.21,-60.16,236.58,287.67,329.44,-107.38,-332.13,-273.58,-60.16,35.21,165.55,0,225.71,-0.15
KLaL_cation_pi_RCCE_opt_1p3.xyz,Nucleus 12C :,-4.13466,1.42199,-15.74103,39.82,163.51,-41.06,-2.99,230.74,269.02,307.45,-77.9,-329.55,-280.29,-41.06,-2.99,163.51,0,204.57,-0.63
KLaL_cation_pi_RCCE_opt_1p3.xyz,Nucleus 13C :,-3.41889,-0.29236,-16.78652,152.21,134.29,164.31,158.04,342.59,244.53,295.55,-88.98,-178.43,-158.62,134.29,158.04,164.31,0,30.02,0.58
KLaL_cation_pi_RCCE_opt_1p3.xyz,Nucleus 16C :,-3.30176,0.23385,-17.72915,43.12,160.68,-29.01,-2.32,317.28,251.12,273.12,-91.22,-345.93,-275.0,-29.01,-2.32,160.68,0,189.69,-0.72
KLaL_cation_pi_RCCE_opt_1p3.xyz,Nucleus 17C :,-3.10266,-1.66591,-16.73126,45.71,-59.49,40.35,156.26,345.09,286.46,261.56,-379.76,-248.33,-127.88,-59.49,40.35,156.26,0,215.75,-0.07
KLaL_cation_pi_RCCE_opt_1p3.xyz,Nucleus 19C :,-2.49736,-2.31516,-17.95972,61.16,175.3,53.78,-45.59,337.94,242.58,285.8,-110.48,-280.17,-292.18,-45.59,53.78,175.3,0,220.89,-0.1
KLaL_cation_pi_RCCE_opt_1p3.xyz,Nucleus 21C :,-2.47907,-3.407,-17.86462,49.67,-53.49,45.9,156.61,360.79,267.11,260.79,-393.72,-107.77,-238.18,-53.49,45.9,156.61,0,210.1,-0.05
KLaL_cation_pi_RCCE_opt_1p3.xyz,Nucleus 23C :,-3.14888,-2.11605,-18.81737,47.58,155.33,-29.89,17.29,320.4,289.71,266.28,-344.15,-273.8,-115.71,-29.89,17.29,155.33,0,185.22,-0.49
KLaL_cation_pi_RCCE_opt_1p3.xyz,Nucleus 24C :,-1.12737,-1.77181,-18.26735,19.51,120.64,9.32,-71.42,244.18,307.91,320.99,-150.02,-303.39,-361.13,-71.42,9.32,120.64,0,192.06,-0.16
KLaL_cation_pi_RCCE_opt_1p3.xyz,Nucleus 25C :,-0.91658,-0.74033,-19.18898,20.65,109.72,-60.59,12.82,217.64,279.55,291.78,-113.84,-266.13,-347.04,-60.59,12.82,109.72,0,170.31,-0.14
KLaL_cation_pi_RCCE_opt_1p3.xyz,Nucleus 28C :,-1.75776,-0.38293,-19.77633,152.68,135.48,164.67,157.9,327.86,216.95,274.13,-165.66,-73.48,-121.75,135.48,157.9,164.67,0,29.19,0.54
KLaL_cation_pi_RCCE_opt_1p3.xyz,Nucleus 31C :,0.34176,-0.19192,-19.37488,39.46,163.46,0.05,-45.12,212.47,280.35,250.61,-64.74,-246.08,-314.23,-45.12,0.05,163.46,0,208.58,-0.57
KLaL_cation_pi_RCCE_opt_1p3.xyz,Nucleus 32C :,0.49023,0.59144,-20.11041,46.07,165.25,-59.29,32.26,201.65,321.96,265.6,-103.1,-256.28,-291.61,-59.29,32.26,165.25,0,224.54,-0.18
KLaL_cation_pi_RCCE_opt_1p3.xyz,Nucleus 34C :,1.40802,-0.66952,-18.64383,51.49,177.64,-62.66,39.49,325.61,183.83,238.66,-52.01,-336.48,-205.14,-62.66,39.49,177.64,0,240.3,-0.15
KLaL_cation_pi_RCCE_opt_1p3.xyz,Nucleus 36C :,2.40209,-0.26185,-18.80495,45.9,165.91,31.26,-59.47,162.67,327.8,246.68,-52.0,-354.71,-192.74,-59.47,31.26,165.91,0,225.38,-0.19
KLaL_cation_pi_RCCE_opt_1p3.xyz,Nucleus 38C :,1.26331,-1.70665,-17.72336,41.32,163.14,-42.95,3.77,223.22,291.21,317.19,-120.88,-269.79,-316.99,-42.95,3.77,163.14,0,206.09,-0.55
KLaL_cation_pi_RCCE_opt_1p3.xyz,Nucleus 39C :,-0.02275,-2.248,-17.50932,153.68,136.76,165.88,158.4,270.75,143.89,194.89,16.25,-112.32,-52.42,136.76,158.4,165.88,0,29.12,0.49
KLaL_cation_pi_RCCE_opt_1p3.xyz,Nucleus 42C :,-3.29932,-2.31449,-15.5209,46.1,155.69,-31.85,14.47,272.42,227.35,172.43,-46.98,-259.07,-227.84,-31.85,14.47,155.69,0,187.54,-0.51
KLaL_cation_pi_RCCE_opt_1p3.xyz,Nucleus 43C :,-0.634,0.76673,-14.92549,47.48,-56.62,42.29,156.78,149.04,285.44,206.55,-294.99,-150.54,-53.06,-56.62,42.29,156.78,0,213.4,-0.07
KLaL_cation_pi_RCCE_opt_1p3.xyz,Nucleus 45C :,-0.61955,0.27925,-14.04083,60.07,175.69,51.48,-46.97,295.99,216.44,205.43,-32.53,-163.81,-341.32,-46.97,51.48,175.69,0,222.66,-0.12
KLaL_cation_pi_RCCE_opt_1p3.xyz,Nucleus 47C :,-0.34639,2.74638,-16.01492,47.33,-56.33,41.93,156.4,170.03,294.51,228.15,-295.22,-182.98,-72.49,-56.33,41.93,156.4,0,212.73,-0.08
KLaL_cation_pi_RCCE_opt_1p3.xyz,Nucleus 49C :,-0.35573,3.75022,-16.04481,45.77,161.14,-25.05,1.22,230.08,259.47,266.22,-95.56,-242.77,-280.12,-25.05,1.22,161.14,0,186.19,-0.72
KLaL_cation_pi_RCCE_opt_1p3.xyz,Nucleus 50C :,-0.07021,2.25851,-16.85674,21.01,-71.59,13.56,121.07,130.5,237.8,266.09,-33.93,-233.35,-304.06,-71.59,13.56,121.07,0,192.66,-0.12
KLaL_cation_pi_RCCE_opt_1p3.xyz,Nucleus 51C :,-0.64706,2.08323,-14.92389,28.61,104.55,-56.91,38.18,156.85,296.82,268.32,-85.88,-226.82,-323.48,-56.91,38.18,104.55,0,161.46,0.18
KLaL_cation_pi_RCCE_opt_1p3.xyz,Nucleus 57C :,-0.16135,0.29658,-15.68304,28.99,127.5,-28.14,-12.4,234.81,273.85,316.26,-117.75,-281.58,-338.62,-28.14,-12.4,127.5,0,155.64,-0.8
KLaL_cation_pi_RCCE_opt_1p3.xyz,Nucleus 52N :,-0.9608,2.73763,-13.83124,168.38,101.27,195.66,208.22,421.16,348.19,308.42,-280.84,-129.34,-162.44,101.27,195.66,208.22,0,106.95,0.77
KLaL_cation_pi_RCCE_opt_1p3.xyz,Nucleus 54N :,-0.9621,3.74135,-13.79599,179.92,231.45,182.23,126.08,207.62,320.18,379.11,-25.79,-198.78,-142.57,126.08,182.23,231.45,0,105.37,0.07
KLaL_cation_pi_RCCE_opt_1p3.xyz,Nucleus 59N :,-1.16151,2.24139,-12.97253,179.54,231.06,182.38,125.17,409.95,318.17,362.5,-222.91,-234.07,-95.02,125.17,182.38,231.06,0,105.89,0.08
KLaL_cation_pi_RCCE_opt_1p4.xyz,Nucleus 3H :,1.85056,-3.65399,-14.42354,27.74,34.38,25.06,23.78,-79.1,77.56,18.14,105.37,-47.2,8.45,23.78,25.06,34.38,0,10.6,-0.76
KLaL_cation_pi_RCCE_opt_1p4.xyz,Nucleus 4H :,-1.00867,-3.16908,-13.28325,26.89,23.45,27.26,29.97,-58.91,9.86,84.49,83.88,18.47,-57.12,23.45,27.26,29.97,0,6.52,0.17
KLaL_cation_pi_RCCE_opt_1p4.xyz,Nucleus 7H :,2.41198,-2.20461,-16.88088,24.4,29.18,23.24,20.77,-38.81,58.22,96.82,63.55,-32.72,-73.86,20.77,23.24,29.18,0,8.41,-0.41
KLaL_cation_pi_RCCE_opt_1p4.xyz,Nucleus 9H :,3.34765,-1.9455,-17.38756,24.86,21.88,25.79,26.9,9.89,94.22,70.7,16.0,-67.93,-48.3,21.88,25.79,26.9,0,5.02,0.56
KLaL_cation_pi_RCCE_opt_1p4.xyz,Nucleus 11H :,2.39691,-3.29532,-16.81784,24.29,29.23,20.66,22.97,130.73,61.93,32.31,-106.36,-36.75,-9.0,20.66,22.97,29.23,0,8.57,-0.46
KLaL_cation_pi_RCCE_opt_1p4.xyz,Nucleus 14H :,2.4252,-1.57784,-15.50033,26.24,23.1,29.56,26.06,16.47,94.76,71.06,9.55,-70.58,-42.53,23.1,26.06,29.56,0,6.46,-0.08
KLaL_cation_pi_RCCE_opt_1p4.xyz,Nucleus 15H :,2.68791,-0.21348,-15.39687,27.94,34.67,25.36,23.8,133.31,36.41,63.79,-106.61,-3.38,-39.69,23.8,25.36,34.67,0,10.87,-0.71
KLaL_cation_pi_RCCE_opt_1p4.xyz,Nucleus 18H :,2.98968,0.34051,-16.28164,23.74,28.11,22.62,20.48,123.47,87.86,37.82,-101.46,-65.43,-11.05,20.48,22.62,28.11,0,7.63,-0.44
KLaL_cation_pi_RCCE_opt_1p4.xyz,Nucleus 20H :,2.57849,0.43438,-14.17723,24.39,20.93,26.47,25.78,92.57,104.58,35.49,-66.36,-83.25,-9.86,20.93,25.78,26.47,0,5.54,0.75
KLaL_cation_pi_RCCE_opt_1p4.xyz,Nucleus 22H :,2.82822,1.48929,-14.10622,24.01,28.5,23.04,20.5,122.34,24.36,74.06,-99.19,3.08,-52.62,20.5,23.04,28.5,0,8.0,-0.36
KLaL_cation_pi_RCCE_opt_1p4.xyz,Nucleus 29H :,2.14561,-0.24168,-13.06379,27.57,34.32,24.93,23.46,127.37,8.45,30.42,-99.32,22.42,-6.64,23.46,24.93,34.32,0,10.86,-0.73
KLaL_cation_pi_RCCE_opt_1p4.xyz,Nucleus 30H :,2.02109,0.28044,-12.11936,27.01,23.42,27.56,30.04,4.46,91.05,64.72,22.89,-66.01,-36.09,23.42,27.56,30.04,0,6.62,0.25
KLaL_cation_pi_RCCE_opt_1p4.xyz,Nucleus 33H :,1.85668,-1.6211,-13.12241,24.13,29.05,20.61,22.74,129.4,22.82,4.86,-105.42,2.19,18.56,20.61,22.74,29.05,0,8.44,-0.49
KLaL_cation_pi_RCCE_opt_1p4.xyz,Nucleus 35H :,1.26442,-2.28521,-11.89554,24.57,21.52,25.36,26.82,91.76,-28.78,5.81,-66.24,54.09,17.07,21.52,25.36,26.82,0,5.3,0.45
KLaL_cation_pi_RCCE_opt_1p4.xyz,Nucleus 37H :,1.23472,-3.36627,-12.0504,24.22,29.28,20.62,22.75,-84.27,85.35,17.4,109.44,6.92,-62.2,20.62,22.75,29.28,0,8.66,-0.51
KLaL_cation_pi_RCCE_opt_1p4.xyz,Nucleus 40H :,1.91674,-2.09261,-11.03742,27.13,23.73,30.12,27.55,60.29,-70.54,-18.26,-31.94,94.27,47.56,23.73,27.55,30.12,0,6.39,0.2
KLaL_cation_pi_RCCE_opt_1p4.xyz,Nucleus 41H :,-0.11608,-1.76989,-11.58662,27.52,34.39,24.86,23.32,-113.68,58.0,-32.89,138.27,-24.32,57.2,23.32,24.86,34.39,0,11.07,-0.72
KLaL_cation_pi_RCCE_opt_1p4.xyz,Nucleus 44H :,-0.34726,-0.74504,-10.66249,23.87,28.33,22.83,20.45,61.2,-87.62,-36.16,-35.59,109.29,60.5,20.45,22.83,28.33,0,7.88,-0.4
KLaL_cation_pi_RCCE_opt_1p4.xyz,Nucleus 46H :,0.48968,-0.37756,-10.07614,24.33,20.86,26.41,25.71,69.99,-35.3,-72.97,-44.43,61.67,94.02,20.86,25.71,26.41,0,5.55,0.75
KLaL_cation_pi_RCCE_opt_1p4.xyz,Nucleus 48H :,-1.61623,-0.22215,-10.4753,23.82,28.24,22.74,20.47,65.44,-46.28,-14.5,-39.42,69.28,36.92,20.47,22.74,28.24,0,7.77,-0.42
KLaL_cation_pi_RCCE_opt_1p4.xyz,Nucleus 53H :,-1.78286,0.55559,-9.73755,30.6,38.19,28.61,25.01,13.32,118.2,98.15,12.01,-88.31,-61.56,25.01,28.61,38.19,0,13.18,-0.45
KLaL_cation_pi_RCCE_opt_1p4.xyz,Nucleus 55H :,-2.67282,-0.71904,-11.20753,27.68,21.03,24.93,37.09,-40.38,24.01,75.87,62.59,2.18,-41.22,21.03,24.93,37.09,0,16.06,-0.51
KLaL_cation_pi_RCCE_opt_1p4.xyz,Nucleus 56H :,-3.67284,-0.32653,-11.04041,27.92,35.71,20.89,27.15,-71.97,29.28,78.73,93.02,4.78,-50.09,20.89,27.15,35.71,0,14.82,-0.16
KLaL_cation_pi_RCCE_opt_1p4.xyz,Nucleus 58H :,-2.50759,-1.75085,-12.13052,30.67,38.37,28.46,25.17,13.52,44.13,102.64,-76.9,15.13,-6.5,25.17,28.46,38.37,0,13.2,-0.5
KLaL_cation_pi_RCCE_opt_1p4.xyz,Nucleus 60H :,-1.21105,-2.26606,-12.34584,27.68,37.06,21.04,24.93,86.3,59.55,21.84,-61.57,-33.03,9.94,21.04,24.93,37.06,0,16.02,-0.51
KLaL_cation_pi_RCCE_opt_1p4.xyz,Nucleus 61H :,2.06614,-2.26271,-14.33433,27.88,20.86,35.69,27.09,145.39,13.55,82.29,-123.98,14.14,-47.76,20.86,27.09,35.69,0,14.83,-0.16
KLaL_cation_pi_RCCE_opt_1p4.xyz,Nucleus 62H :,-3.05617,-3.70143,-15.43508,25.81,37.47,18.07,21.9,20.77,41.0,67.7,1.64,-11.88,-41.8,18.07,21.9,37.47,0,19.4,-0.6
KLaL_cation_pi_RCCE_opt_1p4.xyz,Nucleus 63H :,-0.20716,-3.15713,-16.57412,24.67,35.81,22.93,15.28,85.97,42.93,11.41,-52.37,-19.5,5.58,15.28,22.93,35.81,0,20.53,-0.25
KLaL_cation_pi_RCCE_opt_1p4.xyz,Nucleus 64H :,-3.64618,-2.26946,-12.97424,27.79,42.07,19.63,21.67,77.62,-19.92,7.84,-37.47,41.18,14.11,19.63,21.67,42.07,0,22.44,-0.82
KLaL_cation_pi_RCCE_opt_1p4.xyz,Nucleus 65H :,-4.58558,-2.02912,-12.46536,24.32,36.5,22.65,13.81,54.11,34.93,23.26,-34.72,1.68,-6.29,13.81,22.65,36.5,0,22.69,-0.22
KLaL_cation_pi_RCCE_opt_1p4.xyz,Nucleus 2C :,-3.63086,-3.36289,-13.04152,151.74,134.9,163.32,157.0,298.55,170.43,215.19,-8.94,-144.14,-75.87,134.9,157.0,163.32,0,28.42,0.56
KLaL_cation_pi_RCCE_opt_1p4.xyz,Nucleus 5C :,-3.67186,-1.63971,-14.35326,40.16,161.83,4.01,-45.37,305.63,263.21,273.28,-106.44,-297.76,-317.45,-45.37,4.01,161.83,0,207.2,-0.52
KLaL_cation_pi_RCCE_opt_1p4.xyz,Nucleus 6C :,-3.9616,-0.28059,-14.4534,50.21,164.9,-55.01,40.73,238.6,287.55,319.49,-87.73,-365.16,-242.13,-55.01,40.73,164.9,0,219.91,-0.13
KLaL_cation_pi_RCCE_opt_1p4.xyz,Nucleus 8C :,-4.26639,0.26235,-13.56389,57.03,176.22,-55.52,50.4,239.28,321.81,286.22,-82.81,-246.1,-347.31,-55.52,50.4,176.22,0,231.74,-0.09
KLaL_cation_pi_RCCE_opt_1p4.xyz,Nucleus 10C :,-3.86508,0.37227,-15.67146,47.03,165.46,35.51,-59.89,236.46,287.74,328.14,-107.15,-331.31,-272.79,-59.89,35.51,165.46,0,225.35,-0.15
KLaL_cation_pi_RCCE_opt_1p4.xyz,Nucleus 12C :,-4.13466,1.42199,-15.74103,39.67,163.46,-41.26,-3.2,231.05,269.32,306.07,-78.19,-329.22,-280.02,-41.26,-3.2,163.46,0,204.72,-0.63
KLaL_cation_pi_RCCE_opt_1p4.xyz,Nucleus 13C :,-3.41889,-0.29236,-16.78652,152.19,134.27,164.3,157.99,342.85,244.23,296.0,-88.71,-178.68,-159.13,134.27,157.99,164.3,0,30.03,0.58
KLaL_cation_pi_RCCE_opt_1p4.xyz,Nucleus 16C :,-3.30176,0.23385,-17.72915,43.09,160.66,-29.1,-2.28,317.61,251.09,274.65,-91.54,-346.37,-276.17,-29.1,-2.28,160.66,0,189.76,-0.72
KLaL_cation_pi_RCCE_opt_1p4.xyz,Nucleus 17C :,-3.10266,-1.66591,-16.73126,45.77,-59.47,40.58,156.2,344.13,286.94,261.64,-378.62,-248.63,-128.15,-59.47,40.58,156.2,0,215.67,-0.07
KLaL_cation_pi_RCCE_opt_1p4.xyz,Nucleus 19C :,-2.49736,-2.31516,-17.95972,61.24,175.21,54.04,-45.52,337.53,243.43,286.32,-110.89,-279.74,-292.91,-45.52,54.04,175.21,0,220.73,-0.1
KLaL_cation_pi_RCCE_opt_1p4.xyz,Nucleus 21C :,-2.47907,-3.407,-17.86462,49.72,-53.48,46.08,156.55,359.58,267.06,261.96,-393.11,-108.39,-237.95,-53.48,46.08,156.55,0,210.03,-0.05
KLaL_cation_pi_RCCE_opt_1p4.xyz,Nucleus 23C :,-3.14888,-2.11605,-18.81737,47.6,155.29,-29.87,17.39,319.98,289.62,266.94,-343.76,-273.56,-116.4,-29.87,17.39,155.29,0,185.16,-0.49
KLaL_cation_pi_RCCE_opt_1p4.xyz,Nucleus 24C :,-1.12737,-1.77181,-18.26735,19.39,120.59,9.22,-71.63,242.9,310.25,322.77,-148.86,-304.76,-364.13,-71.63,9.22,120.59,0,192.22,-0.16
KLaL_cation_pi_RCCE_opt_1p4.xyz,Nucleus 25C :,-0.91658,-0.74033,-19.18898,20.58,109.67,-60.8,12.86,216.89,280.44,291.52,-113.67,-266.36,-347.1,-60.8,12.86,109.67,0,170.47,-0.14
KLaL_cation_pi_RCCE_opt_1p4.xyz,Nucleus 28C :,-1.75776,-0.38293,-19.77633,152.66,135.47,164.67,157.84,327.91,217.13,274.2,-165.68,-73.5,-122.08,135.47,157.84,164.67,0,29.2,0.53
KLaL_cation_pi_RCCE_opt_1p4.xyz,Nucleus 31C :,0.34176,-0.19192,-19.37488,39.37,163.43,-0.16,-45.17,211.71,280.6,250.73,-64.35,-246.17,-314.43,-45.17,-0.16,163.43,0,208.6,-0.57
KLaL_cation_pi_RCCE_opt_1p4.xyz,Nucleus 32C :,0.49023,0.59144,-20.11041,46.18,165.17,-59.05,32.41,202.95,321.26,265.63,-103.31,-256.33,-291.66,-59.05,32.41,165.17,0,224.22,-0.18
KLaL_cation_pi_RCCE_opt_1p4.xyz,Nucleus 34C :,1.40802,-0.66952,-18.64383,51.51,177.51,-62.54,39.55,325.15,185.45,238.72,-52.99,-336.49,-205.32,-62.54,39.55,177.51,0,240.05,-0.15
KLaL_cation_pi_RCCE_opt_1p4.xyz,Nucleus 36C :,2.40209,-0.26185,-18.80495,46.01,165.83,31.4,-59.21,164.98,327.32,247.2,-53.42,-354.53,-193.52,-59.21,31.4,165.83,0,225.04,-0.19
KLaL_cation_pi_RCCE_opt_1p4.xyz,Nucleus 38C :,1.26331,-1.70665,-17.72336,41.24,163.1,-42.98,3.59,223.44,291.76,318.01,-121.36,-270.64,-317.52,-42.98,3.59,163.1,0,206.08,-0.55
KLaL_cation_pi_RCCE_opt_1p4.xyz,Nucleus 39C :,-0.02275,-2.248,-17.50932,153.67,136.77,165.89,158.34,270.67,143.92,195.33,16.32,-112.3,-52.96,136.77,158.34,165.89,0,29.12,0.48
KLaL_cation_pi_RCCE_opt_1p4.xyz,Nucleus 42C :,-3.29932,-2.31449,-15.5209,46.15,155.66,-31.8,14.58,272.41,227.27,173.41,-46.54,-260.36,-227.74,-31.8,14.58,155.66,0,187.46,-0.51
KLaL_cation_pi_RCCE_opt_1p4.xyz,Nucleus 43C :,-0.634,0.86673,-14.92549,47.55,-56.57,42.51,156.72,150.94,285.22,206.93,-294.74,-152.91,-52.79,-56.57,42.51,156.72,0,213.29,-0.07
KLaL_cation_pi_RCCE_opt_1p4.xyz,Nucleus 45C :,-0.61955,0.37925,-14.04083,60.15,175.61,51.74,-46.91,294.54,217.27,204.86,-32.17,-164.5,-339.57,-46.91,51.74,175.61,0,222.52,-0.11
KLaL_cation_pi_RCCE_opt_1p4.xyz,Nucleus 47C :,-0.34639,2.84638,-16.01492,47.37,-56.35,42.11,156.34,171.91,293.49,227.63,-294.46,-184.18,-72.28,-56.35,42.11,156.34,0,212.69,-0.07
KLaL_cation_pi_RCCE_opt_1p4.xyz,Nucleus 49C :,-0.35573,3.85022,-16.04481,45.73,161.11,-25.17,1.25,229.83,263.45,259.04,-95.13,-241.65,-278.34,-25.17,1.25,161.11,0,186.28,-0.72
KLaL_cation_pi_RCCE_opt_1p4.xyz,Nucleus 50C :,-0.07021,2.35851,-16.85674,20.91,-71.77,13.48,121.02,128.48,234.38,265.22,-33.53,-231.14,-300.68,-71.77,13.48,121.02,0,192.79,-0.12
KLaL_cation_pi_RCCE_opt_1p4.xyz,Nucleus 51C :,-0.64706,2.18323,-14.92389,28.62,104.52,-56.93,38.26,156.62,296.91,268.19,-85.67,-226.8,-323.42,-56.93,38.26,104.52,0,161.45,0.18
KLaL_cation_pi_RCCE_opt_1p4.xyz,Nucleus 57C :,-0.16135,0.39658,-15.68304,28.97,127.19,-27.84,-12.45,234.44,273.38,315.63,-117.64,-281.12,-337.8,-27.84,-12.45,127.19,0,155.03,-0.8
KLaL_cation_pi_RCCE_opt_1p4.xyz,Nucleus 52N :,-0.9608,2.83763,-13.83124,167.99,101.1,194.89,207.97,421.01,347.79,308.74,-280.6,-130.85,-162.14,101.1,194.89,207.97,0,106.87,0.76
KLaL_cation_pi_RCCE_opt_1p4.xyz,Nucleus 54N :,-0.9621,3.84135,-13.79599,180.01,231.67,182.2,126.15,206.65,319.82,378.2,-24.83,-197.96,-141.87,126.15,182.2,231.67,0,105.52,0.06
KLaL_cation_pi_RCCE_opt_1p4.xyz,Nucleus 59N :,-1.16151,2.34139,-12.97253,179.63,231.27,182.36,125.25,409.52,318.23,361.88,-222.4,-233.58,-94.77,125.25,182.36,231.27,0,106.02,0.08
KLaL_cation_pi_RCCE_opt_1p5.xyz,Nucleus 3H :,1.85056,-3.65399,-14.42354,27.74,34.37,25.07,23.79,-79.01,77.63,17.63,105.27,-47.26,8.97,23.79,25.07,34.37,0,10.58,-0.76
KLaL_cation_pi_RCCE_opt_1p5.xyz,Nucleus 4H :,-1.00867,-3.16908,-13.28325,26.89,23.47,27.25,29.96,-59.15,9.46,84.5,84.13,18.88,-57.14,23.47,27.25,29.96,0,6.49,0.17
KLaL_cation_pi_RCCE_opt_1p5.xyz,Nucleus 7H :,2.41198,-2.20461,-16.88088,24.4,29.21,23.22,20.78,-37.62,57.36,96.55,62.32,-31.81,-73.59,20.78,23.22,29.21,0,8.43,-0.42
KLaL_cation_pi_RCCE_opt_1p5.xyz,Nucleus 9H :,3.34765,-1.9455,-17.38756,24.88,21.94,25.76,26.93,10.85,93.69,70.41,15.06,-67.4,-47.97,21.94,25.76,26.93,0,4.99,0.53
KLaL_cation_pi_RCCE_opt_1p5.xyz,Nucleus 11H :,2.39691,-3.29532,-16.81784,24.3,29.26,20.68,22.95,129.66,62.69,32.25,-105.32,-37.46,-8.94,20.68,22.95,29.26,0,8.58,-0.47
KLaL_cation_pi_RCCE_opt_1p5.xyz,Nucleus 14H :,2.4252,-1.57784,-15.50033,26.24,23.11,29.56,26.05,16.36,95.09,71.22,9.64,-70.89,-42.7,23.11,26.05,29.56,0,6.45,-0.09
KLaL_cation_pi_RCCE_opt_1p5.xyz,Nucleus 15H :,2.68791,-0.21348,-15.39687,27.95,34.65,25.37,23.82,133.32,36.3,64.0,-106.61,-3.28,-39.89,23.82,25.37,34.65,0,10.83,-0.71
KLaL_cation_pi_RCCE_opt_1p5.xyz,Nucleus 18H :,2.98968,0.34051,-16.28164,23.75,28.12,22.62,20.5,123.02,88.05,37.82,-101.02,-65.58,-11.05,20.5,22.62,28.12,0,7.62,-0.44
KLaL_cation_pi_RCCE_opt_1p5.xyz,Nucleus 20H :,2.57849,0.43438,-14.17723,24.4,20.95,26.49,25.77,35.55,92.53,104.85,-66.27,-83.52,-9.93,20.95,25.77,26.49,0,5.54,0.74
KLaL_cation_pi_RCCE_opt_1p5.xyz,Nucleus 22H :,2.82822,1.48929,-14.10622,24.02,28.5,23.04,20.51,121.97,24.34,74.37,-98.83,3.09,-52.89,20.51,23.04,28.5,0,7.99,-0.37
KLaL_cation_pi_RCCE_opt_1p5.xyz,Nucleus 29H :,2.14561,-0.24168,-13.06379,27.58,34.31,24.94,23.48,127.28,8.43,30.63,-99.23,22.44,-6.83,23.48,24.94,34.31,0,10.83,-0.73
KLaL_cation_pi_RCCE_opt_1p5.xyz,Nucleus 30H :,2.02109,0.28044,-12.11936,27.01,23.43,27.56,30.03,4.43,91.11,64.87,22.91,-66.08,-36.23,23.43,27.56,30.03,0,6.6,0.25
KLaL_cation_pi_RCCE_opt_1p5.xyz,Nucleus 33H :,1.85668,-1.6211,-13.12241,24.14,29.08,20.62,22.72,128.89,23.79,4.97,-104.94,1.29,18.41,20.62,22.72,29.08,0,8.46,-0.5
KLaL_cation_pi_RCCE_opt_1p5.xyz,Nucleus 35H :,1.26442,-2.28521,-11.89554,24.57,21.58,25.3,26.84,91.57,-28.04,5.96,-66.09,53.37,16.96,21.58,25.3,26.84,0,5.26,0.42
KLaL_cation_pi_RCCE_opt_1p5.xyz,Nucleus 37H :,1.23472,-3.36627,-12.0504,24.22,29.31,20.63,22.73,-82.96,85.41,17.29,108.14,7.07,-62.27,20.63,22.73,29.31,0,8.68,-0.51
KLaL_cation_pi_RCCE_opt_1p5.xyz,Nucleus 40H :,1.91674,-2.09261,-11.03742,27.13,23.74,30.11,27.55,60.22,-70.54,-17.91,-31.89,94.29,47.23,23.74,27.55,30.11,0,6.37,0.2
KLaL_cation_pi_RCCE_opt_1p5.xyz,Nucleus 41H :,-0.11608,-1.76989,-11.58662,27.53,34.38,24.87,23.34,-113.45,58.0,-32.38,138.05,-24.33,56.7,23.34,24.87,34.38,0,11.04,-0.72
KLaL_cation_pi_RCCE_opt_1p5.xyz,Nucleus 44H :,-0.34726,-0.74504,-10.66249,23.88,28.34,22.83,20.47,61.23,-87.27,-35.36,-35.64,108.9,59.78,20.47,22.83,28.34,0,7.87,-0.4
KLaL_cation_pi_RCCE_opt_1p5.xyz,Nucleus 46H :,0.48968,-0.37756,-10.07614,24.33,20.88,26.43,25.69,69.8,-34.84,-73.4,-44.26,61.23,94.48,20.88,25.69,26.43,0,5.55,0.74
KLaL_cation_pi_RCCE_opt_1p5.xyz,Nucleus 48H :,-1.61623,-0.22215,-10.4753,23.82,28.25,22.73,20.49,65.33,-45.55,-14.93,-39.36,68.55,37.42,20.49,22.73,28.25,0,7.76,-0.42
KLaL_cation_pi_RCCE_opt_1p5.xyz,Nucleus 53H :,-1.78286,0.55559,-9.73755,30.49,38.1,28.25,25.12,13.57,118.55,98.25,11.89,-89.15,-61.66,25.12,28.25,38.1,0,12.98,-0.52
KLaL_cation_pi_RCCE_opt_1p5.xyz,Nucleus 55H :,-2.67282,-0.71904,-11.20753,27.64,20.98,24.89,37.04,-41.29,23.83,75.09,63.42,2.34,-40.47,20.98,24.89,37.04,0,16.06,-0.51
KLaL_cation_pi_RCCE_opt_1p5.xyz,Nucleus 56H :,-3.67284,-0.32653,-11.04041,27.83,20.81,35.54,27.14,-72.84,28.68,77.49,93.83,5.09,-48.76,20.81,27.14,35.54,0,14.73,-0.14
KLaL_cation_pi_RCCE_opt_1p5.xyz,Nucleus 58H :,-2.50759,-1.75085,-12.13052,30.55,38.27,28.09,25.28,13.14,43.57,101.24,-75.37,15.14,-6.09,25.28,28.09,38.27,0,12.99,-0.57
KLaL_cation_pi_RCCE_opt_1p5.xyz,Nucleus 60H :,-1.21105,-2.26606,-12.34584,27.63,37.01,20.99,24.89,85.42,58.96,21.78,-60.67,-32.5,9.91,20.99,24.89,37.01,0,16.02,-0.51
KLaL_cation_pi_RCCE_opt_1p5.xyz,Nucleus 61H :,2.06614,-2.26271,-14.33433,27.79,20.78,35.51,27.08,145.58,13.96,81.6,-124.26,13.76,-47.27,20.78,27.08,35.51,0,14.73,-0.14
KLaL_cation_pi_RCCE_opt_1p5.xyz,Nucleus 62H :,-3.05617,-3.70143,-15.43508,25.81,37.48,18.05,21.89,20.59,40.78,67.69,1.91,-11.66,-41.89,18.05,21.89,37.48,0,19.43,-0.61
KLaL_cation_pi_RCCE_opt_1p5.xyz,Nucleus 63H :,-0.20716,-3.15713,-16.57412,24.68,35.82,22.97,15.25,86.15,43.21,11.23,-52.58,-19.7,5.72,15.25,22.97,35.82,0,20.57,-0.25
KLaL_cation_pi_RCCE_opt_1p5.xyz,Nucleus 64H :,-3.64618,-2.26946,-12.97424,27.8,42.06,19.65,21.68,77.7,-19.98,7.83,-37.54,41.25,14.13,19.65,21.68,42.06,0,22.41,-0.82
KLaL_cation_pi_RCCE_opt_1p5.xyz,Nucleus 65H :,-4.58558,-2.02912,-12.46536,24.33,36.52,22.68,13.78,53.94,34.55,23.31,-34.7,1.68,-5.82,13.78,22.68,36.52,0,22.74,-0.22
KLaL_cation_pi_RCCE_opt_1p5.xyz,Nucleus 2C :,-3.63086,-3.36289,-13.04152,151.71,134.87,163.32,156.95,298.68,170.44,214.28,-8.91,-144.25,-75.09,134.87,156.95,163.32,0,28.45,0.55
KLaL_cation_pi_RCCE_opt_1p5.xyz,Nucleus 5C :,-3.67186,-1.63971,-14.35326,40.04,161.78,3.92,-45.57,306.93,261.38,274.6,-105.91,-299.0,-317.86,-45.57,3.92,161.78,0,207.35,-0.52
KLaL_cation_pi_RCCE_opt_1p5.xyz,Nucleus 6C :,-3.9616,-0.28059,-14.4534,50.34,164.8,-54.79,41.02,240.13,286.6,319.55,-88.81,-364.83,-241.6,-54.79,41.02,164.8,0,219.59,-0.13
KLaL_cation_pi_RCCE_opt_1p5.xyz,Nucleus 8C :,-4.26639,0.26235,-13.56389,57.18,176.06,-55.26,50.74,241.07,320.43,285.51,-83.92,-244.77,-346.77,-55.26,50.74,176.06,0,231.32,-0.08
KLaL_cation_pi_RCCE_opt_1p5.xyz,Nucleus 10C :,-3.86508,0.37227,-15.67146,47.16,165.37,35.77,-59.66,236.21,288.01,327.02,-106.98,-330.71,-272.08,-59.66,35.77,165.37,0,225.03,-0.15
KLaL_cation_pi_RCCE_opt_1p5.xyz,Nucleus 12C :,-4.13466,1.42199,-15.74103,39.55,163.42,-41.45,-3.32,231.24,269.81,304.71,-78.48,-328.9,-279.73,-41.45,-3.32,163.42,0,204.87,-0.63
KLaL_cation_pi_RCCE_opt_1p5.xyz,Nucleus 13C :,-3.41889,-0.29236,-16.78652,152.16,134.24,164.3,157.94,343.09,243.91,296.41,-88.42,-178.9,-159.61,134.24,157.94,164.3,0,30.06,0.58
KLaL_cation_pi_RCCE_opt_1p5.xyz,Nucleus 16C :,-3.30176,0.23385,-17.72915,43.08,160.63,-29.19,-2.21,318.08,251.01,275.8,-91.75,-346.93,-276.98,-29.19,-2.21,160.63,0,189.82,-0.72
KLaL_cation_pi_RCCE_opt_1p5.xyz,Nucleus 17C :,-3.10266,-1.66591,-16.73126,45.82,-59.46,40.79,156.14,343.1,287.37,261.68,-377.43,-248.86,-128.38,-59.46,40.79,156.14,0,215.6,-0.07
KLaL_cation_pi_RCCE_opt_1p5.xyz,Nucleus 19C :,-2.49736,-2.31516,-17.95972,61.32,175.12,54.28,-45.45,336.99,244.17,286.81,-111.27,-279.16,-293.59,-45.45,54.28,175.12,0,220.57,-0.1
KLaL_cation_pi_RCCE_opt_1p5.xyz,Nucleus 21C :,-2.47907,-3.407,-17.86462,49.76,-53.46,46.26,156.48,358.31,267.02,263.01,-392.43,-108.97,-237.67,-53.46,46.26,156.48,0,209.94,-0.05
KLaL_cation_pi_RCCE_opt_1p5.xyz,Nucleus 23C :,-3.14888,-2.11605,-18.81737,47.64,155.25,-29.85,17.52,319.67,289.31,267.5,-117.04,-343.44,-273.08,-29.85,17.52,155.25,0,185.1,-0.49
KLaL_cation_pi_RCCE_opt_1p5.xyz,Nucleus 24C :,-1.12737,-1.77181,-18.26735,19.28,120.54,9.14,-71.84,241.76,312.21,324.41,-147.87,-306.02,-366.66,-71.84,9.14,120.54,0,192.38,-0.16
KLaL_cation_pi_RCCE_opt_1p5.xyz,Nucleus 25C :,-0.91658,-0.74033,-19.18898,20.5,109.62,-61.02,12.9,216.19,281.26,291.21,-113.5,-266.57,-347.08,-61.02,12.9,109.62,0,170.64,-0.13
KLaL_cation_pi_RCCE_opt_1p5.xyz,Nucleus 28C :,-1.75776,-0.38293,-19.77633,152.64,135.46,164.68,157.78,327.95,217.3,274.31,-165.71,-73.5,-122.44,135.46,157.78,164.68,0,29.22,0.53
KLaL_cation_pi_RCCE_opt_1p5.xyz,Nucleus 31C :,0.34176,-0.19192,-19.37488,39.28,163.4,-0.32,-45.23,210.9,280.91,251.01,-63.99,-246.37,-314.62,-45.23,-0.32,163.4,0,208.63,-0.57
KLaL_cation_pi_RCCE_opt_1p5.xyz,Nucleus 32C :,0.49023,0.59144,-20.11041,46.27,165.08,-58.83,32.56,204.11,320.64,265.85,-103.59,-256.51,-291.7,-58.83,32.56,165.08,0,223.91,-0.18
KLaL_cation_pi_RCCE_opt_1p5.xyz,Nucleus 34C :,1.40802,-0.66952,-18.64383,51.53,177.38,-62.39,39.61,324.62,186.95,239.05,-53.81,-336.66,-205.55,-62.39,39.61,177.38,0,239.77,-0.15
KLaL_cation_pi_RCCE_opt_1p5.xyz,Nucleus 36C :,2.40209,-0.26185,-18.80495,46.1,165.74,31.54,-58.97,326.76,167.16,247.69,-54.59,-354.32,-194.39,-58.97,31.54,165.74,0,224.71,-0.19
KLaL_cation_pi_RCCE_opt_1p5.xyz,Nucleus 38C :,1.26331,-1.70665,-17.72336,41.16,163.07,-43.03,3.45,223.52,292.39,318.91,-121.81,-271.46,-318.06,-43.03,3.45,163.07,0,206.1,-0.55
KLaL_cation_pi_RCCE_opt_1p5.xyz,Nucleus 39C :,-0.02275,-2.248,-17.50932,153.65,136.77,165.89,158.28,270.6,143.89,195.77,16.43,-112.29,-53.46,136.77,158.28,165.89,0,29.12,0.48
KLaL_cation_pi_RCCE_opt_1p5.xyz,Nucleus 42C :,-3.29932,-2.31449,-15.5209,46.2,155.63,-31.75,14.71,272.41,227.5,174.46,-46.26,-261.62,-227.9,-31.75,14.71,155.63,0,187.38,-0.5
KLaL_cation_pi_RCCE_opt_1p5.xyz,Nucleus 43C :,-0.634,0.96673,-14.92549,47.62,-56.52,42.72,156.66,152.88,207.4,285.05,-294.64,-155.25,-52.58,-56.52,42.72,156.66,0,213.18,-0.07
KLaL_cation_pi_RCCE_opt_1p5.xyz,Nucleus 45C :,-0.61955,0.47925,-14.04083,60.22,175.53,51.97,-46.85,293.23,218.34,204.31,-31.82,-165.46,-337.95,-46.85,51.97,175.53,0,222.38,-0.11
KLaL_cation_pi_RCCE_opt_1p5.xyz,Nucleus 47C :,-0.34639,2.94638,-16.01492,47.4,-56.37,42.29,156.27,173.94,292.59,227.07,-293.91,-185.48,-72.0,-56.37,42.29,156.27,0,212.64,-0.07
KLaL_cation_pi_RCCE_opt_1p5.xyz,Nucleus 49C :,-0.35573,3.95022,-16.04481,45.7,161.09,-25.3,1.31,229.41,261.53,258.21,-94.82,-240.68,-276.55,-25.3,1.31,161.09,0,186.39,-0.71
KLaL_cation_pi_RCCE_opt_1p5.xyz,Nucleus 50C :,-0.07021,2.45851,-16.85674,20.81,-71.96,13.41,120.98,126.8,231.36,264.47,-33.2,-229.0,-298.0,-71.96,13.41,120.98,0,192.94,-0.12
KLaL_cation_pi_RCCE_opt_1p5.xyz,Nucleus 51C :,-0.64706,2.28323,-14.92389,28.61,104.48,-56.98,38.33,156.33,297.06,268.13,-85.35,-226.81,-323.53,-56.98,38.33,104.48,0,161.46,0.18
KLaL_cation_pi_RCCE_opt_1p5.xyz,Nucleus 57C :,-0.16135,0.49658,-15.68304,28.93,126.89,-27.57,-12.54,234.1,272.91,314.98,-117.5,-280.71,-337.0,-27.57,-12.54,126.89,0,154.46,-0.81
KLaL_cation_pi_RCCE_opt_1p5.xyz,Nucleus 52N :,-0.9608,2.93763,-13.83124,167.68,101.05,194.02,207.97,420.81,347.34,309.0,-280.19,-132.32,-161.6,101.05,194.02,207.97,0,106.92,0.74
KLaL_cation_pi_RCCE_opt_1p5.xyz,Nucleus 54N :,-0.9621,3.94135,-13.79599,180.05,231.83,182.16,126.17,205.79,319.43,377.31,-23.99,-197.19,-141.19,126.17,182.16,231.83,0,105.66,0.06
KLaL_cation_pi_RCCE_opt_1p5.xyz,Nucleus 59N :,-1.16151,2.44139,-12.97253,179.68,231.43,182.34,125.28,409.05,318.28,361.29,-221.84,-233.16,-94.57,125.28,182.34,231.43,0,106.15,0.08
KLaL_cation_pi_RCCE_opt_1p6.xyz,Nucleus 3H :,1.85056,-3.65399,-14.42354,27.75,34.35,25.09,23.81,-78.97,77.69,17.12,105.23,-47.32,9.49,23.81,25.09,34.35,0,10.54,-0.76
KLaL_cation_pi_RCCE_opt_1p6.xyz,Nucleus 4H :,-1.00867,-3.16908,-13.28325,26.89,23.48,27.24,29.96,-59.38,9.05,84.5,84.36,19.31,-57.16,23.48,27.24,29.96,0,6.48,0.16
KLaL_cation_pi_RCCE_opt_1p6.xyz,Nucleus 7H :,2.41198,-2.20461,-16.88088,24.41,29.24,20.8,23.19,-36.52,56.53,96.25,61.18,-30.93,-73.27,20.8,23.19,29.24,0,8.44,-0.43
KLaL_cation_pi_RCCE_opt_1p6.xyz,Nucleus 9H :,3.34765,-1.9455,-17.38756,24.89,22.0,25.72,26.96,11.79,93.17,70.1,14.13,-66.89,-47.62,22.0,25.72,26.96,0,4.96,0.5
KLaL_cation_pi_RCCE_opt_1p6.xyz,Nucleus 11H :,2.39691,-3.29532,-16.81784,24.3,29.28,20.69,22.92,128.64,63.41,32.21,-104.35,-38.11,-8.91,20.69,22.92,29.28,0,8.59,-0.48
KLaL_cation_pi_RCCE_opt_1p6.xyz,Nucleus 14H :,2.4252,-1.57784,-15.50033,26.24,23.12,29.56,26.04,16.23,95.39,71.38,9.76,-71.17,-42.87,23.12,26.04,29.56,0,6.44,-0.09
KLaL_cation_pi_RCCE_opt_1p6.xyz,Nucleus 15H :,2.68791,-0.21348,-15.39687,27.95,34.64,25.39,23.83,133.34,36.21,64.22,-106.63,-3.19,-40.09,23.83,25.39,34.64,0,10.81,-0.71
KLaL_cation_pi_RCCE_opt_1p6.xyz,Nucleus 18H :,2.98968,0.34051,-16.28164,23.75,28.13,22.61,20.52,122.56,88.25,37.8,-100.56,-65.74,-11.05,20.52,22.61,28.13,0,7.61,-0.45
KLaL_cation_pi_RCCE_opt_1p6.xyz,Nucleus 20H :,2.57849,0.43438,-14.17723,24.41,20.97,26.51,25.76,35.6,92.43,105.11,-66.12,-83.77,-10.0,20.97,25.76,26.51,0,5.54,0.73
KLaL_cation_pi_RCCE_opt_1p6.xyz,Nucleus 22H :,2.82822,1.48929,-14.10622,24.02,28.51,23.03,20.53,121.57,24.33,74.65,-98.44,3.1,-53.13,20.53,23.03,28.51,0,7.98,-0.37
KLaL_cation_pi_RCCE_opt_1p6.xyz,Nucleus 29H :,2.14561,-0.24168,-13.06379,27.58,34.29,24.95,23.49,127.21,8.4,30.86,-99.15,22.48,-7.05,23.49,24.95,34.29,0,10.8,-0.73
KLaL_cation_pi_RCCE_opt_1p6.xyz,Nucleus 30H :,2.02109,0.28044,-12.11936,27.01,23.44,27.56,30.03,4.39,91.17,65.04,22.95,-66.14,-36.38,23.44,27.56,30.03,0,6.59,0.25
KLaL_cation_pi_RCCE_opt_1p6.xyz,Nucleus 33H :,1.85668,-1.6211,-13.12241,24.14,29.11,20.62,22.7,128.33,24.82,5.08,-104.4,0.32,18.27,20.62,22.7,29.11,0,8.49,-0.51
KLaL_cation_pi_RCCE_opt_1p6.xyz,Nucleus 35H :,1.26442,-2.28521,-11.89554,24.58,21.63,25.25,26.87,91.36,-27.19,6.13,-65.92,52.53,16.84,21.63,25.25,26.87,0,5.24,0.38
KLaL_cation_pi_RCCE_opt_1p6.xyz,Nucleus 37H :,1.23472,-3.36627,-12.0504,24.22,29.33,20.63,22.71,-81.61,85.46,17.13,106.79,7.25,-62.34,20.63,22.71,29.33,0,8.7,-0.52
KLaL_cation_pi_RCCE_opt_1p6.xyz,Nucleus 40H :,1.91674,-2.09261,-11.03742,27.13,23.75,30.1,27.55,60.18,-70.56,-17.59,-31.86,94.32,46.91,23.75,27.55,30.1,0,6.35,0.2
KLaL_cation_pi_RCCE_opt_1p6.xyz,Nucleus 41H :,-0.11608,-1.76989,-11.58662,27.53,34.36,24.89,23.35,-113.26,58.0,-31.93,137.87,-24.35,56.27,23.35,24.89,34.36,0,11.01,-0.72
KLaL_cation_pi_RCCE_opt_1p6.xyz,Nucleus 44H :,-0.34726,-0.74504,-10.66249,23.89,28.35,22.83,20.49,61.26,-86.9,-34.56,-35.69,108.5,59.06,20.49,22.83,28.35,0,7.86,-0.4
KLaL_cation_pi_RCCE_opt_1p6.xyz,Nucleus 46H :,0.48968,-0.37756,-10.07614,24.34,20.9,26.45,25.68,69.64,-34.28,-73.79,-44.12,60.68,94.9,20.9,25.68,26.45,0,5.55,0.72
KLaL_cation_pi_RCCE_opt_1p6.xyz,Nucleus 48H :,-1.61623,-0.22215,-10.4753,23.83,28.25,22.72,20.51,65.23,-44.76,-15.28,-39.3,67.75,37.84,20.51,22.72,28.25,0,7.74,-0.43
KLaL_cation_pi_RCCE_opt_1p6.xyz,Nucleus 53H :,-1.78286,0.55559,-9.73755,30.36,38.0,27.89,25.19,13.88,118.88,98.31,11.69,-89.96,-61.72,25.19,27.89,38.0,0,12.81,-0.58
KLaL_cation_pi_RCCE_opt_1p6.xyz,Nucleus 55H :,-2.67282,-0.71904,-11.20753,27.6,20.94,24.86,36.99,-42.17,23.64,74.33,64.24,2.49,-39.74,20.94,24.86,36.99,0,16.05,-0.51
KLaL_cation_pi_RCCE_opt_1p6.xyz,Nucleus 56H :,-3.67284,-0.32653,-11.04041,27.75,20.75,35.38,27.13,-73.65,28.12,76.3,94.57,5.39,-47.49,20.75,27.13,35.38,0,14.63,-0.13
KLaL_cation_pi_RCCE_opt_1p6.xyz,Nucleus 58H :,-2.50759,-1.75085,-12.13052,30.42,38.18,27.72,25.35,12.76,43.01,99.8,-73.81,15.15,-5.67,25.35,27.72,38.18,0,12.83,-0.63
KLaL_cation_pi_RCCE_opt_1p6.xyz,Nucleus 60H :,-1.21105,-2.26606,-12.34584,27.59,36.96,20.95,24.85,84.55,58.36,21.73,-59.78,-31.98,9.89,20.95,24.85,36.96,0,16.01,-0.51
KLaL_cation_pi_RCCE_opt_1p6.xyz,Nucleus 61H :,2.06614,-2.26271,-14.33433,27.71,20.71,35.35,27.07,145.76,14.36,80.91,-124.51,13.39,-46.79,20.71,27.07,35.35,0,14.64,-0.13
KLaL_cation_pi_RCCE_opt_1p6.xyz,Nucleus 62H :,-3.05617,-3.70143,-15.43508,25.81,37.5,18.03,21.9,20.41,40.58,67.69,2.17,-11.44,-41.99,18.03,21.9,37.5,0,19.47,-0.6
KLaL_cation_pi_RCCE_opt_1p6.xyz,Nucleus 63H :,-0.20716,-3.15713,-16.57412,24.68,35.83,22.99,15.23,86.39,43.46,11.1,-52.85,-19.89,5.83,15.23,22.99,35.83,0,20.6,-0.25
KLaL_cation_pi_RCCE_opt_1p6.xyz,Nucleus 64H :,-3.64618,-2.26946,-12.97424,27.8,42.05,19.66,21.69,77.8,-20.03,7.84,-37.64,41.32,14.12,19.66,21.69,42.05,0,22.39,-0.82
KLaL_cation_pi_RCCE_opt_1p6.xyz,Nucleus 65H :,-4.58558,-2.02912,-12.46536,24.33,36.53,22.71,13.75,53.78,34.19,23.3,-34.69,1.76,-5.34,13.75,22.71,36.53,0,22.78,-0.21
KLaL_cation_pi_RCCE_opt_1p6.xyz,Nucleus 2C :,-3.63086,-3.36289,-13.04152,151.69,134.84,163.32,156.91,298.81,170.39,213.28,-8.84,-144.36,-74.22,134.84,156.91,163.32,0,28.48,0.55
KLaL_cation_pi_RCCE_opt_1p6.xyz,Nucleus 5C :,-3.67186,-1.63971,-14.35326,39.97,161.74,3.9,-45.74,308.03,259.75,275.86,-105.54,-299.95,-318.25,-45.74,3.9,161.74,0,207.48,-0.52
KLaL_cation_pi_RCCE_opt_1p6.xyz,Nucleus 6C :,-3.9616,-0.28059,-14.4534,50.45,164.7,-54.61,41.27,241.21,285.75,319.58,-89.58,-364.49,-241.12,-54.61,41.27,164.7,0,219.31,-0.13
KLaL_cation_pi_RCCE_opt_1p6.xyz,Nucleus 8C :,-4.26639,0.26235,-13.56389,57.35,175.89,-54.96,51.11,242.7,319.22,284.77,-84.96,-243.52,-346.17,-54.96,51.11,175.89,0,230.85,-0.08
KLaL_cation_pi_RCCE_opt_1p6.xyz,Nucleus 10C :,-3.86508,0.37227,-15.67146,47.26,165.27,36.0,-59.48,235.89,288.4,326.05,-106.83,-330.27,-271.45,-59.48,36.0,165.27,0,224.75,-0.15
KLaL_cation_pi_RCCE_opt_1p6.xyz,Nucleus 12C :,-4.13466,1.42199,-15.74103,39.46,163.37,-41.62,-3.38,231.41,270.43,303.43,-78.83,-328.66,-279.41,-41.62,-3.38,163.37,0,204.99,-0.63
KLaL_cation_pi_RCCE_opt_1p6.xyz,Nucleus 13C :,-3.41889,-0.29236,-16.78652,152.14,134.22,164.29,157.9,343.33,243.61,296.83,-88.12,-179.13,-160.09,134.22,157.9,164.29,0,30.07,0.57
KLaL_cation_pi_RCCE_opt_1p6.xyz,Nucleus 16C :,-3.30176,0.23385,-17.72915,43.07,160.61,-29.29,-2.1,318.66,250.97,276.53,-91.93,-347.6,-277.41,-29.29,-2.1,160.61,0,189.9,-0.71
KLaL_cation_pi_RCCE_opt_1p6.xyz,Nucleus 17C :,-3.10266,-1.66591,-16.73126,45.88,-59.44,41.0,156.08,342.05,287.77,261.67,-376.21,-249.03,-128.61,-59.44,41.0,156.08,0,215.52,-0.07
KLaL_cation_pi_RCCE_opt_1p6.xyz,Nucleus 19C :,-2.49736,-2.31516,-17.95972,61.38,175.04,54.5,-45.4,336.32,244.86,287.26,-111.6,-278.47,-294.25,-45.4,54.5,175.04,0,220.44,-0.09
KLaL_cation_pi_RCCE_opt_1p6.xyz,Nucleus 21C :,-2.47907,-3.407,-17.86462,49.8,-53.44,46.43,156.41,357.03,267.01,263.89,-391.65,-109.5,-237.37,-53.44,46.43,156.41,0,209.85,-0.05
KLaL_cation_pi_RCCE_opt_1p6.xyz,Nucleus 23C :,-3.14888,-2.11605,-18.81737,47.68,155.22,-29.84,17.67,319.41,267.99,288.86,-117.62,-343.14,-272.44,-29.84,17.67,155.22,0,185.06,-0.49
KLaL_cation_pi_RCCE_opt_1p6.xyz,Nucleus 24C :,-1.12737,-1.77181,-18.26735,19.18,120.5,9.08,-72.05,240.82,313.77,325.74,-147.04,-307.13,-368.63,-72.05,9.08,120.5,0,192.55,-0.16
KLaL_cation_pi_RCCE_opt_1p6.xyz,Nucleus 25C :,-0.91658,-0.74033,-19.18898,20.43,109.58,-61.24,12.95,215.51,281.96,290.9,-113.29,-266.75,-347.04,-61.24,12.95,109.58,0,170.82,-0.13
KLaL_cation_pi_RCCE_opt_1p6.xyz,Nucleus 28C :,-1.75776,-0.38293,-19.77633,152.62,135.45,164.69,157.73,328.0,217.43,274.4,-165.73,-73.45,-122.78,135.45,157.73,164.69,0,29.24,0.52
KLaL_cation_pi_RCCE_opt_1p6.xyz,Nucleus 31C :,0.34176,-0.19192,-19.37488,39.21,163.37,-0.44,-45.3,210.07,281.32,251.41,-63.68,-246.63,-314.85,-45.3,-0.44,163.37,0,208.67,-0.57
KLaL_cation_pi_RCCE_opt_1p6.xyz,Nucleus 32C :,0.49023,0.59144,-20.11041,46.35,165.0,-58.63,32.68,205.16,320.06,266.16,-103.83,-256.78,-291.7,-58.63,32.68,165.0,0,223.63,-0.18
KLaL_cation_pi_RCCE_opt_1p6.xyz,Nucleus 34C :,1.40802,-0.66952,-18.64383,51.57,177.25,-62.23,39.69,324.1,188.48,239.57,-54.64,-336.99,-205.81,-62.23,39.69,177.25,0,239.48,-0.15
KLaL_cation_pi_RCCE_opt_1p6.xyz,Nucleus 36C :,2.40209,-0.26185,-18.80495,46.19,165.66,31.66,-58.74,326.2,169.31,248.26,-55.72,-354.1,-195.35,-58.74,31.66,165.66,0,224.4,-0.19
KLaL_cation_pi_RCCE_opt_1p6.xyz,Nucleus 38C :,1.26331,-1.70665,-17.72336,41.1,163.03,-43.08,3.36,223.36,293.02,319.98,-122.1,-272.26,-318.68,-43.08,3.36,163.03,0,206.11,-0.55
KLaL_cation_pi_RCCE_opt_1p6.xyz,Nucleus 39C :,-0.02275,-2.248,-17.50932,153.63,136.77,165.9,158.22,270.58,143.78,196.06,16.62,-112.33,-53.82,136.77,158.22,165.9,0,29.13,0.47
KLaL_cation_pi_RCCE_opt_1p6.xyz,Nucleus 42C :,-3.29932,-2.31449,-15.5209,46.25,155.6,-31.72,14.86,272.48,227.8,175.74,-46.15,-262.86,-228.27,-31.72,14.86,155.6,0,187.32,-0.5
KLaL_cation_pi_RCCE_opt_1p6.xyz,Nucleus 43C :,-0.634,1.06673,-14.92549,47.69,-56.46,42.92,156.6,154.79,207.99,284.92,-294.59,-157.7,-52.35,-56.46,42.92,156.6,0,213.06,-0.07
KLaL_cation_pi_RCCE_opt_1p6.xyz,Nucleus 45C :,-0.61955,0.57925,-14.04083,60.27,175.44,52.18,-46.81,203.74,219.61,292.08,-31.46,-166.63,-336.52,-46.81,52.18,175.44,0,222.25,-0.11
KLaL_cation_pi_RCCE_opt_1p6.xyz,Nucleus 47C :,-0.34639,3.04638,-16.01492,47.43,-56.38,42.45,156.21,176.16,291.84,226.58,-293.65,-186.9,-71.75,-56.38,42.45,156.21,0,212.59,-0.07
KLaL_cation_pi_RCCE_opt_1p6.xyz,Nucleus 49C :,-0.35573,4.05022,-16.04481,45.69,161.06,-25.42,1.42,228.8,260.5,257.07,-94.62,-240.0,-274.69,-25.42,1.42,161.06,0,186.48,-0.71
KLaL_cation_pi_RCCE_opt_1p6.xyz,Nucleus 50C :,-0.07021,2.55851,-16.85674,20.72,-72.15,13.37,120.94,125.6,228.84,263.79,-33.01,-226.92,-296.15,-72.15,13.37,120.94,0,193.09,-0.11
KLaL_cation_pi_RCCE_opt_1p6.xyz,Nucleus 51C :,-0.64706,2.38323,-14.92389,28.6,104.45,-57.05,38.41,156.05,297.23,268.36,-85.07,-226.86,-323.9,-57.05,38.41,104.45,0,161.5,0.18
KLaL_cation_pi_RCCE_opt_1p6.xyz,Nucleus 57C :,-0.16135,0.59658,-15.68304,28.88,126.63,-27.34,-12.65,233.78,272.44,314.32,-117.34,-280.35,-336.21,-27.34,-12.65,126.63,0,153.97,-0.81
KLaL_cation_pi_RCCE_opt_1p6.xyz,Nucleus 52N :,-0.9608,3.03763,-13.83124,167.48,101.12,193.08,208.23,420.6,346.9,309.19,-279.67,-133.72,-160.86,101.12,193.08,208.23,0,107.11,0.72
KLaL_cation_pi_RCCE_opt_1p6.xyz,Nucleus 54N :,-0.9621,4.04135,-13.79599,180.07,231.94,182.12,126.14,205.05,319.02,376.45,-23.28,-196.5,-140.54,126.14,182.12,231.94,0,105.8,0.06
KLaL_cation_pi_RCCE_opt_1p6.xyz,Nucleus 59N :,-1.16151,2.54139,-12.97253,179.71,231.54,182.31,125.27,408.5,318.33,360.71,-221.21,-232.79,-94.43,125.27,182.31,231.54,0,106.27,0.07
KLaL_cation_pi_RCCE_opt_1p7.xyz,Nucleus 3H :,1.85056,-3.65399,-14.42354,27.75,34.34,25.1,23.82,-78.98,77.74,16.66,105.24,-47.36,9.96,23.82,25.1,34.34,0,10.52,-0.76
KLaL_cation_pi_RCCE_opt_1p7.xyz,Nucleus 4H :,-1.00867,-3.16908,-13.28325,26.9,23.49,27.24,29.96,-59.53,8.68,84.5,84.53,19.69,-57.18,23.49,27.24,29.96,0,6.47,0.16
KLaL_cation_pi_RCCE_opt_1p7.xyz,Nucleus 7H :,2.41198,-2.20461,-16.88088,24.42,29.27,20.81,23.17,-35.58,55.76,95.94,60.2,-30.12,-72.95,20.81,23.17,29.27,0,8.46,-0.44
KLaL_cation_pi_RCCE_opt_1p7.xyz,Nucleus 9H :,3.34765,-1.9455,-17.38756,24.91,22.06,25.69,26.98,12.66,92.68,69.81,13.27,-66.4,-47.29,22.06,25.69,26.98,0,4.92,0.48
KLaL_cation_pi_RCCE_opt_1p7.xyz,Nucleus 11H :,2.39691,-3.29532,-16.81784,24.3,29.31,20.71,22.89,127.79,64.03,32.19,-103.55,-38.67,-8.89,20.71,22.89,29.31,0,8.6,-0.49
KLaL_cation_pi_RCCE_opt_1p7.xyz,Nucleus 14H :,2.4252,-1.57784,-15.50033,26.24,23.13,29.56,26.03,16.12,95.64,71.51,9.86,-71.39,-43.01,23.13,26.03,29.56,0,6.43,-0.1
KLaL_cation_pi_RCCE_opt_1p7.xyz,Nucleus 15H :,2.68791,-0.21348,-15.39687,27.96,34.62,25.4,23.85,133.38,36.12,64.41,-106.66,-3.1,-40.28,23.85,25.4,34.62,0,10.77,-0.71
KLaL_cation_pi_RCCE_opt_1p7.xyz,Nucleus 18H :,2.98968,0.34051,-16.28164,23.76,28.14,22.61,20.54,122.11,88.42,37.78,-100.12,-65.88,-11.04,20.54,22.61,28.14,0,7.6,-0.45
KLaL_cation_pi_RCCE_opt_1p7.xyz,Nucleus 20H :,2.57849,0.43438,-14.17723,24.42,20.99,26.53,25.75,35.65,92.28,105.34,-65.93,-84.01,-10.06,20.99,25.75,26.53,0,5.54,0.72
KLaL_cation_pi_RCCE_opt_1p7.xyz,Nucleus 22H :,2.82822,1.48929,-14.10622,24.03,28.52,23.03,20.55,121.14,24.33,74.91,-98.02,3.1,-53.34,20.55,23.03,28.52,0,7.97,-0.38
KLaL_cation_pi_RCCE_opt_1p7.xyz,Nucleus 29H :,2.14561,-0.24168,-13.06379,27.59,34.28,24.97,23.51,127.14,8.36,31.1,-99.08,22.52,-7.28,23.51,24.97,34.28,0,10.77,-0.73
KLaL_cation_pi_RCCE_opt_1p7.xyz,Nucleus 30H :,2.02109,0.28044,-12.11936,27.01,23.45,27.56,30.02,4.34,91.21,65.22,23.0,-66.19,-36.55,23.45,27.56,30.02,0,6.57,0.25
KLaL_cation_pi_RCCE_opt_1p7.xyz,Nucleus 33H :,1.85668,-1.6211,-13.12241,24.14,29.13,20.62,22.68,127.75,25.89,5.21,-103.85,-0.68,18.12,20.62,22.68,29.13,0,8.51,-0.51
KLaL_cation_pi_RCCE_opt_1p7.xyz,Nucleus 35H :,1.26442,-2.28521,-11.89554,24.59,21.67,25.21,26.9,91.15,-26.25,6.33,-65.75,51.6,16.7,21.67,25.21,26.9,0,5.23,0.36
KLaL_cation_pi_RCCE_opt_1p7.xyz,Nucleus 37H :,1.23472,-3.36627,-12.0504,24.23,29.36,20.63,22.7,-80.24,85.45,16.97,105.42,7.43,-62.35,20.63,22.7,29.36,0,8.73,-0.53
KLaL_cation_pi_RCCE_opt_1p7.xyz,Nucleus 40H :,1.91674,-2.09261,-11.03742,27.14,23.76,30.1,27.55,60.16,-70.57,-17.32,-31.85,94.34,46.65,23.76,27.55,30.1,0,6.34,0.19
KLaL_cation_pi_RCCE_opt_1p7.xyz,Nucleus 41H :,-0.11608,-1.76989,-11.58662,27.54,34.35,24.9,23.36,-113.13,58.01,-31.56,137.74,-24.37,55.92,23.36,24.9,34.35,0,10.99,-0.72
KLaL_cation_pi_RCCE_opt_1p7.xyz,Nucleus 44H :,-0.34726,-0.74504,-10.66249,23.9,28.36,22.83,20.51,61.3,-86.5,-33.84,-35.75,108.07,58.41,20.51,22.83,28.36,0,7.85,-0.41
KLaL_cation_pi_RCCE_opt_1p7.xyz,Nucleus 46H :,0.48968,-0.37756,-10.07614,24.35,20.92,26.47,25.67,69.5,-33.67,-74.12,-44.0,60.09,95.26,20.92,25.67,26.47,0,5.55,0.71
KLaL_cation_pi_RCCE_opt_1p7.xyz,Nucleus 48H :,-1.61623,-0.22215,-10.4753,23.83,28.26,22.72,20.52,65.14,-43.98,-15.56,-39.23,66.96,38.18,20.52,22.72,28.26,0,7.74,-0.43
KLaL_cation_pi_RCCE_opt_1p7.xyz,Nucleus 53H :,-1.78286,0.55559,-9.73755,30.23,37.91,27.53,25.24,14.23,119.2,98.3,11.43,-90.76,-61.73,25.24,27.53,37.91,0,12.67,-0.64
KLaL_cation_pi_RCCE_opt_1p7.xyz,Nucleus 55H :,-2.67282,-0.71904,-11.20753,27.55,20.9,24.82,36.94,-43.05,23.47,73.6,65.04,2.63,-39.04,20.9,24.82,36.94,0,16.04,-0.51
KLaL_cation_pi_RCCE_opt_1p7.xyz,Nucleus 56H :,-3.67284,-0.32653,-11.04041,27.68,20.69,35.23,27.11,-74.42,27.6,75.17,95.29,5.67,-46.26,20.69,27.11,35.23,0,14.54,-0.12
KLaL_cation_pi_RCCE_opt_1p7.xyz,Nucleus 58H :,-2.50759,-1.75085,-12.13052,30.27,38.08,27.35,25.39,12.38,42.46,98.32,-72.24,15.15,-5.25,25.39,27.35,38.08,0,12.69,-0.69
KLaL_cation_pi_RCCE_opt_1p7.xyz,Nucleus 60H :,-1.21105,-2.26606,-12.34584,27.55,36.91,20.91,24.82,83.7,57.75,21.68,-58.9,-31.45,9.86,20.91,24.82,36.91,0,16.0,-0.51
KLaL_cation_pi_RCCE_opt_1p7.xyz,Nucleus 61H :,2.06614,-2.26271,-14.33433,27.64,20.65,35.2,27.06,145.93,14.74,80.23,-124.74,13.04,-46.29,20.65,27.06,35.2,0,14.55,-0.12
KLaL_cation_pi_RCCE_opt_1p7.xyz,Nucleus 62H :,-3.05617,-3.70143,-15.43508,25.81,37.51,18.01,21.9,20.26,40.35,67.69,2.4,-11.19,-42.09,18.01,21.9,37.51,0,19.5,-0.6
KLaL_cation_pi_RCCE_opt_1p7.xyz,Nucleus 63H :,-0.20716,-3.15713,-16.57412,24.69,35.84,23.02,15.21,86.66,43.71,10.99,-53.15,-20.06,5.93,15.21,23.02,35.84,0,20.63,-0.24
KLaL_cation_pi_RCCE_opt_1p7.xyz,Nucleus 64H :,-3.64618,-2.26946,-12.97424,27.81,42.04,19.67,21.71,77.9,-20.1,7.85,-37.75,41.4,14.12,19.67,21.71,42.04,0,22.37,-0.82
KLaL_cation_pi_RCCE_opt_1p7.xyz,Nucleus 65H :,-4.58558,-2.02912,-12.46536,24.34,36.55,22.74,13.72,53.63,33.82,23.2,-34.71,1.9,-4.85,13.72,22.74,36.55,0,22.83,-0.21
KLaL_cation_pi_RCCE_opt_1p7.xyz,Nucleus 2C :,-3.63086,-3.36289,-13.04152,151.67,134.81,163.33,156.86,298.89,170.28,212.41,-144.43,-8.71,-73.44,134.81,156.86,163.33,0,28.52,0.55
KLaL_cation_pi_RCCE_opt_1p7.xyz,Nucleus 5C :,-3.67186,-1.63971,-14.35326,39.92,161.69,3.95,-45.89,309.07,258.29,276.98,-105.15,-300.82,-318.61,-45.89,3.95,161.69,0,207.58,-0.52
KLaL_cation_pi_RCCE_opt_1p7.xyz,Nucleus 6C :,-3.9616,-0.28059,-14.4534,50.53,164.6,-54.48,41.48,241.85,285.06,319.61,-90.05,-364.18,-240.69,-54.48,41.48,164.6,0,219.08,-0.12
KLaL_cation_pi_RCCE_opt_1p7.xyz,Nucleus 8C :,-4.26639,0.26235,-13.56389,57.53,175.72,-54.64,51.5,243.99,318.15,284.13,-85.8,-242.37,-345.53,-54.64,51.5,175.72,0,230.36,-0.08
KLaL_cation_pi_RCCE_opt_1p7.xyz,Nucleus 10C :,-3.86508,0.37227,-15.67146,47.34,165.17,36.2,-59.34,235.47,288.95,325.28,-106.74,-330.04,-270.89,-59.34,36.2,165.17,0,224.51,-0.15
KLaL_cation_pi_RCCE_opt_1p7.xyz,Nucleus 12C :,-4.13466,1.42199,-15.74103,39.4,163.32,-41.77,-3.36,231.48,271.12,302.15,-79.1,-328.43,-279.03,-41.77,-3.36,163.32,0,205.09,-0.63
KLaL_cation_pi_RCCE_opt_1p7.xyz,Nucleus 13C :,-3.41889,-0.29236,-16.78652,152.12,134.2,164.29,157.86,343.56,243.33,297.19,-87.86,-179.36,-160.52,134.2,157.86,164.29,0,30.09,0.57
KLaL_cation_pi_RCCE_opt_1p7.xyz,Nucleus 16C :,-3.30176,0.23385,-17.72915,43.08,160.58,-29.37,-1.97,319.25,251.0,276.92,-92.12,-348.27,-277.54,-29.37,-1.97,160.58,0,189.95,-0.71
KLaL_cation_pi_RCCE_opt_1p7.xyz,Nucleus 17C :,-3.10266,-1.66591,-16.73126,45.93,-59.43,41.2,156.02,341.05,288.12,261.63,-375.07,-249.13,-128.83,-59.43,41.2,156.02,0,215.45,-0.07
KLaL_cation_pi_RCCE_opt_1p7.xyz,Nucleus 19C :,-2.49736,-2.31516,-17.95972,61.43,174.96,54.69,-45.36,335.59,245.46,287.7,-111.91,-277.72,-294.84,-45.36,54.69,174.96,0,220.32,-0.09
KLaL_cation_pi_RCCE_opt_1p7.xyz,Nucleus 21C :,-2.47907,-3.407,-17.86462,49.84,-53.41,46.59,156.34,355.77,267.07,264.55,-390.83,-109.95,-237.08,-53.41,46.59,156.34,0,209.75,-0.05
KLaL_cation_pi_RCCE_opt_1p7.xyz,Nucleus 23C :,-3.14888,-2.11605,-18.81737,47.73,155.19,-29.83,17.84,319.22,268.35,288.34,-118.09,-342.94,-271.68,-29.83,17.84,155.19,0,185.02,-0.48
KLaL_cation_pi_RCCE_opt_1p7.xyz,Nucleus 24C :,-1.12737,-1.77181,-18.26735,19.09,120.47,9.04,-72.25,240.06,314.99,326.75,-146.37,-308.06,-370.1,-72.25,9.04,120.47,0,192.72,-0.16
KLaL_cation_pi_RCCE_opt_1p7.xyz,Nucleus 25C :,-0.91658,-0.74033,-19.18898,20.36,109.53,-61.46,13.0,214.88,282.51,290.67,-113.04,-266.91,-347.03,-61.46,13.0,109.53,0,170.99,-0.13
KLaL_cation_pi_RCCE_opt_1p7.xyz,Nucleus 28C :,-1.75776,-0.38293,-19.77633,152.6,135.45,157.67,164.69,328.03,217.53,274.48,-73.38,-165.76,-123.09,135.45,157.67,164.69,0,29.24,0.52
KLaL_cation_pi_RCCE_opt_1p7.xyz,Nucleus 31C :,0.34176,-0.19192,-19.37488,39.16,163.34,-0.51,-45.36,209.23,281.8,251.95,-63.43,-247.03,-315.05,-45.36,-0.51,163.34,0,208.7,-0.57
KLaL_cation_pi_RCCE_opt_1p7.xyz,Nucleus 32C :,0.49023,0.59144,-20.11041,46.42,164.92,-58.45,32.8,206.11,319.57,266.56,-104.09,-257.16,-291.71,-58.45,32.8,164.92,0,223.37,-0.18
KLaL_cation_pi_RCCE_opt_1p7.xyz,Nucleus 34C :,1.40802,-0.66952,-18.64383,51.62,177.11,-62.04,39.79,323.67,190.04,240.3,-55.57,-337.49,-206.1,-62.04,39.79,177.11,0,239.15,-0.15
KLaL_cation_pi_RCCE_opt_1p7.xyz,Nucleus 36C :,2.40209,-0.26185,-18.80495,46.27,165.58,31.78,-58.54,325.59,171.38,248.9,-56.85,-353.72,-196.47,-58.54,31.78,165.58,0,224.12,-0.19
KLaL_cation_pi_RCCE_opt_1p7.xyz,Nucleus 38C :,1.26331,-1.70665,-17.72336,41.06,163.0,-43.13,3.31,223.18,293.63,320.97,-122.31,-273.07,-319.23,-43.13,3.31,163.0,0,206.13,-0.55
KLaL_cation_pi_RCCE_opt_1p7.xyz,Nucleus 39C :,-0.02275,-2.248,-17.50932,153.61,136.76,165.91,158.17,270.58,143.6,196.34,16.85,-112.37,-54.16,136.76,158.17,165.91,0,29.15,0.47
KLaL_cation_pi_RCCE_opt_1p7.xyz,Nucleus 42C :,-3.29932,-2.31449,-15.5209,46.3,155.57,-31.69,15.03,272.56,228.19,176.95,-46.08,-263.86,-228.85,-31.69,15.03,155.57,0,187.26,-0.5
KLaL_cation_pi_RCCE_opt_1p7.xyz,Nucleus 43C :,-0.634,1.16673,-14.92549,47.75,-56.41,43.11,156.54,156.6,208.57,284.84,-294.66,-159.92,-52.19,-56.41,43.11,156.54,0,212.95,-0.07
KLaL_cation_pi_RCCE_opt_1p7.xyz,Nucleus 45C :,-0.61955,0.67925,-14.04083,60.32,175.36,52.38,-46.78,203.33,220.96,291.08,-31.24,-167.88,-335.29,-46.78,52.38,175.36,0,222.14,-0.11
KLaL_cation_pi_RCCE_opt_1p7.xyz,Nucleus 47C :,-0.34639,3.14638,-16.01492,47.45,-56.4,42.61,156.15,178.3,291.22,226.14,-293.57,-188.22,-71.52,-56.4,42.61,156.15,0,212.55,-0.07
KLaL_cation_pi_RCCE_opt_1p7.xyz,Nucleus 49C :,-0.35573,4.15022,-16.04481,45.69,161.04,-25.53,1.55,228.13,260.02,256.0,-94.52,-239.62,-272.96,-25.53,1.55,161.04,0,186.57,-0.71
KLaL_cation_pi_RCCE_opt_1p7.xyz,Nucleus 50C :,-0.07021,2.65851,-16.85674,20.64,-72.33,13.33,120.91,124.88,226.85,263.24,-32.92,-225.14,-294.99,-72.33,13.33,120.91,0,193.24,-0.11
KLaL_cation_pi_RCCE_opt_1p7.xyz,Nucleus 51C :,-0.64706,2.48323,-14.92389,28.6,-57.12,104.42,38.49,155.74,297.43,268.67,-84.74,-226.92,-324.38,-57.12,38.49,104.42,0,161.54,0.18
KLaL_cation_pi_RCCE_opt_1p7.xyz,Nucleus 57C :,-0.16135,0.69658,-15.68304,28.81,126.38,-27.14,-12.8,233.5,271.95,313.64,-117.17,-280.05,-335.42,-27.14,-12.8,126.38,0,153.52,-0.81
KLaL_cation_pi_RCCE_opt_1p7.xyz,Nucleus 52N :,-0.9608,3.13763,-13.83124,167.4,101.33,192.12,208.75,420.36,346.51,309.35,-279.04,-135.07,-159.92,101.33,192.12,208.75,0,107.42,0.69
KLaL_cation_pi_RCCE_opt_1p7.xyz,Nucleus 54N :,-0.9621,4.14135,-13.79599,180.05,232.01,182.08,126.07,204.41,318.61,375.6,-22.66,-195.88,-139.93,126.07,182.08,232.01,0,105.94,0.06
KLaL_cation_pi_RCCE_opt_1p7.xyz,Nucleus 59N :,-1.16151,2.64139,-12.97253,179.7,231.6,182.28,125.21,407.91,318.37,360.14,-220.55,-232.45,-94.33,125.21,182.28,231.6,0,106.39,0.07
KLaL_cation_pi_RCCE_opt_1p8.xyz,Nucleus 3H :,1.85056,-3.65399,-14.42354,27.76,34.33,25.12,23.83,-78.98,77.77,16.24,105.24,-47.4,10.39,23.83,25.12,34.33,0,10.5,-0.75
KLaL_cation_pi_RCCE_opt_1p8.xyz,Nucleus 4H :,-1.00867,-3.16908,-13.28325,26.89,23.5,27.23,29.95,-59.69,8.37,84.49,84.7,20.01,-57.19,23.5,27.23,29.95,0,6.45,0.16
KLaL_cation_pi_RCCE_opt_1p8.xyz,Nucleus 7H :,2.41198,-2.20461,-16.88088,24.43,29.31,20.82,23.15,-34.76,55.05,95.62,59.35,-29.36,-72.62,20.82,23.15,29.31,0,8.49,-0.45
KLaL_cation_pi_RCCE_opt_1p8.xyz,Nucleus 9H :,3.34765,-1.9455,-17.38756,24.93,22.11,25.66,27.01,13.41,92.22,69.5,12.52,-65.95,-46.93,22.11,25.66,27.01,0,4.9,0.45
KLaL_cation_pi_RCCE_opt_1p8.xyz,Nucleus 11H :,2.39691,-3.29532,-16.81784,24.31,29.34,20.72,22.86,127.13,64.57,32.17,-102.93,-39.14,-8.87,20.72,22.86,29.34,0,8.62,-0.5
KLaL_cation_pi_RCCE_opt_1p8.xyz,Nucleus 14H :,2.4252,-1.57784,-15.50033,26.24,23.14,29.56,26.02,16.02,95.88,71.61,9.95,-71.62,-43.12,23.14,26.02,29.56,0,6.42,-0.1
KLaL_cation_pi_RCCE_opt_1p8.xyz,Nucleus 15H :,2.68791,-0.21348,-15.39687,27.96,34.61,25.41,23.86,133.47,36.04,64.58,-106.74,-3.04,-40.43,23.86,25.41,34.61,0,10.75,-0.71
KLaL_cation_pi_RCCE_opt_1p8.xyz,Nucleus 18H :,2.98968,0.34051,-16.28164,23.77,28.14,22.6,20.56,121.75,88.6,37.77,-99.76,-66.02,-11.03,20.56,22.6,28.14,0,7.58,-0.46
KLaL_cation_pi_RCCE_opt_1p8.xyz,Nucleus 20H :,2.57849,0.43438,-14.17723,24.43,21.01,26.54,25.74,35.68,92.11,105.55,-65.73,-84.21,-10.11,21.01,25.74,26.54,0,5.53,0.71
KLaL_cation_pi_RCCE_opt_1p8.xyz,Nucleus 22H :,2.82822,1.48929,-14.10622,24.04,28.53,23.03,20.57,120.75,24.33,75.18,-97.65,3.09,-53.58,20.57,23.03,28.53,0,7.96,-0.38
KLaL_cation_pi_RCCE_opt_1p8.xyz,Nucleus 29H :,2.14561,-0.24168,-13.06379,27.59,34.27,24.98,23.52,127.07,8.32,31.38,-99.02,22.56,-7.55,23.52,24.98,34.27,0,10.75,-0.73
KLaL_cation_pi_RCCE_opt_1p8.xyz,Nucleus 30H :,2.02109,0.28044,-12.11936,27.01,23.46,27.56,30.01,4.28,91.24,65.43,23.06,-66.23,-36.74,23.46,27.56,30.01,0,6.55,0.25
KLaL_cation_pi_RCCE_opt_1p8.xyz,Nucleus 33H :,1.85668,-1.6211,-13.12241,24.15,29.16,20.62,22.67,127.19,26.89,5.35,-103.32,-1.63,17.96,20.62,22.67,29.16,0,8.54,-0.52
KLaL_cation_pi_RCCE_opt_1p8.xyz,Nucleus 35H :,1.26442,-2.28521,-11.89554,24.6,21.72,25.17,26.92,90.98,-25.3,6.56,-65.61,50.66,16.51,21.72,25.17,26.92,0,5.2,0.33
KLaL_cation_pi_RCCE_opt_1p8.xyz,Nucleus 37H :,1.23472,-3.36627,-12.0504,24.23,29.39,20.63,22.68,-78.98,85.41,16.84,104.15,-62.32,7.59,20.63,22.68,29.39,0,8.76,-0.53
KLaL_cation_pi_RCCE_opt_1p8.xyz,Nucleus 40H :,1.91674,-2.09261,-11.03742,27.13,23.77,30.09,27.54,60.17,-70.59,-17.13,-31.87,94.37,46.46,23.77,27.54,30.09,0,6.32,0.19
KLaL_cation_pi_RCCE_opt_1p8.xyz,Nucleus 41H :,-0.11608,-1.76989,-11.58662,27.54,34.34,24.91,23.38,-113.0,58.02,-31.28,137.62,-24.39,55.65,23.38,24.91,34.34,0,10.96,-0.72
KLaL_cation_pi_RCCE_opt_1p8.xyz,Nucleus 44H :,-0.34726,-0.74504,-10.66249,23.91,28.37,22.83,20.52,61.35,-86.11,-33.22,-35.81,107.66,57.85,20.52,22.83,28.37,0,7.85,-0.41
KLaL_cation_pi_RCCE_opt_1p8.xyz,Nucleus 46H :,0.48968,-0.37756,-10.07614,24.36,20.94,26.49,25.66,69.41,-33.04,-74.37,-43.92,59.48,95.54,20.94,25.66,26.49,0,5.55,0.7
KLaL_cation_pi_RCCE_opt_1p8.xyz,Nucleus 48H :,-1.61623,-0.22215,-10.4753,23.84,28.27,22.71,20.54,65.04,-43.29,-15.8,-39.16,66.25,38.48,20.54,22.71,28.27,0,7.73,-0.44
KLaL_cation_pi_RCCE_opt_1p8.xyz,Nucleus 53H :,-1.78286,0.55559,-9.73755,30.08,37.82,27.18,25.24,14.62,119.47,98.25,11.11,-91.5,-61.72,25.24,27.18,37.82,0,12.58,-0.69
KLaL_cation_pi_RCCE_opt_1p8.xyz,Nucleus 55H :,-2.67282,-0.71904,-11.20753,27.51,20.86,24.79,36.88,-43.91,23.29,72.88,65.85,2.78,-38.35,20.86,24.79,36.88,0,16.02,-0.51
KLaL_cation_pi_RCCE_opt_1p8.xyz,Nucleus 56H :,-3.67284,-0.32653,-11.04041,27.61,20.63,35.1,27.09,-75.15,27.1,74.07,95.97,5.93,-45.09,20.63,27.09,35.1,0,14.47,-0.11
KLaL_cation_pi_RCCE_opt_1p8.xyz,Nucleus 58H :,-2.50759,-1.75085,-12.13052,30.13,37.99,27.0,25.39,12.0,41.91,96.81,-70.66,15.14,-4.82,25.39,27.0,37.99,0,12.6,-0.75
KLaL_cation_pi_RCCE_opt_1p8.xyz,Nucleus 60H :,-1.21105,-2.26606,-12.34584,27.5,36.85,20.87,24.79,82.86,57.15,21.63,-58.03,-30.92,9.83,20.87,24.79,36.85,0,15.98,-0.51
KLaL_cation_pi_RCCE_opt_1p8.xyz,Nucleus 61H :,2.06614,-2.26271,-14.33433,27.57,20.59,35.07,27.04,146.07,15.1,79.54,-124.94,12.71,-45.77,20.59,27.04,35.07,0,14.48,-0.11
KLaL_cation_pi_RCCE_opt_1p8.xyz,Nucleus 62H :,-3.05617,-3.70143,-15.43508,25.81,37.53,17.99,21.9,20.13,40.11,67.69,2.59,-10.93,-42.16,17.99,21.9,37.53,0,19.54,-0.6
KLaL_cation_pi_RCCE_opt_1p8.xyz,Nucleus 63H :,-0.20716,-3.15713,-16.57412,24.7,35.85,23.05,15.19,86.88,43.95,10.88,-53.39,-20.25,6.02,15.19,23.05,35.85,0,20.66,-0.24
KLaL_cation_pi_RCCE_opt_1p8.xyz,Nucleus 64H :,-3.64618,-2.26946,-12.97424,27.81,42.02,19.69,21.72,77.99,-20.15,7.85,-37.84,41.46,14.12,19.69,21.72,42.02,0,22.33,-0.82
KLaL_cation_pi_RCCE_opt_1p8.xyz,Nucleus 65H :,-4.58558,-2.02912,-12.46536,24.34,36.56,22.76,13.7,53.53,33.47,23.0,-34.74,2.13,-4.37,13.7,22.76,36.56,0,22.86,-0.21
KLaL_cation_pi_RCCE_opt_1p8.xyz,Nucleus 2C :,-3.63086,-3.36289,-13.04152,151.65,134.79,163.33,156.82,299.0,170.17,211.61,-144.53,-8.57,-72.74,134.79,156.82,163.33,0,28.54,0.54
KLaL_cation_pi_RCCE_opt_1p8.xyz,Nucleus 5C :,-3.67186,-1.63971,-14.35326,39.9,161.65,4.06,-46.01,310.06,256.99,277.99,-104.79,-301.62,-318.92,-46.01,4.06,161.65,0,207.66,-0.52
KLaL_cation_pi_RCCE_opt_1p8.xyz,Nucleus 6C :,-3.9616,-0.28059,-14.4534,50.58,164.5,-54.4,41.65,242.17,319.69,284.56,-90.43,-363.94,-240.3,-54.4,41.65,164.5,0,218.9,-0.12
KLaL_cation_pi_RCCE_opt_1p8.xyz,Nucleus 8C :,-4.26639,0.26235,-13.56389,57.72,175.55,-54.31,51.91,244.98,283.6,317.27,-86.53,-241.34,-344.85,-54.31,51.91,175.55,0,229.86,-0.08
KLaL_cation_pi_RCCE_opt_1p8.xyz,Nucleus 10C :,-3.86508,0.37227,-15.67146,47.4,165.07,36.37,-59.25,234.93,289.48,324.66,-106.52,-330.0,-270.36,-59.25,36.37,165.07,0,224.32,-0.15
KLaL_cation_pi_RCCE_opt_1p8.xyz,Nucleus 12C :,-4.13466,1.42199,-15.74103,39.36,163.27,-41.9,-3.29,231.41,271.89,300.89,-79.3,-328.25,-278.56,-41.9,-3.29,163.27,0,205.17,-0.62
KLaL_cation_pi_RCCE_opt_1p8.xyz,Nucleus 13C :,-3.41889,-0.29236,-16.78652,152.1,134.18,164.29,157.82,343.86,243.08,297.52,-87.62,-179.65,-160.9,134.18,157.82,164.29,0,30.11,0.57
KLaL_cation_pi_RCCE_opt_1p8.xyz,Nucleus 16C :,-3.30176,0.23385,-17.72915,43.1,160.56,-29.45,-1.82,319.82,251.05,277.07,-92.27,-348.91,-277.47,-29.45,-1.82,160.56,0,190.01,-0.71
KLaL_cation_pi_RCCE_opt_1p8.xyz,Nucleus 17C :,-3.10266,-1.66591,-16.73126,45.97,-59.43,41.38,155.96,340.28,288.46,261.61,-374.21,-249.19,-129.04,-59.43,41.38,155.96,0,215.39,-0.06
KLaL_cation_pi_RCCE_opt_1p8.xyz,Nucleus 19C :,-2.49736,-2.31516,-17.95972,61.48,174.88,54.88,-45.33,334.93,245.93,288.03,-112.14,-277.02,-295.3,-45.33,54.88,174.88,0,220.21,-0.09
KLaL_cation_pi_RCCE_opt_1p8.xyz,Nucleus 21C :,-2.47907,-3.407,-17.86462,49.88,-53.39,46.75,156.28,354.68,267.29,264.96,-390.13,-110.33,-236.83,-53.39,46.75,156.28,0,209.67,-0.04
KLaL_cation_pi_RCCE_opt_1p8.xyz,Nucleus 23C :,-3.14888,-2.11605,-18.81737,47.78,155.16,-29.83,18.02,319.13,268.6,287.93,-118.51,-342.84,-270.95,-29.83,18.02,155.16,0,184.99,-0.48
KLaL_cation_pi_RCCE_opt_1p8.xyz,Nucleus 24C :,-1.12737,-1.77181,-18.26735,19.0,120.43,9.01,-72.44,239.46,315.9,327.51,-145.9,-308.86,-371.11,-72.44,9.01,120.43,0,192.87,-0.16
KLaL_cation_pi_RCCE_opt_1p8.xyz,Nucleus 25C :,-0.91658,-0.74033,-19.18898,20.29,109.5,-61.68,13.05,214.45,283.01,290.5,-112.98,-267.07,-347.04,-61.68,13.05,109.5,0,171.18,-0.13
KLaL_cation_pi_RCCE_opt_1p8.xyz,Nucleus 28C :,-1.75776,-0.38293,-19.77633,152.59,135.44,157.62,164.7,328.07,217.67,274.57,-73.34,-165.79,-123.42,135.44,157.62,164.7,0,29.26,0.52
KLaL_cation_pi_RCCE_opt_1p8.xyz,Nucleus 31C :,0.34176,-0.19192,-19.37488,39.11,163.31,-0.56,-45.42,208.35,282.32,252.54,-63.15,-247.44,-315.29,-45.42,-0.56,163.31,0,208.73,-0.57
KLaL_cation_pi_RCCE_opt_1p8.xyz,Nucleus 32C :,0.49023,0.59144,-20.11041,46.48,164.83,-58.29,32.9,206.8,319.21,267.01,-104.29,-257.61,-291.68,-58.29,32.9,164.83,0,223.12,-0.18
KLaL_cation_pi_RCCE_opt_1p8.xyz,Nucleus 34C :,1.40802,-0.66952,-18.64383,51.68,176.98,-61.84,39.91,323.39,191.48,241.22,-56.46,-338.19,-206.38,-61.84,39.91,176.98,0,238.82,-0.15
KLaL_cation_pi_RCCE_opt_1p8.xyz,Nucleus 36C :,2.40209,-0.26185,-18.80495,46.34,165.5,31.89,-58.36,325.05,173.1,249.52,-57.83,-353.21,-197.6,-58.36,31.89,165.5,0,223.86,-0.19
KLaL_cation_pi_RCCE_opt_1p8.xyz,Nucleus 38C :,1.26331,-1.70665,-17.72336,41.02,162.97,-43.18,3.28,222.97,294.13,321.83,-122.41,-273.78,-319.68,-43.18,3.28,162.97,0,206.15,-0.55
KLaL_cation_pi_RCCE_opt_1p8.xyz,Nucleus 39C :,-0.02275,-2.248,-17.50932,153.6,136.76,165.92,158.12,270.59,143.4,196.47,17.1,-112.43,-54.33,136.76,158.12,165.92,0,29.16,0.47
KLaL_cation_pi_RCCE_opt_1p8.xyz,Nucleus 42C :,-3.29932,-2.31449,-15.5209,46.36,155.54,-31.67,15.21,272.65,228.36,178.24,-46.13,-264.46,-229.58,-31.67,15.21,155.54,0,187.21,-0.5
KLaL_cation_pi_RCCE_opt_1p8.xyz,Nucleus 43C :,-0.634,1.26673,-14.92549,47.81,-56.36,43.3,156.48,158.18,209.18,284.79,-294.82,-161.79,-52.11,-56.36,43.3,156.48,0,212.84,-0.06
KLaL_cation_pi_RCCE_opt_1p8.xyz,Nucleus 45C :,-0.61955,0.77925,-14.04083,60.36,175.29,52.56,-46.76,202.96,222.16,290.4,-31.03,-168.97,-334.42,-46.76,52.56,175.29,0,222.05,-0.11
KLaL_cation_pi_RCCE_opt_1p8.xyz,Nucleus 47C :,-0.34639,3.24638,-16.01492,47.47,-56.43,42.75,156.09,180.1,290.72,225.74,-293.46,-189.37,-71.32,-56.43,42.75,156.09,0,212.52,-0.07
KLaL_cation_pi_RCCE_opt_1p8.xyz,Nucleus 49C :,-0.35573,4.25022,-16.04481,45.69,161.01,-25.63,1.7,227.52,259.78,255.23,-94.44,-239.42,-271.59,-25.63,1.7,161.01,0,186.64,-0.71
KLaL_cation_pi_RCCE_opt_1p8.xyz,Nucleus 50C :,-0.07021,2.75851,-16.85674,20.56,-72.5,13.31,120.87,124.53,225.19,262.85,-32.88,-223.62,-294.39,-72.5,13.31,120.87,0,193.37,-0.11
KLaL_cation_pi_RCCE_opt_1p8.xyz,Nucleus 51C :,-0.64706,2.58323,-14.92389,28.58,-57.21,104.4,38.56,155.39,297.58,269.05,-84.4,-226.99,-324.89,-57.21,38.56,104.4,0,161.61,0.19
KLaL_cation_pi_RCCE_opt_1p8.xyz,Nucleus 57C :,-0.16135,0.79658,-15.68304,28.74,126.16,-26.97,-12.97,233.25,271.45,312.94,-116.98,-279.8,-334.65,-26.97,-12.97,126.16,0,153.13,-0.82
KLaL_cation_pi_RCCE_opt_1p8.xyz,Nucleus 52N :,-0.9608,3.23763,-13.83124,167.44,101.66,191.16,209.49,420.08,346.18,309.47,-278.29,-136.35,-158.79,101.66,191.16,209.49,0,107.83,0.66
KLaL_cation_pi_RCCE_opt_1p8.xyz,Nucleus 54N :,-0.9621,4.24135,-13.79599,180.0,232.03,182.03,125.94,203.86,318.17,374.78,-22.14,-195.33,-139.33,125.94,182.03,232.03,0,106.09,0.06
KLaL_cation_pi_RCCE_opt_1p8.xyz,Nucleus 59N :,-1.16151,2.74139,-12.97253,179.65,231.63,182.24,125.09,407.26,318.42,359.57,-219.85,-232.16,-94.29,125.09,182.24,231.63,0,106.54,0.07
KLaL_cation_pi_RCCE_opt_1p9.xyz,Nucleus 3H :,1.85056,-3.65399,-14.42354,27.76,34.31,25.13,23.84,-79.02,77.8,15.86,105.28,-47.42,10.78,23.84,25.13,34.31,0,10.47,-0.75
KLaL_cation_pi_RCCE_opt_1p9.xyz,Nucleus 4H :,-1.00867,-3.16908,-13.28325,26.9,23.52,27.23,29.95,-59.79,8.11,84.49,84.8,20.28,-57.2,23.52,27.23,29.95,0,6.43,0.15
KLaL_cation_pi_RCCE_opt_1p9.xyz,Nucleus 7H :,2.41198,-2.20461,-16.88088,24.43,29.34,20.83,23.13,-34.07,54.39,95.29,58.62,-28.66,-72.28,20.83,23.13,29.34,0,8.51,-0.46
KLaL_cation_pi_RCCE_opt_1p9.xyz,Nucleus 9H :,3.34765,-1.9455,-17.38756,24.95,22.16,25.64,27.04,14.11,91.81,69.19,11.84,-65.54,-46.58,22.16,25.64,27.04,0,4.88,0.42
KLaL_cation_pi_RCCE_opt_1p9.xyz,Nucleus 11H :,2.39691,-3.29532,-16.81784,24.31,29.37,20.73,22.84,126.58,65.01,32.17,-102.43,-8.86,-39.53,20.73,22.84,29.37,0,8.64,-0.51
KLaL_cation_pi_RCCE_opt_1p9.xyz,Nucleus 14H :,2.4252,-1.57784,-15.50033,26.25,23.15,29.57,26.02,15.94,96.07,71.68,10.03,-71.79,-43.19,23.15,26.02,29.57,0,6.42,-0.11
KLaL_cation_pi_RCCE_opt_1p9.xyz,Nucleus 15H :,2.68791,-0.21348,-15.39687,27.97,34.6,25.43,23.87,133.54,35.97,64.7,-106.8,-2.97,-40.55,23.87,25.43,34.6,0,10.73,-0.71
KLaL_cation_pi_RCCE_opt_1p9.xyz,Nucleus 18H :,2.98968,0.34051,-16.28164,23.77,28.15,22.6,20.57,121.42,88.75,37.76,-99.44,-66.15,-11.02,20.57,22.6,28.15,0,7.58,-0.46
KLaL_cation_pi_RCCE_opt_1p9.xyz,Nucleus 20H :,2.57849,0.43438,-14.17723,24.44,21.03,26.56,25.74,35.7,91.92,105.75,-65.5,-84.4,-10.14,21.03,25.74,26.56,0,5.53,0.71
KLaL_cation_pi_RCCE_opt_1p9.xyz,Nucleus 22H :,2.82822,1.48929,-14.10622,24.05,28.54,23.03,20.58,120.38,24.35,75.43,-97.28,3.07,-53.8,20.58,23.03,28.54,0,7.96,-0.38
KLaL_cation_pi_RCCE_opt_1p9.xyz,Nucleus 29H :,2.14561,-0.24168,-13.06379,27.59,34.26,24.99,23.53,127.02,8.29,31.69,-98.96,22.59,-7.84,23.53,24.99,34.26,0,10.73,-0.73
KLaL_cation_pi_RCCE_opt_1p9.xyz,Nucleus 30H :,2.02109,0.28044,-12.11936,27.01,23.47,27.57,30.0,4.22,91.26,65.66,23.12,-66.26,-36.96,23.47,27.57,30.0,0,6.53,0.26
KLaL_cation_pi_RCCE_opt_1p9.xyz,Nucleus 33H :,1.85668,-1.6211,-13.12241,24.15,29.19,20.62,22.65,126.66,27.82,5.51,-102.82,-2.5,17.79,20.62,22.65,29.19,0,8.57,-0.53
KLaL_cation_pi_RCCE_opt_1p9.xyz,Nucleus 35H :,1.26442,-2.28521,-11.89554,24.61,21.75,25.13,26.95,90.83,-24.36,6.83,-65.49,49.74,16.29,21.75,25.13,26.95,0,5.2,0.3
KLaL_cation_pi_RCCE_opt_1p9.xyz,Nucleus 37H :,1.23472,-3.36627,-12.0504,24.24,29.42,20.63,22.67,-77.76,85.34,16.76,102.92,-62.25,7.7,20.63,22.67,29.42,0,8.79,-0.54
KLaL_cation_pi_RCCE_opt_1p9.xyz,Nucleus 40H :,1.91674,-2.09261,-11.03742,27.13,23.78,30.08,27.54,60.21,-70.59,-16.97,-31.93,94.37,46.31,23.78,27.54,30.08,0,6.3,0.2
KLaL_cation_pi_RCCE_opt_1p9.xyz,Nucleus 41H :,-0.11608,-1.76989,-11.58662,27.55,34.33,24.93,23.39,-112.87,58.03,-31.05,137.51,-24.41,55.44,23.39,24.93,34.33,0,10.94,-0.72
KLaL_cation_pi_RCCE_opt_1p9.xyz,Nucleus 44H :,-0.34726,-0.74504,-10.66249,23.91,28.37,22.82,20.54,61.4,-85.76,-32.69,-35.88,107.29,57.37,20.54,22.82,28.37,0,7.83,-0.42
KLaL_cation_pi_RCCE_opt_1p9.xyz,Nucleus 46H :,0.48968,-0.37756,-10.07614,24.37,20.96,26.5,25.66,69.34,-32.44,-74.6,-43.87,58.89,95.79,20.96,25.66,26.5,0,5.54,0.7
KLaL_cation_pi_RCCE_opt_1p9.xyz,Nucleus 48H :,-1.61623,-0.22215,-10.4753,23.85,28.28,22.7,20.56,64.95,-42.7,-16.06,-39.09,65.65,38.8,20.56,22.7,28.28,0,7.72,-0.45
KLaL_cation_pi_RCCE_opt_1p9.xyz,Nucleus 53H :,-1.78286,0.55559,-9.73755,29.93,37.73,26.86,25.21,15.04,119.72,98.14,10.75,-92.2,-61.64,25.21,26.86,37.73,0,12.52,-0.74
KLaL_cation_pi_RCCE_opt_1p9.xyz,Nucleus 55H :,-2.67282,-0.71904,-11.20753,27.47,20.83,24.76,36.82,-44.76,23.11,72.19,66.63,2.93,-37.69,20.83,24.76,36.82,0,15.99,-0.51
KLaL_cation_pi_RCCE_opt_1p9.xyz,Nucleus 56H :,-3.67284,-0.32653,-11.04041,27.54,20.58,34.98,27.07,-75.84,26.64,73.01,96.6,6.16,-43.95,20.58,27.07,34.98,0,14.4,-0.1
KLaL_cation_pi_RCCE_opt_1p9.xyz,Nucleus 58H :,-2.50759,-1.75085,-12.13052,29.97,37.89,25.35,26.68,11.68,41.36,95.27,-69.07,15.08,-4.4,25.35,26.68,37.89,0,12.54,-0.79
KLaL_cation_pi_RCCE_opt_1p9.xyz,Nucleus 60H :,-1.21105,-2.26606,-12.34584,27.46,36.79,20.84,24.76,82.04,56.54,21.58,-57.17,-30.39,9.79,20.84,24.76,36.79,0,15.95,-0.51
KLaL_cation_pi_RCCE_opt_1p9.xyz,Nucleus 61H :,2.06614,-2.26271,-14.33433,27.5,20.54,34.95,27.02,146.19,15.45,78.85,-125.11,12.38,-45.25,20.54,27.02,34.95,0,14.41,-0.1
KLaL_cation_pi_RCCE_opt_1p9.xyz,Nucleus 62H :,-3.05617,-3.70143,-15.43508,25.81,37.54,17.98,21.9,20.02,39.91,67.68,-10.71,2.76,-42.24,17.98,21.9,37.54,0,19.56,-0.6
KLaL_cation_pi_RCCE_opt_1p9.xyz,Nucleus 63H :,-0.20716,-3.15713,-16.57412,24.7,35.87,23.07,15.17,87.08,44.22,10.77,-53.61,-20.46,6.12,15.17,23.07,35.87,0,20.7,-0.24
KLaL_cation_pi_RCCE_opt_1p9.xyz,Nucleus 64H :,-3.64618,-2.26946,-12.97424,27.81,42.01,19.7,21.73,78.07,-20.19,7.84,-37.92,41.52,14.13,19.7,21.73,42.01,0,22.31,-0.82
KLaL_cation_pi_RCCE_opt_1p9.xyz,Nucleus 65H :,-4.58558,-2.02912,-12.46536,24.35,36.57,22.79,13.68,53.46,33.15,22.74,-34.79,2.39,-3.91,13.68,22.79,36.57,0,22.89,-0.2
KLaL_cation_pi_RCCE_opt_1p9.xyz,Nucleus 2C :,-3.63086,-3.36289,-13.04152,151.63,134.77,163.33,156.78,299.09,170.04,210.89,-144.63,-8.42,-72.1,134.77,156.78,163.33,0,28.56,0.54
KLaL_cation_pi_RCCE_opt_1p9.xyz,Nucleus 5C :,-3.67186,-1.63971,-14.35326,39.9,161.61,4.21,-46.11,311.0,255.92,278.88,-104.61,-302.31,-319.18,-46.11,4.21,161.61,0,207.72,-0.52
KLaL_cation_pi_RCCE_opt_1p9.xyz,Nucleus 6C :,-3.9616,-0.28059,-14.4534,50.61,164.4,-54.37,41.8,319.78,242.22,284.18,-90.69,-363.74,-239.94,-54.37,41.8,164.4,0,218.77,-0.12
KLaL_cation_pi_RCCE_opt_1p9.xyz,Nucleus 8C :,-4.26639,0.26235,-13.56389,57.92,175.37,-53.97,52.35,245.72,283.13,316.58,-87.13,-344.13,-240.4,-53.97,52.35,175.37,0,229.34,-0.07
KLaL_cation_pi_RCCE_opt_1p9.xyz,Nucleus 10C :,-3.86508,0.37227,-15.67146,47.43,164.98,36.51,-59.21,234.38,290.08,324.19,-106.36,-330.12,-269.89,-59.21,36.51,164.98,0,224.19,-0.15
KLaL_cation_pi_RCCE_opt_1p9.xyz,Nucleus 12C :,-4.13466,1.42199,-15.74103,39.35,163.23,-42.0,-3.17,231.32,272.69,299.65,-79.49,-328.06,-278.06,-42.0,-3.17,163.23,0,205.23,-0.62
KLaL_cation_pi_RCCE_opt_1p9.xyz,Nucleus 13C :,-3.41889,-0.29236,-16.78652,152.08,134.17,164.29,157.78,344.12,242.85,297.75,-87.4,-179.91,-161.18,134.17,157.78,164.29,0,30.12,0.57
KLaL_cation_pi_RCCE_opt_1p9.xyz,Nucleus 16C :,-3.30176,0.23385,-17.72915,43.12,160.54,-29.52,-1.65,320.4,251.19,277.0,-92.47,-349.56,-277.21,-29.52,-1.65,160.54,0,190.06,-0.71
KLaL_cation_pi_RCCE_opt_1p9.xyz,Nucleus 17C :,-3.10266,-1.66591,-16.73126,46.0,-59.43,41.54,155.9,339.62,288.75,261.58,-373.5,-249.19,-129.24,-59.43,41.54,155.9,0,215.33,-0.06
KLaL_cation_pi_RCCE_opt_1p9.xyz,Nucleus 19C :,-2.49736,-2.31516,-17.95972,61.51,174.8,55.05,-45.31,334.33,246.28,288.31,-112.36,-276.36,-295.67,-45.31,55.05,174.8,0,220.11,-0.09
KLaL_cation_pi_RCCE_opt_1p9.xyz,Nucleus 21C :,-2.47907,-3.407,-17.86462,49.92,-53.36,46.9,156.22,353.7,267.62,265.16,-389.49,-110.64,-236.59,-53.36,46.9,156.22,0,209.58,-0.04
KLaL_cation_pi_RCCE_opt_1p9.xyz,Nucleus 23C :,-3.14888,-2.11605,-18.81737,47.84,155.13,-29.83,18.21,319.24,268.71,287.56,-118.81,-342.95,-270.23,-29.83,18.21,155.13,0,184.96,-0.48
KLaL_cation_pi_RCCE_opt_1p9.xyz,Nucleus 24C :,-1.12737,-1.77181,-18.26735,18.92,120.4,8.99,-72.62,239.01,316.59,327.96,-145.54,-309.56,-371.68,-72.62,8.99,120.4,0,193.02,-0.15
KLaL_cation_pi_RCCE_opt_1p9.xyz,Nucleus 25C :,-0.91658,-0.74033,-19.18898,20.22,109.46,-61.9,13.1,213.93,290.4,283.45,-112.81,-267.24,-347.07,-61.9,13.1,109.46,0,171.36,-0.12
KLaL_cation_pi_RCCE_opt_1p9.xyz,Nucleus 28C :,-1.75776,-0.38293,-19.77633,152.57,135.43,157.57,164.71,328.15,217.81,274.69,-73.31,-165.87,-123.77,135.43,157.57,164.71,0,29.28,0.51
KLaL_cation_pi_RCCE_opt_1p9.xyz,Nucleus 31C :,0.34176,-0.19192,-19.37488,39.08,163.28,-0.58,-45.47,207.57,282.88,253.18,-62.92,-247.89,-315.59,-45.47,-0.58,163.28,0,208.75,-0.57
KLaL_cation_pi_RCCE_opt_1p9.xyz,Nucleus 32C :,0.49023,0.59144,-20.11041,46.52,164.75,-58.17,32.99,207.24,318.99,267.5,-104.41,-258.13,-291.6,-58.17,32.99,164.75,0,222.92,-0.18
KLaL_cation_pi_RCCE_opt_1p9.xyz,Nucleus 34C :,1.40802,-0.66952,-18.64383,51.76,176.85,-61.63,40.06,323.18,192.69,242.27,-57.21,-339.04,-206.62,-61.63,40.06,176.85,0,238.48,-0.15
KLaL_cation_pi_RCCE_opt_1p9.xyz,Nucleus 36C :,2.40209,-0.26185,-18.80495,46.4,165.42,32.0,-58.21,174.61,324.46,250.22,-58.75,-352.57,-198.77,-58.21,32.0,165.42,0,223.63,-0.19
KLaL_cation_pi_RCCE_opt_1p9.xyz,Nucleus 38C :,1.26331,-1.70665,-17.72336,41.0,162.94,-43.23,3.28,222.75,294.55,322.6,-122.42,-274.43,-320.06,-43.23,3.28,162.94,0,206.17,-0.55
KLaL_cation_pi_RCCE_opt_1p9.xyz,Nucleus 39C :,-0.02275,-2.248,-17.50932,153.58,136.76,165.92,158.07,270.62,143.17,196.63,17.36,-112.51,-54.52,136.76,158.07,165.92,0,29.16,0.46
KLaL_cation_pi_RCCE_opt_1p9.xyz,Nucleus 42C :,-3.29932,-2.31449,-15.5209,46.42,155.52,-31.65,15.39,272.75,228.53,179.49,-46.23,-264.91,-230.36,-31.65,15.39,155.52,0,187.17,-0.5
KLaL_cation_pi_RCCE_opt_1p9.xyz,Nucleus 43C :,-0.634,1.36673,-14.92549,47.86,-56.31,43.47,156.42,159.48,209.66,284.79,-295.0,-163.33,-52.01,-56.31,43.47,156.42,0,212.73,-0.06
KLaL_cation_pi_RCCE_opt_1p9.xyz,Nucleus 45C :,-0.61955,0.87925,-14.04083,60.4,175.21,52.73,-46.74,202.74,223.24,289.88,-30.96,-169.92,-333.77,-46.74,52.73,175.21,0,221.95,-0.1
KLaL_cation_pi_RCCE_opt_1p9.xyz,Nucleus 47C :,-0.34639,3.34638,-16.01492,47.49,-56.45,42.88,156.03,181.53,290.28,225.43,-293.28,-190.3,-71.21,-56.45,42.88,156.03,0,212.48,-0.07
KLaL_cation_pi_RCCE_opt_1p9.xyz,Nucleus 49C :,-0.35573,4.35022,-16.04481,45.71,160.99,-25.72,1.86,227.07,259.62,254.69,-94.32,-239.4,-270.53,-25.72,1.86,160.99,0,186.71,-0.7
KLaL_cation_pi_RCCE_opt_1p9.xyz,Nucleus 50C :,-0.07021,2.85851,-16.85674,20.49,-72.67,13.3,120.84,124.58,223.87,262.61,-32.99,-222.38,-294.2,-72.67,13.3,120.84,0,193.51,-0.11
KLaL_cation_pi_RCCE_opt_1p9.xyz,Nucleus 51C :,-0.64706,2.68323,-14.92389,28.56,-57.3,104.37,38.62,155.06,297.72,269.43,-84.07,-227.05,-325.39,-57.3,38.62,104.37,0,161.67,0.19
KLaL_cation_pi_RCCE_opt_1p9.xyz,Nucleus 57C :,-0.16135,0.89658,-15.68304,28.65,125.96,-26.84,-13.17,233.03,270.95,312.24,-116.78,-279.59,-333.9,-26.84,-13.17,125.96,0,152.8,-0.82
KLaL_cation_pi_RCCE_opt_1p9.xyz,Nucleus 52N :,-0.9608,3.33763,-13.83124,167.58,102.1,190.23,210.42,419.75,345.89,309.58,-277.42,-137.53,-157.51,102.1,190.23,210.42,0,108.32,0.63
KLaL_cation_pi_RCCE_opt_1p9.xyz,Nucleus 54N :,-0.9621,4.34135,-13.79599,179.93,232.03,181.98,125.77,203.41,317.72,373.96,-21.72,-194.83,-138.75,125.77,181.98,232.03,0,106.26,0.06
KLaL_cation_pi_RCCE_opt_1p9.xyz,Nucleus 59N :,-1.16151,2.84139,-12.97253,179.58,231.62,182.2,124.93,406.57,318.47,359.0,-219.1,-231.9,-94.28,124.93,182.2,231.62,0,106.69,0.07
KLaL_cation_pi_RCCE_opt_2p0.xyz,Nucleus 3H :,1.85056,-3.65399,-14.42354,27.76,34.3,25.14,23.85,-79.08,77.81,15.5,105.35,-47.43,11.14,23.85,25.14,34.3,0,10.45,-0.75
KLaL_cation_pi_RCCE_opt_2p0.xyz,Nucleus 4H :,-1.00867,-3.16908,-13.28325,26.9,23.53,27.23,29.95,-59.84,7.87,84.47,84.86,20.53,-57.19,23.53,27.23,29.95,0,6.42,0.15
KLaL_cation_pi_RCCE_opt_2p0.xyz,Nucleus 7H :,2.41198,-2.20461,-16.88088,24.44,29.37,20.84,23.11,-33.54,53.81,94.94,58.06,-28.03,-71.92,20.84,23.11,29.37,0,8.53,-0.47
KLaL_cation_pi_RCCE_opt_2p0.xyz,Nucleus 9H :,3.34765,-1.9455,-17.38756,24.96,22.21,25.62,27.06,14.75,91.46,68.85,11.21,-65.19,-46.19,22.21,25.62,27.06,0,4.85,0.41
KLaL_cation_pi_RCCE_opt_2p0.xyz,Nucleus 11H :,2.39691,-3.29532,-16.81784,24.32,29.4,20.74,22.81,126.09,65.38,32.18,-101.98,-8.87,-39.84,20.74,22.81,29.4,0,8.66,-0.52
KLaL_cation_pi_RCCE_opt_2p0.xyz,Nucleus 14H :,2.4252,-1.57784,-15.50033,26.25,23.16,29.57,26.01,15.86,96.24,71.71,10.1,-71.94,-43.23,23.16,26.01,29.57,0,6.41,-0.11
KLaL_cation_pi_RCCE_opt_2p0.xyz,Nucleus 15H :,2.68791,-0.21348,-15.39687,27.97,34.58,25.44,23.88,133.58,35.92,64.81,-106.83,-2.92,-40.66,23.88,25.44,34.58,0,10.7,-0.71
KLaL_cation_pi_RCCE_opt_2p0.xyz,Nucleus 18H :,2.98968,0.34051,-16.28164,23.78,28.16,22.59,20.59,121.09,88.89,37.74,-99.11,-66.26,-11.01,20.59,22.59,28.16,0,7.57,-0.47
KLaL_cation_pi_RCCE_opt_2p0.xyz,Nucleus 20H :,2.57849,0.43438,-14.17723,24.45,21.04,26.58,25.73,35.71,91.71,105.91,-65.26,-84.55,-10.16,21.04,25.73,26.58,0,5.54,0.69
KLaL_cation_pi_RCCE_opt_2p0.xyz,Nucleus 22H :,2.82822,1.48929,-14.10622,24.06,28.55,23.02,20.6,120.02,24.38,75.65,-96.92,3.03,-53.98,20.6,23.02,28.55,0,7.95,-0.39
KLaL_cation_pi_RCCE_opt_2p0.xyz,Nucleus 29H :,2.14561,-0.24168,-13.06379,27.6,34.25,25.0,23.54,126.95,8.28,31.99,-98.9,22.6,-8.13,23.54,25.0,34.25,0,10.71,-0.73
KLaL_cation_pi_RCCE_opt_2p0.xyz,Nucleus 30H :,2.02109,0.28044,-12.11936,27.02,23.48,27.57,30.0,4.18,91.26,65.88,23.16,-66.26,-37.17,23.48,27.57,30.0,0,6.52,0.25
KLaL_cation_pi_RCCE_opt_2p0.xyz,Nucleus 33H :,1.85668,-1.6211,-13.12241,24.16,29.22,20.62,22.64,126.17,28.6,5.69,-102.34,-3.24,17.59,20.62,22.64,29.22,0,8.6,-0.53
KLaL_cation_pi_RCCE_opt_2p0.xyz,Nucleus 35H :,1.26442,-2.28521,-11.89554,24.62,21.79,25.1,26.97,90.69,-23.46,7.15,-65.38,48.86,16.01,21.79,25.1,26.97,0,5.18,0.28
KLaL_cation_pi_RCCE_opt_2p0.xyz,Nucleus 37H :,1.23472,-3.36627,-12.0504,24.24,29.44,20.62,22.66,-76.65,85.25,16.71,101.81,-62.17,7.77,20.62,22.66,29.44,0,8.82,-0.54
KLaL_cation_pi_RCCE_opt_2p0.xyz,Nucleus 40H :,1.91674,-2.09261,-11.03742,27.14,23.79,30.08,27.54,60.26,-70.56,-16.87,-31.99,94.35,46.21,23.79,27.54,30.08,0,6.29,0.19
KLaL_cation_pi_RCCE_opt_2p0.xyz,Nucleus 41H :,-0.11608,-1.76989,-11.58662,27.55,34.32,24.94,23.4,-112.76,58.05,-30.88,137.42,-24.44,55.28,23.4,24.94,34.32,0,10.92,-0.72
KLaL_cation_pi_RCCE_opt_2p0.xyz,Nucleus 44H :,-0.34726,-0.74504,-10.66249,23.92,28.38,22.82,20.56,-85.4,-32.16,61.45,-35.94,106.92,56.9,20.56,22.82,28.38,0,7.82,-0.42
KLaL_cation_pi_RCCE_opt_2p0.xyz,Nucleus 46H :,0.48968,-0.37756,-10.07614,24.38,20.97,26.52,25.65,69.29,-31.83,-74.8,-43.83,58.3,96.02,20.97,25.65,26.52,0,5.55,0.69
KLaL_cation_pi_RCCE_opt_2p0.xyz,Nucleus 48H :,-1.61623,-0.22215,-10.4753,23.86,28.29,22.7,20.58,64.85,-42.14,-16.27,-39.02,65.07,39.07,20.58,22.7,28.29,0,7.71,-0.45
KLaL_cation_pi_RCCE_opt_2p0.xyz,Nucleus 53H :,-1.78286,0.55559,-9.73755,29.78,37.64,26.58,25.13,15.49,119.91,97.95,10.33,-92.84,-61.5,25.13,26.58,37.64,0,12.51,-0.77
KLaL_cation_pi_RCCE_opt_2p0.xyz,Nucleus 55H :,-2.67282,-0.71904,-11.20753,27.43,20.8,24.73,36.76,-45.59,22.93,71.51,67.41,3.08,-37.04,20.8,24.73,36.76,0,15.96,-0.51
KLaL_cation_pi_RCCE_opt_2p0.xyz,Nucleus 56H :,-3.67284,-0.32653,-11.04041,27.48,20.53,34.87,27.04,-76.47,26.2,71.99,97.19,6.39,-42.85,20.53,27.04,34.87,0,14.34,-0.09
KLaL_cation_pi_RCCE_opt_2p0.xyz,Nucleus 58H :,-2.50759,-1.75085,-12.13052,29.82,37.8,25.25,26.42,11.42,40.83,93.7,-67.46,14.96,-3.98,25.25,26.42,37.8,0,12.55,-0.81
KLaL_cation_pi_RCCE_opt_2p0.xyz,Nucleus 60H :,-1.21105,-2.26606,-12.34584,27.43,36.74,20.81,24.73,81.23,55.93,21.53,-56.32,-29.86,9.76,20.81,24.73,36.74,0,15.93,-0.51
KLaL_cation_pi_RCCE_opt_2p0.xyz,Nucleus 61H :,2.06614,-2.26271,-14.33433,27.44,20.49,34.84,27.0,146.27,15.78,78.16,-125.25,12.07,-44.7,20.49,27.0,34.84,0,14.35,-0.09
KLaL_cation_pi_RCCE_opt_2p0.xyz,Nucleus 62H :,-3.05617,-3.70143,-15.43508,25.81,37.56,17.96,21.9,19.93,39.75,67.66,-10.53,2.9,-42.29,17.96,21.9,37.56,0,19.6,-0.6
KLaL_cation_pi_RCCE_opt_2p0.xyz,Nucleus 63H :,-0.20716,-3.15713,-16.57412,24.71,35.88,23.1,15.16,87.24,44.52,10.69,-53.79,-20.72,6.19,15.16,23.1,35.88,0,20.72,-0.23
KLaL_cation_pi_RCCE_opt_2p0.xyz,Nucleus 64H :,-3.64618,-2.26946,-12.97424,27.82,42.01,19.71,21.74,78.15,-20.21,7.84,-38.0,41.55,14.13,19.71,21.74,42.01,0,22.3,-0.82
KLaL_cation_pi_RCCE_opt_2p0.xyz,Nucleus 65H :,-4.58558,-2.02912,-12.46536,24.35,36.59,22.81,13.66,53.41,32.86,22.46,-34.88,2.7,-3.5,13.66,22.81,36.59,0,22.93,-0.2
KLaL_cation_pi_RCCE_opt_2p0.xyz,Nucleus 2C :,-3.63086,-3.36289,-13.04152,151.61,134.76,163.33,156.74,299.18,169.85,210.21,-144.73,-8.21,-71.47,134.76,156.74,163.33,0,28.57,0.54
KLaL_cation_pi_RCCE_opt_2p0.xyz,Nucleus 5C :,-3.67186,-1.63971,-14.35326,39.93,161.56,4.41,-46.18,311.73,255.15,279.56,-104.52,-302.79,-319.34,-46.18,4.41,161.56,0,207.74,-0.51
KLaL_cation_pi_RCCE_opt_2p0.xyz,Nucleus 6C :,-3.9616,-0.28059,-14.4534,50.61,164.3,-54.39,41.91,319.87,242.04,283.93,-90.86,-363.56,-239.6,-54.39,41.91,164.3,0,218.69,-0.12
KLaL_cation_pi_RCCE_opt_2p0.xyz,Nucleus 8C :,-4.26639,0.26235,-13.56389,58.14,175.19,-53.61,52.83,246.41,282.57,316.03,-87.7,-343.4,-239.5,-53.61,52.83,175.19,0,228.8,-0.07
KLaL_cation_pi_RCCE_opt_2p0.xyz,Nucleus 10C :,-3.86508,0.37227,-15.67146,47.43,164.88,36.63,-59.22,233.89,290.57,323.8,-106.17,-330.34,-269.47,-59.22,36.63,164.88,0,224.1,-0.14
KLaL_cation_pi_RCCE_opt_2p0.xyz,Nucleus 12C :,-4.13466,1.42199,-15.74103,39.37,163.19,-42.08,-3.0,231.3,273.48,298.51,-79.8,-327.86,-277.52,-42.08,-3.0,163.19,0,205.27,-0.62
KLaL_cation_pi_RCCE_opt_2p0.xyz,Nucleus 13C :,-3.41889,-0.29236,-16.78652,152.06,134.16,164.29,157.74,344.28,242.64,297.93,-87.2,-180.07,-161.4,134.16,157.74,164.29,0,30.13,0.57
KLaL_cation_pi_RCCE_opt_2p0.xyz,Nucleus 16C :,-3.30176,0.23385,-17.72915,43.15,160.51,-29.58,-1.47,321.05,251.41,276.65,-92.68,-350.27,-276.7,-29.58,-1.47,160.51,0,190.09,-0.7
KLaL_cation_pi_RCCE_opt_2p0.xyz,Nucleus 17C :,-3.10266,-1.66591,-16.73126,46.04,-59.43,41.7,155.84,339.0,288.96,261.53,-372.84,-249.14,-129.4,-59.43,41.7,155.84,0,215.27,-0.06
KLaL_cation_pi_RCCE_opt_2p0.xyz,Nucleus 19C :,-2.49736,-2.31516,-17.95972,61.55,174.72,55.21,-45.29,333.79,246.55,288.54,-112.55,-275.72,-295.96,-45.29,55.21,174.72,0,220.01,-0.09
KLaL_cation_pi_RCCE_opt_2p0.xyz,Nucleus 21C :,-2.47907,-3.407,-17.86462,49.95,-53.34,47.04,156.15,352.86,267.99,265.24,-388.91,-110.93,-236.39,-53.34,47.04,156.15,0,209.49,-0.04
KLaL_cation_pi_RCCE_opt_2p0.xyz,Nucleus 23C :,-3.14888,-2.11605,-18.81737,47.89,155.1,-29.83,18.41,319.48,268.74,287.19,-119.02,-343.18,-269.52,-29.83,18.41,155.1,0,184.93,-0.48
KLaL_cation_pi_RCCE_opt_2p0.xyz,Nucleus 24C :,-1.12737,-1.77181,-18.26735,18.86,120.38,8.98,-72.79,238.75,317.04,328.13,-145.34,-310.23,-371.79,-72.79,8.98,120.38,0,193.17,-0.15
KLaL_cation_pi_RCCE_opt_2p0.xyz,Nucleus 25C :,-0.91658,-0.74033,-19.18898,20.16,109.43,-62.1,13.14,213.52,290.32,283.84,-112.75,-267.4,-347.07,-62.1,13.14,109.43,0,171.53,-0.12
KLaL_cation_pi_RCCE_opt_2p0.xyz,Nucleus 28C :,-1.75776,-0.38293,-19.77633,152.55,135.42,157.53,164.71,328.19,217.97,274.76,-73.31,-165.91,-124.04,135.42,157.53,164.71,0,29.29,0.51
KLaL_cation_pi_RCCE_opt_2p0.xyz,Nucleus 31C :,0.34176,-0.19192,-19.37488,39.06,163.26,-0.58,-45.51,206.88,283.42,253.84,-62.74,-248.34,-315.9,-45.51,-0.58,163.26,0,208.77,-0.57
KLaL_cation_pi_RCCE_opt_2p0.xyz,Nucleus 32C :,0.49023,0.59144,-20.11041,46.57,164.68,-58.06,33.08,207.43,318.87,268.04,-104.48,-258.69,-291.48,-58.06,33.08,164.68,0,222.74,-0.18
KLaL_cation_pi_RCCE_opt_2p0.xyz,Nucleus 34C :,1.40802,-0.66952,-18.64383,51.85,176.72,-61.41,40.24,323.03,193.7,243.46,-57.82,-340.0,-206.82,-61.41,40.24,176.72,0,238.13,-0.15
KLaL_cation_pi_RCCE_opt_2p0.xyz,Nucleus 36C :,2.40209,-0.26185,-18.80495,46.45,165.34,32.1,-58.09,175.89,323.93,250.89,-59.54,-351.92,-199.92,-58.09,32.1,165.34,0,223.43,-0.19
KLaL_cation_pi_RCCE_opt_2p0.xyz,Nucleus 38C :,1.26331,-1.70665,-17.72336,40.98,162.91,-43.27,3.29,222.52,294.88,323.34,-122.35,-275.01,-320.46,-43.27,3.29,162.91,0,206.18,-0.55
KLaL_cation_pi_RCCE_opt_2p0.xyz,Nucleus 39C :,-0.02275,-2.248,-17.50932,153.57,136.75,165.93,158.02,270.68,142.97,196.61,17.57,-112.61,-54.51,136.75,158.02,165.93,0,29.18,0.46
KLaL_cation_pi_RCCE_opt_2p0.xyz,Nucleus 42C :,-3.29932,-2.31449,-15.5209,46.48,155.49,-31.63,15.59,272.92,228.64,180.63,-46.34,-265.32,-231.07,-31.63,15.59,155.49,0,187.12,-0.5
KLaL_cation_pi_RCCE_opt_2p0.xyz,Nucleus 43C :,-0.634,1.46673,-14.92549,47.92,-56.25,43.64,156.36,160.7,210.17,284.77,-295.18,-164.76,-51.94,-56.25,43.64,156.36,0,212.61,-0.06
KLaL_cation_pi_RCCE_opt_2p0.xyz,Nucleus 45C :,-0.61955,0.97925,-14.04083,60.44,175.14,52.89,-46.72,202.47,224.26,289.44,-30.84,-170.82,-333.2,-46.72,52.89,175.14,0,221.86,-0.1
KLaL_cation_pi_RCCE_opt_2p0.xyz,Nucleus 47C :,-0.34639,3.44638,-16.01492,47.49,-56.49,43.0,155.97,182.88,289.92,225.18,-293.13,-191.23,-71.14,-56.49,43.0,155.97,0,212.46,-0.06
KLaL_cation_pi_RCCE_opt_2p0.xyz,Nucleus 49C :,-0.35573,4.45022,-16.04481,45.74,160.97,-25.8,2.04,226.49,259.42,254.83,-94.28,-239.44,-269.81,-25.8,2.04,160.97,0,186.77,-0.7
KLaL_cation_pi_RCCE_opt_2p0.xyz,Nucleus 50C :,-0.07021,2.95851,-16.85674,20.43,-72.83,13.29,120.82,124.66,222.97,262.34,-33.02,-221.32,-294.34,-72.83,13.29,120.82,0,193.65,-0.11
KLaL_cation_pi_RCCE_opt_2p0.xyz,Nucleus 51C :,-0.64706,2.78323,-14.92389,28.55,-57.39,104.35,38.68,154.75,297.87,269.86,-83.76,-227.13,-325.95,-57.39,38.68,104.35,0,161.74,0.19
KLaL_cation_pi_RCCE_opt_2p0.xyz,Nucleus 57C :,-0.16135,0.99658,-15.68304,28.55,125.77,-26.73,-13.39,232.84,270.45,311.53,-116.57,-279.43,-333.17,-26.73,-13.39,125.77,0,152.5,-0.83
KLaL_cation_pi_RCCE_opt_2p0.xyz,Nucleus 52N :,-0.9608,3.43763,-13.83124,167.82,102.63,189.33,211.49,419.33,345.6,309.67,-276.39,-138.63,-156.12,102.63,189.33,211.49,0,108.86,0.59
KLaL_cation_pi_RCCE_opt_2p0.xyz,Nucleus 54N :,-0.9621,4.44135,-13.79599,179.83,231.99,181.94,125.55,203.06,317.24,373.16,-21.4,-194.39,-138.19,125.55,181.94,231.99,0,106.44,0.06
KLaL_cation_pi_RCCE_opt_2p0.xyz,Nucleus 59N :,-1.16151,2.94139,-12.97253,179.49,231.59,182.16,124.72,405.82,318.52,358.42,-218.33,-231.64,-94.31,124.72,182.16,231.59,0,106.87,0.07
KLaL_cation_pi_RCCE_opt_2p1.xyz,Nucleus 3H :,1.85056,-3.65399,-14.42354,27.77,34.29,25.15,23.86,-79.14,77.8,15.19,105.42,-47.42,11.46,23.86,25.15,34.29,0,10.43,-0.75
KLaL_cation_pi_RCCE_opt_2p1.xyz,Nucleus 4H :,-1.00867,-3.16908,-13.28325,26.9,23.54,27.22,29.95,-59.92,7.67,84.47,84.95,20.74,-57.2,23.54,27.22,29.95,0,6.41,0.15
KLaL_cation_pi_RCCE_opt_2p1.xyz,Nucleus 7H :,2.41198,-2.20461,-16.88088,24.44,29.4,20.84,23.09,-33.1,53.35,94.56,57.59,-27.54,-71.53,20.84,23.09,29.4,0,8.56,-0.47
KLaL_cation_pi_RCCE_opt_2p1.xyz,Nucleus 9H :,3.34765,-1.9455,-17.38756,24.98,22.25,25.61,27.09,15.28,91.14,68.57,10.68,-64.88,-45.86,22.25,25.61,27.09,0,4.84,0.39
KLaL_cation_pi_RCCE_opt_2p1.xyz,Nucleus 11H :,2.39691,-3.29532,-16.81784,24.32,29.43,20.75,22.79,125.73,65.61,32.22,-101.66,-8.91,-40.03,20.75,22.79,29.43,0,8.68,-0.53
KLaL_cation_pi_RCCE_opt_2p1.xyz,Nucleus 14H :,2.4252,-1.57784,-15.50033,26.25,29.57,23.18,26.01,15.79,96.4,71.7,10.17,-72.09,-43.22,23.18,26.01,29.57,0,6.39,-0.11
KLaL_cation_pi_RCCE_opt_2p1.xyz,Nucleus 15H :,2.68791,-0.21348,-15.39687,27.97,34.57,25.45,23.89,133.64,35.87,64.87,-106.89,-2.88,-40.71,23.89,25.45,34.57,0,10.68,-0.71
KLaL_cation_pi_RCCE_opt_2p1.xyz,Nucleus 18H :,2.98968,0.34051,-16.28164,23.79,28.17,22.59,20.61,120.79,89.0,37.73,-98.81,-66.34,-11.0,20.61,22.59,28.17,0,7.56,-0.48
KLaL_cation_pi_RCCE_opt_2p1.xyz,Nucleus 20H :,2.57849,0.43438,-14.17723,24.46,21.06,26.59,25.72,35.72,91.5,106.06,-65.03,-84.69,-10.18,21.06,25.72,26.59,0,5.53,0.68
KLaL_cation_pi_RCCE_opt_2p1.xyz,Nucleus 22H :,2.82822,1.48929,-14.10622,24.06,28.56,23.02,20.61,119.7,24.41,75.85,-96.61,3.0,-54.16,20.61,23.02,28.56,0,7.95,-0.39
KLaL_cation_pi_RCCE_opt_2p1.xyz,Nucleus 29H :,2.14561,-0.24168,-13.06379,27.6,34.24,25.02,23.55,126.9,8.26,32.28,-98.84,22.62,-8.41,23.55,25.02,34.24,0,10.69,-0.72
KLaL_cation_pi_RCCE_opt_2p1.xyz,Nucleus 30H :,2.02109,0.28044,-12.11936,27.02,23.49,27.57,29.99,4.14,91.26,66.11,23.2,-66.27,-37.39,23.49,27.57,29.99,0,6.5,0.25
KLaL_cation_pi_RCCE_opt_2p1.xyz,Nucleus 33H :,1.85668,-1.6211,-13.12241,24.16,29.24,20.61,22.63,125.7,29.37,5.86,-101.9,-3.96,17.41,20.61,22.63,29.24,0,8.63,-0.53
KLaL_cation_pi_RCCE_opt_2p1.xyz,Nucleus 35H :,1.26442,-2.28521,-11.89554,24.63,21.82,25.07,27.0,90.56,-22.58,7.49,-65.28,47.99,15.71,21.82,25.07,27.0,0,5.18,0.25
KLaL_cation_pi_RCCE_opt_2p1.xyz,Nucleus 37H :,1.23472,-3.36627,-12.0504,24.24,29.47,20.61,22.65,-75.56,85.17,16.68,100.71,-62.1,7.82,20.61,22.65,29.47,0,8.86,-0.54
KLaL_cation_pi_RCCE_opt_2p1.xyz,Nucleus 40H :,1.91674,-2.09261,-11.03742,27.14,23.8,30.07,27.54,60.34,-70.54,-16.79,-32.07,94.35,46.14,23.8,27.54,30.07,0,6.27,0.19
KLaL_cation_pi_RCCE_opt_2p1.xyz,Nucleus 41H :,-0.11608,-1.76989,-11.58662,27.56,34.31,24.95,23.41,-112.65,58.07,-30.77,137.32,-24.47,55.18,23.41,24.95,34.31,0,10.9,-0.72
KLaL_cation_pi_RCCE_opt_2p1.xyz,Nucleus 44H :,-0.34726,-0.74504,-10.66249,23.93,28.39,22.82,20.57,-85.07,-31.67,61.5,-36.01,106.58,56.46,20.57,22.82,28.39,0,7.82,-0.43
KLaL_cation_pi_RCCE_opt_2p1.xyz,Nucleus 46H :,0.48968,-0.37756,-10.07614,24.39,20.99,26.54,25.64,69.25,-31.23,-75.0,-43.8,57.71,96.23,20.99,25.64,26.54,0,5.55,0.68
KLaL_cation_pi_RCCE_opt_2p1.xyz,Nucleus 48H :,-1.61623,-0.22215,-10.4753,23.86,28.3,22.7,20.59,64.76,-41.58,-16.44,-38.95,64.49,39.31,20.59,22.7,28.3,0,7.71,-0.45
KLaL_cation_pi_RCCE_opt_2p1.xyz,Nucleus 53H :,-1.78286,0.55559,-9.73755,29.63,37.56,26.35,24.99,15.97,120.06,97.68,9.88,-93.42,-61.29,24.99,26.35,37.56,0,12.57,-0.78
KLaL_cation_pi_RCCE_opt_2p1.xyz,Nucleus 55H :,-2.67282,-0.71904,-11.20753,27.4,20.77,24.71,36.71,-46.41,22.77,70.84,68.17,3.21,-36.41,20.77,24.71,36.71,0,15.94,-0.51
KLaL_cation_pi_RCCE_opt_2p1.xyz,Nucleus 56H :,-3.67284,-0.32653,-11.04041,27.42,20.49,34.77,27.01,-77.07,25.8,71.0,97.75,6.58,-41.78,20.49,27.01,34.77,0,14.28,-0.09
KLaL_cation_pi_RCCE_opt_2p1.xyz,Nucleus 58H :,-2.50759,-1.75085,-12.13052,29.67,37.71,25.07,26.23,11.2,40.31,92.09,-65.83,14.8,-3.56,25.07,26.23,37.71,0,12.64,-0.82
KLaL_cation_pi_RCCE_opt_2p1.xyz,Nucleus 60H :,-1.21105,-2.26606,-12.34584,27.39,36.68,20.78,24.7,80.42,55.32,21.48,-55.47,-29.33,9.73,20.78,24.7,36.68,0,15.9,-0.51
KLaL_cation_pi_RCCE_opt_2p1.xyz,Nucleus 61H :,2.06614,-2.26271,-14.33433,27.39,20.45,34.74,26.97,146.33,16.09,77.46,-125.35,11.78,-44.15,20.45,26.97,34.74,0,14.29,-0.09
KLaL_cation_pi_RCCE_opt_2p1.xyz,Nucleus 62H :,-3.05617,-3.70143,-15.43508,25.81,37.57,17.95,21.91,19.86,39.57,67.64,-10.32,3.01,-42.34,17.95,21.91,37.57,0,19.62,-0.6
KLaL_cation_pi_RCCE_opt_2p1.xyz,Nucleus 63H :,-0.20716,-3.15713,-16.57412,24.72,35.89,23.12,15.14,87.39,44.79,10.65,-53.95,-20.96,6.22,15.14,23.12,35.89,0,20.75,-0.23
KLaL_cation_pi_RCCE_opt_2p1.xyz,Nucleus 64H :,-3.64618,-2.26946,-12.97424,27.82,42.0,19.72,21.75,78.22,-20.23,7.86,-38.07,41.58,14.11,19.72,21.75,42.0,0,22.28,-0.82
KLaL_cation_pi_RCCE_opt_2p1.xyz,Nucleus 65H :,-4.58558,-2.02912,-12.46536,24.36,36.6,22.83,13.64,53.38,32.6,22.1,-34.97,3.09,-3.14,13.64,22.83,36.6,0,22.96,-0.2
KLaL_cation_pi_RCCE_opt_2p1.xyz,Nucleus 2C :,-3.63086,-3.36289,-13.04152,151.59,134.75,163.33,156.7,299.24,169.58,209.65,-144.8,-7.91,-70.98,134.75,156.7,163.33,0,28.58,0.54
KLaL_cation_pi_RCCE_opt_2p1.xyz,Nucleus 5C :,-3.67186,-1.63971,-14.35326,39.98,161.52,4.64,-46.22,312.38,254.71,279.97,-104.56,-303.1,-319.44,-46.22,4.64,161.52,0,207.74,-0.51
KLaL_cation_pi_RCCE_opt_2p1.xyz,Nucleus 6C :,-3.9616,-0.28059,-14.4534,50.58,164.2,-54.45,42.0,319.97,241.59,283.82,-90.93,-363.38,-239.32,-54.45,42.0,164.2,0,218.65,-0.12
KLaL_cation_pi_RCCE_opt_2p1.xyz,Nucleus 8C :,-4.26639,0.26235,-13.56389,58.36,175.01,-53.26,53.34,246.87,282.26,315.55,-88.25,-342.67,-238.67,-53.26,53.34,175.01,0,228.27,-0.07
KLaL_cation_pi_RCCE_opt_2p1.xyz,Nucleus 10C :,-3.86508,0.37227,-15.67146,47.41,164.78,36.72,-59.26,233.48,291.03,323.53,-106.05,-330.67,-269.08,-59.26,36.72,164.78,0,224.04,-0.14
KLaL_cation_pi_RCCE_opt_2p1.xyz,Nucleus 12C :,-4.13466,1.42199,-15.74103,39.4,163.14,-42.14,-2.8,231.22,274.29,297.35,-79.95,-327.71,-277.0,-42.14,-2.8,163.14,0,205.28,-0.62
KLaL_cation_pi_RCCE_opt_2p1.xyz,Nucleus 13C :,-3.41889,-0.29236,-16.78652,152.05,134.16,164.29,157.71,344.55,242.44,298.04,-87.0,-180.34,-161.54,134.16,157.71,164.29,0,30.13,0.56
KLaL_cation_pi_RCCE_opt_2p1.xyz,Nucleus 16C :,-3.30176,0.23385,-17.72915,43.19,160.49,-29.64,-1.27,321.84,251.68,276.06,-92.88,-351.13,-275.99,-29.64,-1.27,160.49,0,190.13,-0.7
KLaL_cation_pi_RCCE_opt_2p1.xyz,Nucleus 17C :,-3.10266,-1.66591,-16.73126,46.07,-59.44,41.85,155.79,338.46,289.1,261.47,-372.27,-249.04,-129.53,-59.44,41.85,155.79,0,215.23,-0.06
KLaL_cation_pi_RCCE_opt_2p1.xyz,Nucleus 19C :,-2.49736,-2.31516,-17.95972,61.58,174.65,55.36,-45.27,333.31,246.8,288.71,-112.71,-275.13,-296.24,-45.27,55.36,174.65,0,219.92,-0.08
KLaL_cation_pi_RCCE_opt_2p1.xyz,Nucleus 21C :,-2.47907,-3.407,-17.86462,49.98,-53.32,47.18,156.09,352.14,268.41,265.25,-388.42,-111.2,-236.22,-53.32,47.18,156.09,0,209.41,-0.04
KLaL_cation_pi_RCCE_opt_2p1.xyz,Nucleus 23C :,-3.14888,-2.11605,-18.81737,47.96,155.07,-29.82,18.62,319.76,268.77,286.86,-119.21,-343.46,-268.85,-29.82,18.62,155.07,0,184.89,-0.48
KLaL_cation_pi_RCCE_opt_2p1.xyz,Nucleus 24C :,-1.12737,-1.77181,-18.26735,18.79,120.35,8.98,-72.97,238.72,317.21,328.05,-145.32,-310.85,-371.46,-72.97,8.98,120.35,0,193.32,-0.15
KLaL_cation_pi_RCCE_opt_2p1.xyz,Nucleus 25C :,-0.91658,-0.74033,-19.18898,20.09,109.39,-62.3,13.19,213.24,290.39,284.03,-112.73,-267.55,-347.11,-62.3,13.19,109.39,0,171.69,-0.12
KLaL_cation_pi_RCCE_opt_2p1.xyz,Nucleus 28C :,-1.75776,-0.38293,-19.77633,152.54,135.41,157.49,164.72,328.22,218.1,274.85,-73.29,-165.94,-124.33,135.41,157.49,164.72,0,29.31,0.51
KLaL_cation_pi_RCCE_opt_2p1.xyz,Nucleus 31C :,0.34176,-0.19192,-19.37488,39.04,163.23,-0.56,-45.55,206.22,284.04,254.5,-62.6,-248.78,-316.26,-45.55,-0.56,163.23,0,208.78,-0.57
KLaL_cation_pi_RCCE_opt_2p1.xyz,Nucleus 32C :,0.49023,0.59144,-20.11041,46.59,164.6,-57.99,33.16,207.51,318.83,268.52,-104.45,-259.27,-291.38,-57.99,33.16,164.6,0,222.59,-0.18
KLaL_cation_pi_RCCE_opt_2p1.xyz,Nucleus 34C :,1.40802,-0.66952,-18.64383,51.95,176.59,-61.18,40.44,322.96,194.72,244.61,-58.46,-341.01,-206.98,-61.18,40.44,176.59,0,237.77,-0.15
KLaL_cation_pi_RCCE_opt_2p1.xyz,Nucleus 36C :,2.40209,-0.26185,-18.80495,46.49,165.27,32.19,-58.0,177.02,323.39,251.57,-60.16,-351.31,-201.05,-58.0,32.19,165.27,0,223.27,-0.19
KLaL_cation_pi_RCCE_opt_2p1.xyz,Nucleus 38C :,1.26331,-1.70665,-17.72336,40.97,162.88,-43.3,3.32,222.21,295.21,324.18,-122.21,-275.55,-320.94,-43.3,3.32,162.88,0,206.18,-0.55
KLaL_cation_pi_RCCE_opt_2p1.xyz,Nucleus 39C :,-0.02275,-2.248,-17.50932,153.56,136.75,165.94,157.98,270.78,142.74,196.59,17.8,-112.76,-54.49,136.75,157.98,165.94,0,29.19,0.45
KLaL_cation_pi_RCCE_opt_2p1.xyz,Nucleus 42C :,-3.29932,-2.31449,-15.5209,46.55,155.46,-31.6,15.78,273.13,228.75,181.61,-46.36,-265.72,-231.76,-31.6,15.78,155.46,0,187.06,-0.49
KLaL_cation_pi_RCCE_opt_2p1.xyz,Nucleus 43C :,-0.634,1.56673,-14.92549,47.97,-56.2,43.81,156.31,161.74,210.73,284.76,-295.36,-166.02,-51.95,-56.2,43.81,156.31,0,212.51,-0.06
KLaL_cation_pi_RCCE_opt_2p1.xyz,Nucleus 45C :,-0.61955,1.07925,-14.04083,60.47,175.06,53.04,-46.7,202.28,225.24,289.05,-30.8,-171.65,-332.71,-46.7,53.04,175.06,0,221.76,-0.1
KLaL_cation_pi_RCCE_opt_2p1.xyz,Nucleus 47C :,-0.34639,3.54638,-16.01492,47.5,-56.52,43.12,155.91,184.18,289.63,224.92,-293.09,-192.1,-71.03,-56.52,43.12,155.91,0,212.43,-0.06
KLaL_cation_pi_RCCE_opt_2p1.xyz,Nucleus 49C :,-0.35573,4.55022,-16.04481,45.77,160.95,-25.88,2.24,225.65,259.19,255.32,-94.28,-239.4,-269.18,-25.88,2.24,160.95,0,186.83,-0.7
KLaL_cation_pi_RCCE_opt_2p1.xyz,Nucleus 50C :,-0.07021,3.05851,-16.85674,20.37,-72.98,13.29,120.79,125.03,222.47,262.06,-33.14,-220.42,-294.9,-72.98,13.29,120.79,0,193.77,-0.11
KLaL_cation_pi_RCCE_opt_2p1.xyz,Nucleus 51C :,-0.64706,2.88323,-14.92389,28.53,-57.49,104.33,38.74,154.49,298.05,270.42,-83.54,-227.21,-326.63,-57.49,38.74,104.33,0,161.82,0.19
KLaL_cation_pi_RCCE_opt_2p1.xyz,Nucleus 57C :,-0.16135,1.09658,-15.68304,28.45,125.61,-26.64,-13.62,232.67,269.98,310.82,-116.36,-279.32,-332.45,-26.64,-13.62,125.61,0,152.25,-0.83
KLaL_cation_pi_RCCE_opt_2p1.xyz,Nucleus 52N :,-0.9608,3.53763,-13.83124,168.13,103.23,188.49,212.66,418.86,345.28,309.78,-275.22,-139.64,-154.67,103.23,188.49,212.66,0,109.43,0.56
KLaL_cation_pi_RCCE_opt_2p1.xyz,Nucleus 54N :,-0.9621,4.54135,-13.79599,179.71,231.93,181.9,125.3,202.79,316.76,372.37,-21.16,-194.0,-137.64,125.3,181.9,231.93,0,106.63,0.06
KLaL_cation_pi_RCCE_opt_2p1.xyz,Nucleus 59N :,-1.16151,3.04139,-12.97253,179.38,231.53,182.13,124.48,405.03,318.56,357.83,-217.51,-231.39,-94.37,124.48,182.13,231.53,0,107.05,0.08
KLaL_cation_pi_RCCE_opt_2p2.xyz,Nucleus 3H :,1.85056,-3.65399,-14.42354,27.77,34.28,25.16,23.87,-79.22,77.79,14.92,105.5,-47.42,11.73,23.87,25.16,34.28,0,10.41,-0.75
KLaL_cation_pi_RCCE_opt_2p2.xyz,Nucleus 4H :,-1.00867,-3.16908,-13.28325,26.9,23.55,27.22,29.94,-59.97,7.49,84.45,85.0,20.93,-57.2,23.55,27.22,29.94,0,6.39,0.15
KLaL_cation_pi_RCCE_opt_2p2.xyz,Nucleus 7H :,2.41198,-2.20461,-16.88088,24.45,29.43,20.85,23.07,-32.81,53.0,94.17,57.29,-27.17,-71.13,20.85,23.07,29.43,0,8.58,-0.48
KLaL_cation_pi_RCCE_opt_2p2.xyz,Nucleus 9H :,3.34765,-1.9455,-17.38756,25.0,22.29,25.59,27.11,15.73,90.89,68.29,10.25,-64.63,-45.53,22.29,25.59,27.11,0,4.82,0.37
KLaL_cation_pi_RCCE_opt_2p2.xyz,Nucleus 11H :,2.39691,-3.29532,-16.81784,24.33,29.46,20.75,22.77,125.51,65.74,32.28,-101.46,-8.97,-40.12,20.75,22.77,29.46,0,8.71,-0.54
KLaL_cation_pi_RCCE_opt_2p2.xyz,Nucleus 14H :,2.4252,-1.57784,-15.50033,26.25,29.57,23.18,26.0,15.74,96.5,71.71,10.21,-72.18,-43.23,23.18,26.0,29.57,0,6.39,-0.12
KLaL_cation_pi_RCCE_opt_2p2.xyz,Nucleus 15H :,2.68791,-0.21348,-15.39687,27.97,34.56,25.46,23.9,133.68,35.85,64.94,-106.92,-2.87,-40.77,23.9,25.46,34.56,0,10.66,-0.71
KLaL_cation_pi_RCCE_opt_2p2.xyz,Nucleus 18H :,2.98968,0.34051,-16.28164,23.79,28.18,22.58,20.62,120.54,89.1,37.72,-98.56,-66.41,-10.99,20.62,22.58,28.18,0,7.56,-0.48
KLaL_cation_pi_RCCE_opt_2p2.xyz,Nucleus 20H :,2.57849,0.43438,-14.17723,24.47,21.07,26.61,25.72,35.73,91.32,106.2,-64.82,-84.82,-10.21,21.07,25.72,26.61,0,5.54,0.68
KLaL_cation_pi_RCCE_opt_2p2.xyz,Nucleus 22H :,2.82822,1.48929,-14.10622,24.07,28.57,23.02,20.63,119.44,24.44,76.05,-96.34,2.96,-54.32,20.63,23.02,28.57,0,7.94,-0.4
KLaL_cation_pi_RCCE_opt_2p2.xyz,Nucleus 29H :,2.14561,-0.24168,-13.06379,27.61,34.23,25.03,23.56,126.86,8.24,32.56,-98.8,22.64,-8.68,23.56,25.03,34.23,0,10.67,-0.73
KLaL_cation_pi_RCCE_opt_2p2.xyz,Nucleus 30H :,2.02109,0.28044,-12.11936,27.02,23.5,27.57,29.99,4.09,91.25,66.33,23.25,-66.27,-37.61,23.5,27.57,29.99,0,6.49,0.25
KLaL_cation_pi_RCCE_opt_2p2.xyz,Nucleus 33H :,1.85668,-1.6211,-13.12241,24.17,29.27,20.61,22.62,125.27,30.08,6.02,-101.48,-4.64,17.24,20.61,22.62,29.27,0,8.66,-0.54
KLaL_cation_pi_RCCE_opt_2p2.xyz,Nucleus 35H :,1.26442,-2.28521,-11.89554,24.64,21.84,25.05,27.02,90.42,-21.72,7.83,-65.17,47.14,15.41,21.84,25.05,27.02,0,5.18,0.24
KLaL_cation_pi_RCCE_opt_2p2.xyz,Nucleus 37H :,1.23472,-3.36627,-12.0504,24.24,29.49,20.6,22.64,-74.53,85.08,16.65,99.68,-62.02,7.87,20.6,22.64,29.49,0,8.89,-0.54
KLaL_cation_pi_RCCE_opt_2p2.xyz,Nucleus 40H :,1.91674,-2.09261,-11.03742,27.14,23.81,30.07,27.54,60.41,-70.56,-16.75,-32.15,94.37,46.09,23.81,27.54,30.07,0,6.26,0.19
KLaL_cation_pi_RCCE_opt_2p2.xyz,Nucleus 41H :,-0.11608,-1.76989,-11.58662,27.56,34.3,24.96,23.42,-112.58,58.08,-30.67,137.25,-24.5,55.09,23.42,24.96,34.3,0,10.88,-0.72
KLaL_cation_pi_RCCE_opt_2p2.xyz,Nucleus 44H :,-0.34726,-0.74504,-10.66249,23.94,28.4,22.82,20.59,-84.76,-31.22,61.54,-36.06,106.26,56.05,20.59,22.82,28.4,0,7.81,-0.43
KLaL_cation_pi_RCCE_opt_2p2.xyz,Nucleus 46H :,0.48968,-0.37756,-10.07614,24.4,21.0,26.56,25.64,69.21,-30.67,-75.16,-43.78,57.17,96.42,21.0,25.64,26.56,0,5.56,0.67
KLaL_cation_pi_RCCE_opt_2p2.xyz,Nucleus 48H :,-1.61623,-0.22215,-10.4753,23.87,28.31,22.69,20.61,64.67,-41.11,-16.53,-38.88,64.0,39.46,20.61,22.69,28.31,0,7.7,-0.46
KLaL_cation_pi_RCCE_opt_2p2.xyz,Nucleus 53H :,-1.78286,0.55559,-9.73755,29.48,37.47,24.79,26.18,16.47,120.19,97.33,9.41,-93.96,-60.99,24.79,26.18,37.47,0,12.68,-0.78
KLaL_cation_pi_RCCE_opt_2p2.xyz,Nucleus 55H :,-2.67282,-0.71904,-11.20753,27.36,20.75,24.68,36.65,-47.21,22.61,70.19,68.92,3.34,-35.78,20.75,24.68,36.65,0,15.9,-0.51
KLaL_cation_pi_RCCE_opt_2p2.xyz,Nucleus 56H :,-3.67284,-0.32653,-11.04041,27.37,20.45,34.68,26.98,-77.61,25.44,70.04,98.26,6.75,-40.75,20.45,26.98,34.68,0,14.23,-0.08
KLaL_cation_pi_RCCE_opt_2p2.xyz,Nucleus 58H :,-2.50759,-1.75085,-12.13052,29.52,37.62,24.84,26.1,11.07,39.81,90.45,-64.18,14.56,-3.16,24.84,26.1,37.62,0,12.78,-0.8
KLaL_cation_pi_RCCE_opt_2p2.xyz,Nucleus 60H :,-1.21105,-2.26606,-12.34584,27.35,36.62,20.75,24.68,79.64,54.72,21.43,-54.63,-28.8,9.7,20.75,24.68,36.62,0,15.87,-0.5
KLaL_cation_pi_RCCE_opt_2p2.xyz,Nucleus 61H :,2.06614,-2.26271,-14.33433,27.33,20.41,34.65,26.94,146.35,16.39,76.76,-125.41,11.49,-43.58,20.41,26.94,34.65,0,14.24,-0.08
KLaL_cation_pi_RCCE_opt_2p2.xyz,Nucleus 62H :,-3.05617,-3.70143,-15.43508,25.81,37.58,17.94,21.91,19.79,39.39,67.62,-10.1,3.1,-42.38,17.94,21.91,37.58,0,19.64,-0.6
KLaL_cation_pi_RCCE_opt_2p2.xyz,Nucleus 63H :,-0.20716,-3.15713,-16.57412,24.72,35.9,23.14,15.13,87.54,45.04,10.56,-54.1,-21.18,6.3,15.13,23.14,35.9,0,20.77,-0.23
KLaL_cation_pi_RCCE_opt_2p2.xyz,Nucleus 64H :,-3.64618,-2.26946,-12.97424,27.83,41.99,19.73,21.76,78.29,-20.25,7.86,-38.14,41.61,14.12,19.73,21.76,41.99,0,22.26,-0.82
KLaL_cation_pi_RCCE_opt_2p2.xyz,Nucleus 65H :,-4.58558,-2.02912,-12.46536,24.36,36.61,22.85,13.62,53.36,32.38,21.7,-35.05,3.51,-2.81,13.62,22.85,36.61,0,22.99,-0.2
KLaL_cation_pi_RCCE_opt_2p2.xyz,Nucleus 2C :,-3.63086,-3.36289,-13.04152,151.58,134.74,163.34,156.67,299.29,169.22,209.19,-144.87,-7.56,-70.53,134.74,156.67,163.34,0,28.6,0.53
KLaL_cation_pi_RCCE_opt_2p2.xyz,Nucleus 5C :,-3.67186,-1.63971,-14.35326,40.05,161.49,4.9,-46.23,312.81,254.47,280.32,-104.71,-303.25,-319.48,-46.23,4.9,161.49,0,207.72,-0.51
KLaL_cation_pi_RCCE_opt_2p2.xyz,Nucleus 6C :,-3.9616,-0.28059,-14.4534,50.54,164.11,-54.55,42.07,320.1,241.1,283.88,-91.12,-363.25,-239.08,-54.55,42.07,164.11,0,218.66,-0.12
KLaL_cation_pi_RCCE_opt_2p2.xyz,Nucleus 8C :,-4.26639,0.26235,-13.56389,58.59,174.83,-52.91,53.86,247.25,281.97,315.19,-88.79,-341.93,-237.9,-52.91,53.86,174.83,0,227.74,-0.06
KLaL_cation_pi_RCCE_opt_2p2.xyz,Nucleus 10C :,-3.86508,0.37227,-15.67146,47.38,164.69,36.8,-59.34,233.12,291.44,323.4,-105.98,-331.1,-268.73,-59.34,36.8,164.69,0,224.03,-0.14
KLaL_cation_pi_RCCE_opt_2p2.xyz,Nucleus 12C :,-4.13466,1.42199,-15.74103,39.46,163.11,-42.17,-2.57,231.14,274.99,296.38,-80.12,-327.53,-276.51,-42.17,-2.57,163.11,0,205.28,-0.61
KLaL_cation_pi_RCCE_opt_2p2.xyz,Nucleus 13C :,-3.41889,-0.29236,-16.78652,152.04,134.15,164.29,157.68,344.78,242.3,298.15,-86.87,-180.56,-161.67,134.15,157.68,164.29,0,30.14,0.56
KLaL_cation_pi_RCCE_opt_2p2.xyz,Nucleus 16C :,-3.30176,0.23385,-17.72915,43.23,160.47,-29.7,-1.08,322.61,251.93,275.53,-93.07,-351.96,-275.34,-29.7,-1.08,160.47,0,190.17,-0.7
KLaL_cation_pi_RCCE_opt_2p2.xyz,Nucleus 17C :,-3.10266,-1.66591,-16.73126,46.09,-59.46,41.99,155.73,338.02,289.28,261.43,-371.81,-248.97,-129.69,-59.46,41.99,155.73,0,215.19,-0.06
KLaL_cation_pi_RCCE_opt_2p2.xyz,Nucleus 19C :,-2.49736,-2.31516,-17.95972,61.61,174.58,55.5,-45.26,332.93,247.07,288.85,-112.83,-274.65,-296.56,-45.26,55.5,174.58,0,219.84,-0.08
KLaL_cation_pi_RCCE_opt_2p2.xyz,Nucleus 21C :,-2.47907,-3.407,-17.86462,50.02,-53.29,47.31,156.03,351.58,268.84,265.21,-388.07,-111.41,-236.11,-53.29,47.31,156.03,0,209.32,-0.04
KLaL_cation_pi_RCCE_opt_2p2.xyz,Nucleus 23C :,-3.14888,-2.11605,-18.81737,48.01,-29.82,18.82,155.04,320.03,268.8,286.63,-119.36,-343.69,-268.35,-29.82,18.82,155.04,0,184.86,-0.47
KLaL_cation_pi_RCCE_opt_2p2.xyz,Nucleus 24C :,-1.12737,-1.77181,-18.26735,18.73,120.33,8.98,-73.12,238.76,317.27,327.98,-145.33,-311.39,-371.1,-73.12,8.98,120.33,0,193.45,-0.15
KLaL_cation_pi_RCCE_opt_2p2.xyz,Nucleus 25C :,-0.91658,-0.74033,-19.18898,20.04,109.37,-62.49,13.23,212.94,290.41,284.28,-112.72,-267.68,-347.13,-62.49,13.23,109.37,0,171.86,-0.12
KLaL_cation_pi_RCCE_opt_2p2.xyz,Nucleus 28C :,-1.75776,-0.38293,-19.77633,152.52,135.4,157.44,164.73,328.24,218.21,274.95,-73.26,-165.97,-124.6,135.4,157.44,164.73,0,29.33,0.5
KLaL_cation_pi_RCCE_opt_2p2.xyz,Nucleus 31C :,0.34176,-0.19192,-19.37488,39.03,163.21,-0.53,-45.58,205.61,284.71,255.09,-62.5,-249.13,-316.68,-45.58,-0.53,163.21,0,208.79,-0.57
KLaL_cation_pi_RCCE_opt_2p2.xyz,Nucleus 32C :,0.49023,0.59144,-20.11041,46.61,164.53,-57.93,33.23,207.53,318.86,268.92,-104.41,-259.79,-291.29,-57.93,33.23,164.53,0,222.46,-0.18
KLaL_cation_pi_RCCE_opt_2p2.xyz,Nucleus 34C :,1.40802,-0.66952,-18.64383,52.07,176.47,-60.95,40.68,322.79,195.74,245.71,-59.04,-341.9,-207.12,-60.95,40.68,176.47,0,237.42,-0.14
KLaL_cation_pi_RCCE_opt_2p2.xyz,Nucleus 36C :,2.40209,-0.26185,-18.80495,46.51,165.2,32.27,-57.93,178.13,322.77,252.28,-60.77,-350.69,-202.18,-57.93,32.27,165.2,0,223.13,-0.19
KLaL_cation_pi_RCCE_opt_2p2.xyz,Nucleus 38C :,1.26331,-1.70665,-17.72336,40.96,162.86,-43.33,3.36,221.95,295.5,324.9,-122.08,-276.03,-321.36,-43.33,3.36,162.86,0,206.19,-0.55
KLaL_cation_pi_RCCE_opt_2p2.xyz,Nucleus 39C :,-0.02275,-2.248,-17.50932,153.54,136.74,165.94,157.93,270.85,142.42,196.53,18.1,-112.86,-54.41,136.74,157.93,165.94,0,29.2,0.45
KLaL_cation_pi_RCCE_opt_2p2.xyz,Nucleus 42C :,-3.29932,-2.31449,-15.5209,46.61,155.44,-31.58,15.97,273.32,228.84,182.49,-46.51,-266.05,-232.26,-31.58,15.97,155.44,0,187.02,-0.49
KLaL_cation_pi_RCCE_opt_2p2.xyz,Nucleus 43C :,-0.634,1.66673,-14.92549,48.02,-56.15,43.97,156.25,162.57,211.17,284.73,-295.48,-167.1,-51.82,-56.15,43.97,156.25,0,212.4,-0.06
KLaL_cation_pi_RCCE_opt_2p2.xyz,Nucleus 45C :,-0.61955,1.17925,-14.04083,60.49,174.99,53.18,-46.69,202.17,226.01,288.71,-30.83,-172.28,-332.29,-46.69,53.18,174.99,0,221.68,-0.1
KLaL_cation_pi_RCCE_opt_2p2.xyz,Nucleus 47C :,-0.34639,3.64638,-16.01492,47.5,-56.56,43.22,155.85,289.38,185.26,224.67,-293.0,-192.87,-70.93,-56.56,43.22,155.85,0,212.41,-0.06
KLaL_cation_pi_RCCE_opt_2p2.xyz,Nucleus 49C :,-0.35573,4.65022,-16.04481,45.8,160.93,-25.96,2.44,224.73,258.94,256.03,-94.28,-239.24,-268.77,-25.96,2.44,160.93,0,186.89,-0.7
KLaL_cation_pi_RCCE_opt_2p2.xyz,Nucleus 50C :,-0.07021,3.15851,-16.85674,20.32,-73.12,13.3,120.77,125.33,222.28,261.74,-33.18,-219.63,-295.59,-73.12,13.3,120.77,0,193.89,-0.11
KLaL_cation_pi_RCCE_opt_2p2.xyz,Nucleus 51C :,-0.64706,2.98323,-14.92389,28.5,-57.59,104.31,38.78,154.35,298.26,270.82,-83.4,-227.3,-327.23,-57.59,38.78,104.31,0,161.9,0.19
KLaL_cation_pi_RCCE_opt_2p2.xyz,Nucleus 57C :,-0.16135,1.19658,-15.68304,28.34,125.46,-26.57,-13.87,232.5,269.56,310.12,-116.14,-279.26,-331.75,-26.57,-13.87,125.46,0,152.03,-0.83
KLaL_cation_pi_RCCE_opt_2p2.xyz,Nucleus 52N :,-0.9608,3.63763,-13.83124,168.5,103.9,187.72,213.89,418.29,344.98,309.92,-273.9,-140.61,-153.17,103.9,187.72,213.89,0,109.99,0.52
KLaL_cation_pi_RCCE_opt_2p2.xyz,Nucleus 54N :,-0.9621,4.64135,-13.79599,179.57,231.85,181.86,125.01,202.58,316.3,371.6,-20.97,-193.66,-137.12,125.01,181.86,231.85,0,106.84,0.06
KLaL_cation_pi_RCCE_opt_2p2.xyz,Nucleus 59N :,-1.16151,3.14139,-12.97253,179.25,231.45,182.09,124.21,404.21,318.6,357.23,-216.68,-231.15,-94.46,124.21,182.09,231.45,0,107.24,0.08
KLaL_cation_pi_RCCE_opt_2p3.xyz,Nucleus 3H :,1.85056,-3.65399,-14.42354,27.78,34.28,25.17,23.88,-79.23,77.78,14.68,105.53,-47.4,11.99,23.88,25.17,34.28,0,10.4,-0.75
KLaL_cation_pi_RCCE_opt_2p3.xyz,Nucleus 4H :,-1.00867,-3.16908,-13.28325,26.91,23.56,27.22,29.94,-59.98,7.32,84.44,85.02,21.11,-57.19,23.56,27.22,29.94,0,6.38,0.15
KLaL_cation_pi_RCCE_opt_2p3.xyz,Nucleus 7H :,2.41198,-2.20461,-16.88088,24.45,29.46,20.85,23.05,-32.6,52.71,93.79,57.06,-26.86,-70.74,20.85,23.05,29.46,0,8.61,-0.49
KLaL_cation_pi_RCCE_opt_2p3.xyz,Nucleus 9H :,3.34765,-1.9455,-17.38756,25.01,22.32,25.58,27.13,16.1,90.68,68.01,9.88,-64.42,-45.21,22.32,25.58,27.13,0,4.81,0.36
KLaL_cation_pi_RCCE_opt_2p3.xyz,Nucleus 11H :,2.39691,-3.29532,-16.81784,24.33,29.48,20.76,22.74,125.32,65.81,32.34,-101.3,-9.03,-40.16,20.76,22.74,29.48,0,8.72,-0.55
KLaL_cation_pi_RCCE_opt_2p3.xyz,Nucleus 14H :,2.4252,-1.57784,-15.50033,26.25,29.57,23.19,25.99,15.7,96.56,71.72,10.25,-72.23,-43.24,23.19,25.99,29.57,0,6.38,-0.12
KLaL_cation_pi_RCCE_opt_2p3.xyz,Nucleus 15H :,2.68791,-0.21348,-15.39687,27.98,34.55,25.47,23.91,133.69,35.83,64.98,-106.91,-2.85,-40.81,23.91,25.47,34.55,0,10.64,-0.71
KLaL_cation_pi_RCCE_opt_2p3.xyz,Nucleus 18H :,2.98968,0.34051,-16.28164,23.8,28.19,22.58,20.64,120.34,89.17,37.73,-98.37,-66.47,-11.0,20.64,22.58,28.19,0,7.55,-0.48
KLaL_cation_pi_RCCE_opt_2p3.xyz,Nucleus 20H :,2.57849,0.43438,-14.17723,24.47,21.08,26.62,25.72,35.75,91.16,106.35,-64.64,-84.96,-10.24,21.08,25.72,26.62,0,5.54,0.68
KLaL_cation_pi_RCCE_opt_2p3.xyz,Nucleus 22H :,2.82822,1.48929,-14.10622,24.08,28.58,23.02,20.64,119.22,24.47,76.23,-96.13,2.92,-54.48,20.64,23.02,28.58,0,7.94,-0.4
KLaL_cation_pi_RCCE_opt_2p3.xyz,Nucleus 29H :,2.14561,-0.24168,-13.06379,27.61,34.23,25.04,23.57,126.81,8.22,32.82,-98.75,22.66,-8.93,23.57,25.04,34.23,0,10.66,-0.72
KLaL_cation_pi_RCCE_opt_2p3.xyz,Nucleus 30H :,2.02109,0.28044,-12.11936,27.02,23.5,27.57,29.98,4.04,91.22,66.54,23.29,-66.24,-37.81,23.5,27.57,29.98,0,6.48,0.25
KLaL_cation_pi_RCCE_opt_2p3.xyz,Nucleus 33H :,1.85668,-1.6211,-13.12241,24.17,29.29,20.6,22.61,124.89,30.77,6.16,-101.12,-5.3,17.09,20.6,22.61,29.29,0,8.69,-0.54
KLaL_cation_pi_RCCE_opt_2p3.xyz,Nucleus 35H :,1.26442,-2.28521,-11.89554,24.64,21.86,25.03,27.04,90.29,-20.86,8.17,-65.06,46.29,15.1,21.86,25.03,27.04,0,5.18,0.23
KLaL_cation_pi_RCCE_opt_2p3.xyz,Nucleus 37H :,1.23472,-3.36627,-12.0504,24.24,29.51,20.59,22.63,-73.52,84.99,16.64,98.66,-61.93,7.9,20.59,22.63,29.51,0,8.92,-0.54
KLaL_cation_pi_RCCE_opt_2p3.xyz,Nucleus 40H :,1.91674,-2.09261,-11.03742,27.14,23.82,30.06,27.54,60.49,-70.56,-16.72,-32.23,94.38,46.06,23.82,27.54,30.06,0,6.24,0.19
KLaL_cation_pi_RCCE_opt_2p3.xyz,Nucleus 41H :,-0.11608,-1.76989,-11.58662,27.56,34.29,24.97,23.43,-112.48,58.1,-30.58,137.16,-24.52,55.0,23.43,24.97,34.29,0,10.86,-0.72
KLaL_cation_pi_RCCE_opt_2p3.xyz,Nucleus 44H :,-0.34726,-0.74504,-10.66249,23.94,28.41,22.82,20.6,-84.47,-30.8,61.58,-36.11,105.96,55.67,20.6,22.82,28.41,0,7.81,-0.43
KLaL_cation_pi_RCCE_opt_2p3.xyz,Nucleus 46H :,0.48968,-0.37756,-10.07614,24.4,21.01,26.57,25.63,69.19,-30.14,-75.34,-43.76,56.66,96.62,21.01,25.63,26.57,0,5.56,0.66
KLaL_cation_pi_RCCE_opt_2p3.xyz,Nucleus 48H :,-1.61623,-0.22215,-10.4753,23.88,28.32,22.69,20.62,64.57,-40.7,-16.62,-38.8,63.56,39.62,20.62,22.69,28.32,0,7.7,-0.46
KLaL_cation_pi_RCCE_opt_2p3.xyz,Nucleus 53H :,-1.78286,0.55559,-9.73755,29.33,37.39,24.55,26.06,16.96,120.28,96.89,8.93,-94.44,-60.63,24.55,26.06,37.39,0,12.84,-0.76
KLaL_cation_pi_RCCE_opt_2p3.xyz,Nucleus 55H :,-2.67282,-0.71904,-11.20753,27.32,20.72,24.66,36.59,-48.01,22.47,69.56,69.67,3.45,-35.18,20.72,24.66,36.59,0,15.87,-0.5
KLaL_cation_pi_RCCE_opt_2p3.xyz,Nucleus 56H :,-3.67284,-0.32653,-11.04041,27.32,20.42,34.6,26.94,-78.11,25.1,69.11,98.72,6.89,-39.75,20.42,26.94,34.6,0,14.18,-0.08
KLaL_cation_pi_RCCE_opt_2p3.xyz,Nucleus 58H :,-2.50759,-1.75085,-12.13052,29.37,37.53,24.56,26.02,11.0,39.34,88.81,-62.54,14.27,-2.78,24.56,26.02,37.53,0,12.97,-0.77
KLaL_cation_pi_RCCE_opt_2p3.xyz,Nucleus 60H :,-1.21105,-2.26606,-12.34584,27.31,36.56,20.73,24.65,78.86,54.14,21.37,-53.8,-28.29,9.67,20.73,24.65,36.56,0,15.83,-0.5
KLaL_cation_pi_RCCE_opt_2p3.xyz,Nucleus 61H :,2.06614,-2.26271,-14.33433,27.28,20.38,34.57,26.9,146.34,16.67,76.06,-125.44,11.22,-43.0,20.38,26.9,34.57,0,14.19,-0.08
KLaL_cation_pi_RCCE_opt_2p3.xyz,Nucleus 62H :,-3.05617,-3.70143,-15.43508,25.81,37.59,17.93,21.91,19.72,39.24,67.6,-42.41,-9.91,3.18,17.93,21.91,37.59,0,19.66,-0.6
KLaL_cation_pi_RCCE_opt_2p3.xyz,Nucleus 63H :,-0.20716,-3.15713,-16.57412,24.73,35.91,23.16,15.12,87.65,45.29,10.52,-54.21,-21.4,6.34,15.12,23.16,35.91,0,20.79,-0.23
KLaL_cation_pi_RCCE_opt_2p3.xyz,Nucleus 64H :,-3.64618,-2.26946,-12.97424,27.83,41.99,19.74,21.77,78.36,-20.26,7.84,-38.2,41.63,14.14,19.74,21.77,41.99,0,22.25,-0.82
KLaL_cation_pi_RCCE_opt_2p3.xyz,Nucleus 65H :,-4.58558,-2.02912,-12.46536,24.37,36.62,22.87,13.61,53.36,32.19,21.32,-35.16,3.91,-2.51,13.61,22.87,36.62,0,23.01,-0.2
KLaL_cation_pi_RCCE_opt_2p3.xyz,Nucleus 2C :,-3.63086,-3.36289,-13.04152,151.57,134.73,163.34,156.64,299.33,168.93,208.77,-144.93,-7.27,-70.11,134.73,156.64,163.34,0,28.61,0.53
KLaL_cation_pi_RCCE_opt_2p3.xyz,Nucleus 5C :,-3.67186,-1.63971,-14.35326,40.13,161.45,5.16,-46.23,313.15,254.33,280.59,-104.92,-303.3,-319.47,-46.23,5.16,161.45,0,207.68,-0.51
KLaL_cation_pi_RCCE_opt_2p3.xyz,Nucleus 6C :,-3.9616,-0.28059,-14.4534,50.49,164.02,-54.67,42.11,240.49,320.22,284.01,-91.23,-363.15,-238.87,-54.67,42.11,164.02,0,218.69,-0.11
KLaL_cation_pi_RCCE_opt_2p3.xyz,Nucleus 8C :,-4.26639,0.26235,-13.56389,58.82,174.65,-52.57,54.39,247.49,281.64,314.92,-89.17,-341.23,-237.19,-52.57,54.39,174.65,0,227.22,-0.06
KLaL_cation_pi_RCCE_opt_2p3.xyz,Nucleus 10C :,-3.86508,0.37227,-15.67146,47.34,164.6,36.85,-59.44,232.85,291.7,323.37,-105.94,-331.55,-268.4,-59.44,36.85,164.6,0,224.04,-0.14
KLaL_cation_pi_RCCE_opt_2p3.xyz,Nucleus 12C :,-4.13466,1.42199,-15.74103,39.52,163.07,-42.18,-2.34,231.11,275.6,295.51,-80.32,-327.36,-276.01,-42.18,-2.34,163.07,0,205.25,-0.61
KLaL_cation_pi_RCCE_opt_2p3.xyz,Nucleus 13C :,-3.41889,-0.29236,-16.78652,152.03,134.15,164.29,157.65,344.92,242.18,298.24,-86.74,-180.71,-161.8,134.15,157.65,164.29,0,30.14,0.56
KLaL_cation_pi_RCCE_opt_2p3.xyz,Nucleus 16C :,-3.30176,0.23385,-17.72915,43.27,160.45,-29.74,-0.91,323.24,252.14,275.23,-93.26,-352.65,-274.91,-29.74,-0.91,160.45,0,190.19,-0.7
KLaL_cation_pi_RCCE_opt_2p3.xyz,Nucleus 17C :,-3.10266,-1.66591,-16.73126,46.11,-59.47,42.12,155.68,337.67,289.45,261.46,-371.51,-248.94,-129.81,-59.47,42.12,155.68,0,215.15,-0.06
KLaL_cation_pi_RCCE_opt_2p3.xyz,Nucleus 19C :,-2.49736,-2.31516,-17.95972,61.63,174.51,55.63,-45.25,332.67,247.34,288.93,-112.9,-274.28,-296.87,-45.25,55.63,174.51,0,219.76,-0.08
KLaL_cation_pi_RCCE_opt_2p3.xyz,Nucleus 21C :,-2.47907,-3.407,-17.86462,50.05,-53.27,47.44,155.97,351.15,269.31,265.16,-387.86,-111.58,-236.04,-53.27,47.44,155.97,0,209.24,-0.04
KLaL_cation_pi_RCCE_opt_2p3.xyz,Nucleus 23C :,-3.14888,-2.11605,-18.81737,48.07,-29.81,19.01,155.02,320.28,268.84,286.49,-119.53,-343.88,-267.98,-29.81,19.01,155.02,0,184.83,-0.47
KLaL_cation_pi_RCCE_opt_2p3.xyz,Nucleus 24C :,-1.12737,-1.77181,-18.26735,18.68,120.3,8.98,-73.25,238.76,317.31,328.01,-145.3,-311.86,-370.9,-73.25,8.98,120.3,0,193.55,-0.15
KLaL_cation_pi_RCCE_opt_2p3.xyz,Nucleus 25C :,-0.91658,-0.74033,-19.18898,19.99,109.34,-62.65,13.27,212.6,290.41,284.47,-112.62,-267.78,-347.12,-62.65,13.27,109.34,0,171.99,-0.12
KLaL_cation_pi_RCCE_opt_2p3.xyz,Nucleus 28C :,-1.75776,-0.38293,-19.77633,152.51,135.39,157.41,164.73,328.27,218.34,275.02,-73.24,-166.0,-124.85,135.39,157.41,164.73,0,29.34,0.5
KLaL_cation_pi_RCCE_opt_2p3.xyz,Nucleus 31C :,0.34176,-0.19192,-19.37488,39.03,163.19,-0.49,-45.6,205.05,285.39,255.58,-62.42,-249.4,-317.09,-45.6,-0.49,163.19,0,208.79,-0.57
KLaL_cation_pi_RCCE_opt_2p3.xyz,Nucleus 32C :,0.49023,0.59144,-20.11041,46.62,164.47,-57.91,33.29,207.54,318.97,269.21,-104.41,-260.22,-291.24,-57.91,33.29,164.47,0,222.38,-0.18
KLaL_cation_pi_RCCE_opt_2p3.xyz,Nucleus 34C :,1.40802,-0.66952,-18.64383,52.18,176.35,-60.73,40.93,322.64,196.79,246.72,-59.67,-342.7,-207.23,-60.73,40.93,176.35,0,237.08,-0.14
KLaL_cation_pi_RCCE_opt_2p3.xyz,Nucleus 36C :,2.40209,-0.26185,-18.80495,46.53,165.13,32.34,-57.89,179.19,322.07,253.0,-61.29,-350.07,-203.3,-57.89,32.34,165.13,0,223.02,-0.19
KLaL_cation_pi_RCCE_opt_2p3.xyz,Nucleus 38C :,1.26331,-1.70665,-17.72336,40.96,162.83,-43.35,3.41,221.66,295.73,325.63,-121.86,-276.48,-321.8,-43.35,3.41,162.83,0,206.18,-0.55
KLaL_cation_pi_RCCE_opt_2p3.xyz,Nucleus 39C :,-0.02275,-2.248,-17.50932,153.53,136.74,165.95,157.89,270.95,142.2,196.39,18.32,-113.01,-54.26,136.74,157.89,165.95,0,29.21,0.45
KLaL_cation_pi_RCCE_opt_2p3.xyz,Nucleus 42C :,-3.29932,-2.31449,-15.5209,46.67,155.41,-31.56,16.16,273.51,228.86,183.37,-46.64,-266.3,-232.78,-31.56,16.16,155.41,0,186.97,-0.49
KLaL_cation_pi_RCCE_opt_2p3.xyz,Nucleus 43C :,-0.634,1.76673,-14.92549,48.07,-56.11,44.12,156.2,163.34,211.63,284.69,-295.61,-168.05,-51.78,-56.11,44.12,156.2,0,212.31,-0.06
KLaL_cation_pi_RCCE_opt_2p3.xyz,Nucleus 45C :,-0.61955,1.27925,-14.04083,60.52,174.92,53.32,-46.68,202.0,226.66,288.37,-30.82,-172.79,-331.87,-46.68,53.32,174.92,0,221.6,-0.1
KLaL_cation_pi_RCCE_opt_2p3.xyz,Nucleus 47C :,-0.34639,3.74638,-16.01492,47.51,-56.6,43.32,155.8,289.09,186.18,224.41,-292.71,-193.57,-70.88,-56.6,43.32,155.8,0,212.4,-0.06
KLaL_cation_pi_RCCE_opt_2p3.xyz,Nucleus 49C :,-0.35573,4.75022,-16.04481,45.84,160.91,-26.02,2.62,223.92,256.6,258.76,-94.27,-238.84,-268.65,-26.02,2.62,160.91,0,186.93,-0.69
KLaL_cation_pi_RCCE_opt_2p3.xyz,Nucleus 50C :,-0.07021,3.25851,-16.85674,20.27,-73.25,13.31,120.75,125.67,222.02,261.53,-33.3,-218.95,-296.17,-73.25,13.31,120.75,0,194.0,-0.11
KLaL_cation_pi_RCCE_opt_2p3.xyz,Nucleus 51C :,-0.64706,3.08323,-14.92389,28.47,-57.69,104.29,38.82,154.16,298.44,271.23,-83.17,-227.37,-327.86,-57.69,38.82,104.29,0,161.98,0.19
KLaL_cation_pi_RCCE_opt_2p3.xyz,Nucleus 57C :,-0.16135,1.29658,-15.68304,28.23,125.33,-26.51,-14.13,232.32,269.16,309.44,-115.92,-279.24,-331.08,-26.51,-14.13,125.33,0,151.84,-0.84
KLaL_cation_pi_RCCE_opt_2p3.xyz,Nucleus 52N :,-0.9608,3.73763,-13.83124,168.93,104.61,187.02,215.17,417.64,344.67,310.08,-272.45,-141.5,-151.65,104.61,187.02,215.17,0,110.56,0.49
KLaL_cation_pi_RCCE_opt_2p3.xyz,Nucleus 54N :,-0.9621,4.74135,-13.79599,179.43,231.75,181.83,124.71,202.4,315.84,370.84,-20.82,-193.37,-136.61,124.71,181.83,231.75,0,107.04,0.07
KLaL_cation_pi_RCCE_opt_2p3.xyz,Nucleus 59N :,-1.16151,3.24139,-12.97253,179.11,231.35,182.06,123.91,403.38,318.64,356.62,-215.83,-230.92,-94.57,123.91,182.06,231.35,0,107.44,0.08
KLaL_cation_pi_RCCE_opt_2p4.xyz,Nucleus 3H :,1.85056,-3.65399,-14.42354,27.78,34.27,25.18,23.89,-79.25,77.76,14.45,105.55,-47.39,12.22,23.89,25.18,34.27,0,10.38,-0.75
KLaL_cation_pi_RCCE_opt_2p4.xyz,Nucleus 4H :,-1.00867,-3.16908,-13.28325,26.91,23.57,27.21,29.94,-59.95,7.14,84.42,85.0,21.3,-57.18,23.57,27.21,29.94,0,6.37,0.14
KLaL_cation_pi_RCCE_opt_2p4.xyz,Nucleus 7H :,2.41198,-2.20461,-16.88088,24.46,29.49,20.85,23.03,-32.5,52.47,93.41,56.95,-26.61,-70.35,20.85,23.03,29.49,0,8.64,-0.5
KLaL_cation_pi_RCCE_opt_2p4.xyz,Nucleus 9H :,3.34765,-1.9455,-17.38756,25.03,22.35,25.57,27.16,16.39,90.48,67.74,9.59,-64.23,-44.89,22.35,25.57,27.16,0,4.81,0.34
KLaL_cation_pi_RCCE_opt_2p4.xyz,Nucleus 11H :,2.39691,-3.29532,-16.81784,24.33,29.51,20.76,22.72,125.2,65.83,32.39,-101.19,-9.07,-40.16,20.76,22.72,29.51,0,8.75,-0.55
KLaL_cation_pi_RCCE_opt_2p4.xyz,Nucleus 14H :,2.4252,-1.57784,-15.50033,26.25,29.57,23.2,25.99,15.67,96.61,71.72,10.27,-72.27,-43.23,23.2,25.99,29.57,0,6.37,-0.12
KLaL_cation_pi_RCCE_opt_2p4.xyz,Nucleus 15H :,2.68791,-0.21348,-15.39687,27.98,34.55,25.48,23.92,133.7,35.82,65.0,-106.92,-2.85,-40.82,23.92,25.48,34.55,0,10.63,-0.71
KLaL_cation_pi_RCCE_opt_2p4.xyz,Nucleus 18H :,2.98968,0.34051,-16.28164,23.81,28.2,22.57,20.65,120.21,89.21,37.75,-98.23,-66.49,-11.01,20.65,22.57,28.2,0,7.55,-0.49
KLaL_cation_pi_RCCE_opt_2p4.xyz,Nucleus 20H :,2.57849,0.43438,-14.17723,24.48,21.09,26.64,25.71,35.77,91.01,106.49,-64.47,-85.09,-10.27,21.09,25.71,26.64,0,5.55,0.66
KLaL_cation_pi_RCCE_opt_2p4.xyz,Nucleus 22H :,2.82822,1.48929,-14.10622,24.09,28.59,23.02,20.65,119.02,24.5,76.41,2.89,-95.93,-54.63,20.65,23.02,28.59,0,7.94,-0.4
KLaL_cation_pi_RCCE_opt_2p4.xyz,Nucleus 29H :,2.14561,-0.24168,-13.06379,27.62,34.22,25.05,23.58,126.76,8.21,33.06,-98.7,22.68,-9.17,23.58,25.05,34.22,0,10.64,-0.72
KLaL_cation_pi_RCCE_opt_2p4.xyz,Nucleus 30H :,2.02109,0.28044,-12.11936,27.02,23.51,27.57,29.98,4.02,91.21,66.72,23.32,-66.23,-37.98,23.51,27.57,29.98,0,6.47,0.26
KLaL_cation_pi_RCCE_opt_2p4.xyz,Nucleus 33H :,1.85668,-1.6211,-13.12241,24.17,29.31,20.59,22.6,124.53,31.43,6.3,-100.78,-5.93,16.95,20.59,22.6,29.31,0,8.72,-0.54
KLaL_cation_pi_RCCE_opt_2p4.xyz,Nucleus 35H :,1.26442,-2.28521,-11.89554,24.65,21.88,25.02,27.06,90.16,-20.04,8.51,-64.95,45.48,14.79,21.88,25.02,27.06,0,5.18,0.21
KLaL_cation_pi_RCCE_opt_2p4.xyz,Nucleus 37H :,1.23472,-3.36627,-12.0504,24.25,29.54,20.58,22.63,-72.54,84.91,16.66,97.67,-61.85,7.9,20.58,22.63,29.54,0,8.96,-0.54
KLaL_cation_pi_RCCE_opt_2p4.xyz,Nucleus 40H :,1.91674,-2.09261,-11.03742,27.14,23.82,30.06,27.54,60.56,-70.53,-16.65,-32.32,94.36,46.0,23.82,27.54,30.06,0,6.24,0.19
KLaL_cation_pi_RCCE_opt_2p4.xyz,Nucleus 41H :,-0.11608,-1.76989,-11.58662,27.57,34.29,24.98,23.43,-112.4,58.13,-30.47,137.1,-24.55,54.9,23.43,24.98,34.29,0,10.86,-0.72
KLaL_cation_pi_RCCE_opt_2p4.xyz,Nucleus 44H :,-0.34726,-0.74504,-10.66249,23.95,28.42,22.82,20.62,-84.2,-30.4,61.63,-36.17,105.68,55.32,20.62,22.82,28.42,0,7.8,-0.43
KLaL_cation_pi_RCCE_opt_2p4.xyz,Nucleus 46H :,0.48968,-0.37756,-10.07614,24.41,21.02,26.59,25.63,69.15,-29.68,-75.49,-43.74,56.21,96.79,21.02,25.63,26.59,0,5.57,0.66
KLaL_cation_pi_RCCE_opt_2p4.xyz,Nucleus 48H :,-1.61623,-0.22215,-10.4753,23.88,28.33,22.68,20.63,64.46,-40.43,-16.7,-38.71,63.25,39.77,20.63,22.68,28.33,0,7.7,-0.47
KLaL_cation_pi_RCCE_opt_2p4.xyz,Nucleus 53H :,-1.78286,0.55559,-9.73755,29.19,37.31,24.28,25.97,17.45,120.34,96.37,8.44,-94.86,-60.18,24.28,25.97,37.31,0,13.03,-0.74
KLaL_cation_pi_RCCE_opt_2p4.xyz,Nucleus 55H :,-2.67282,-0.71904,-11.20753,27.29,20.7,24.63,36.53,-48.81,22.35,68.94,70.42,3.55,-34.59,20.7,24.63,36.53,0,15.83,-0.5
KLaL_cation_pi_RCCE_opt_2p4.xyz,Nucleus 56H :,-3.67284,-0.32653,-11.04041,27.27,20.39,34.53,26.9,-78.58,24.8,68.2,99.16,7.01,-38.78,20.39,26.9,34.53,0,14.14,-0.08
KLaL_cation_pi_RCCE_opt_2p4.xyz,Nucleus 58H :,-2.50759,-1.75085,-12.13052,29.23,37.44,24.27,25.97,10.98,38.91,87.16,-60.89,13.94,-2.42,24.27,25.97,37.44,0,13.17,-0.74
KLaL_cation_pi_RCCE_opt_2p4.xyz,Nucleus 60H :,-1.21105,-2.26606,-12.34584,27.28,36.5,20.71,24.63,78.09,53.57,21.31,-52.98,-27.79,9.65,20.71,24.63,36.5,0,15.79,-0.5
KLaL_cation_pi_RCCE_opt_2p4.xyz,Nucleus 61H :,2.06614,-2.26271,-14.33433,27.24,20.35,34.5,26.86,146.3,16.94,75.35,-125.42,10.96,-42.41,20.35,26.86,34.5,0,14.15,-0.08
KLaL_cation_pi_RCCE_opt_2p4.xyz,Nucleus 62H :,-3.05617,-3.70143,-15.43508,25.81,37.6,17.92,21.91,19.63,39.12,67.6,-42.45,-9.75,3.27,17.92,21.91,37.6,0,19.68,-0.59
KLaL_cation_pi_RCCE_opt_2p4.xyz,Nucleus 63H :,-0.20716,-3.15713,-16.57412,24.74,35.92,23.18,15.11,87.73,45.54,10.47,-54.29,-21.61,6.38,15.11,23.18,35.92,0,20.81,-0.22
KLaL_cation_pi_RCCE_opt_2p4.xyz,Nucleus 64H :,-3.64618,-2.26946,-12.97424,27.84,41.98,19.75,21.78,78.41,-20.29,7.87,-38.26,41.67,14.11,19.75,21.78,41.98,0,22.23,-0.82
KLaL_cation_pi_RCCE_opt_2p4.xyz,Nucleus 65H :,-4.58558,-2.02912,-12.46536,24.38,36.64,22.89,13.6,53.31,32.02,21.02,-35.21,4.25,-2.27,13.6,22.89,36.64,0,23.04,-0.19
KLaL_cation_pi_RCCE_opt_2p4.xyz,Nucleus 2C :,-3.63086,-3.36289,-13.04152,151.56,134.73,163.34,156.61,299.34,168.64,208.35,-144.96,-6.98,-69.71,134.73,156.61,163.34,0,28.61,0.53
KLaL_cation_pi_RCCE_opt_2p4.xyz,Nucleus 5C :,-3.67186,-1.63971,-14.35326,40.21,161.41,5.43,-46.2,313.45,254.35,280.79,-105.19,-303.31,-319.45,-46.2,5.43,161.41,0,207.61,-0.5
KLaL_cation_pi_RCCE_opt_2p4.xyz,Nucleus 6C :,-3.9616,-0.28059,-14.4534,50.42,163.94,-54.81,42.13,239.68,320.27,284.19,-91.09,-363.07,-238.71,-54.81,42.13,163.94,0,218.75,-0.11
KLaL_cation_pi_RCCE_opt_2p4.xyz,Nucleus 8C :,-4.26639,0.26235,-13.56389,59.05,174.47,-52.26,54.93,247.68,281.33,314.69,-89.49,-340.56,-236.5,-52.26,54.93,174.47,0,226.73,-0.05
KLaL_cation_pi_RCCE_opt_2p4.xyz,Nucleus 10C :,-3.86508,0.37227,-15.67146,47.28,164.52,36.89,-59.56,232.68,291.73,323.43,-105.91,-332.01,-268.07,-59.56,36.89,164.52,0,224.08,-0.14
KLaL_cation_pi_RCCE_opt_2p4.xyz,Nucleus 12C :,-4.13466,1.42199,-15.74103,39.58,163.03,-42.18,-2.1,231.12,276.16,294.61,-80.53,-327.19,-275.42,-42.18,-2.1,163.03,0,205.21,-0.61
KLaL_cation_pi_RCCE_opt_2p4.xyz,Nucleus 13C :,-3.41889,-0.29236,-16.78652,152.02,134.16,164.29,157.62,345.08,242.05,298.3,-86.61,-180.87,-161.89,134.16,157.62,164.29,0,30.13,0.56
KLaL_cation_pi_RCCE_opt_2p4.xyz,Nucleus 16C :,-3.30176,0.23385,-17.72915,43.3,160.43,-29.78,-0.74,323.72,252.33,275.07,-93.43,-353.17,-274.6,-29.78,-0.74,160.43,0,190.21,-0.69
KLaL_cation_pi_RCCE_opt_2p4.xyz,Nucleus 17C :,-3.10266,-1.66591,-16.73126,46.12,-59.49,42.24,155.62,337.43,289.62,261.55,-371.38,-248.94,-129.9,-59.49,42.24,155.62,0,215.11,-0.05
KLaL_cation_pi_RCCE_opt_2p4.xyz,Nucleus 19C :,-2.49736,-2.31516,-17.95972,61.65,174.44,55.76,-45.25,332.46,247.64,289.01,-112.97,-273.98,-297.21,-45.25,55.76,174.44,0,219.69,-0.08
KLaL_cation_pi_RCCE_opt_2p4.xyz,Nucleus 21C :,-2.47907,-3.407,-17.86462,50.08,-53.25,47.56,155.92,350.78,269.77,265.07,-387.69,-111.69,-236.02,-53.25,47.56,155.92,0,209.17,-0.04
KLaL_cation_pi_RCCE_opt_2p4.xyz,Nucleus 23C :,-3.14888,-2.11605,-18.81737,48.13,-29.79,19.2,154.99,320.48,268.85,286.43,-119.67,-344.02,-267.67,-29.79,19.2,154.99,0,184.78,-0.47
KLaL_cation_pi_RCCE_opt_2p4.xyz,Nucleus 24C :,-1.12737,-1.77181,-18.26735,18.63,120.28,8.99,-73.37,238.7,317.33,328.11,-145.22,-312.22,-370.8,-73.37,8.99,120.28,0,193.65,-0.15
KLaL_cation_pi_RCCE_opt_2p4.xyz,Nucleus 25C :,-0.91658,-0.74033,-19.18898,19.95,109.32,-62.8,13.32,212.44,290.47,284.51,-112.63,-267.85,-347.1,-62.8,13.32,109.32,0,172.12,-0.12
KLaL_cation_pi_RCCE_opt_2p4.xyz,Nucleus 28C :,-1.75776,-0.38293,-19.77633,152.5,135.38,157.37,164.74,328.27,218.43,275.09,-73.22,-166.02,-125.05,135.38,157.37,164.74,0,29.36,0.5
KLaL_cation_pi_RCCE_opt_2p4.xyz,Nucleus 31C :,0.34176,-0.19192,-19.37488,39.04,163.17,-0.44,-45.62,204.47,286.09,256.05,-62.28,-249.67,-317.55,-45.62,-0.44,163.17,0,208.79,-0.57
KLaL_cation_pi_RCCE_opt_2p4.xyz,Nucleus 32C :,0.49023,0.59144,-20.11041,46.62,164.41,-57.9,33.34,207.63,319.15,269.44,-104.55,-260.59,-291.22,-57.9,33.34,164.41,0,222.31,-0.18
KLaL_cation_pi_RCCE_opt_2p4.xyz,Nucleus 34C :,1.40802,-0.66952,-18.64383,52.3,176.23,-60.52,41.19,322.47,197.79,247.58,-60.25,-343.38,-207.3,-60.52,41.19,176.23,0,236.75,-0.14
KLaL_cation_pi_RCCE_opt_2p4.xyz,Nucleus 36C :,2.40209,-0.26185,-18.80495,46.54,165.07,32.41,-57.87,180.16,321.3,253.73,-61.68,-349.5,-204.41,-57.87,32.41,165.07,0,222.94,-0.19
KLaL_cation_pi_RCCE_opt_2p4.xyz,Nucleus 38C :,1.26331,-1.70665,-17.72336,40.97,162.81,-43.37,3.47,221.31,295.85,326.47,-121.5,-276.88,-322.34,-43.37,3.47,162.81,0,206.18,-0.55
KLaL_cation_pi_RCCE_opt_2p4.xyz,Nucleus 39C :,-0.02275,-2.248,-17.50932,153.52,136.74,165.96,157.85,271.03,141.95,196.38,18.56,-113.12,-54.24,136.74,157.85,165.96,0,29.22,0.44
KLaL_cation_pi_RCCE_opt_2p4.xyz,Nucleus 42C :,-3.29932,-2.31449,-15.5209,46.73,155.39,-31.54,16.34,273.73,228.91,184.14,-46.71,-266.55,-233.32,-31.54,16.34,155.39,0,186.93,-0.49
KLaL_cation_pi_RCCE_opt_2p4.xyz,Nucleus 43C :,-0.634,1.86673,-14.92549,48.12,-56.06,44.27,156.14,163.94,212.1,284.62,-295.72,-168.87,-51.73,-56.06,44.27,156.14,0,212.2,-0.05
KLaL_cation_pi_RCCE_opt_2p4.xyz,Nucleus 45C :,-0.61955,1.37925,-14.04083,60.54,174.86,53.44,-46.67,201.88,227.13,288.01,-30.84,-173.15,-331.4,-46.67,53.44,174.86,0,221.53,-0.1
KLaL_cation_pi_RCCE_opt_2p4.xyz,Nucleus 47C :,-0.34639,3.84638,-16.01492,47.5,-56.64,43.41,155.74,288.73,186.7,224.15,-292.19,-194.04,-70.84,-56.64,43.41,155.74,0,212.38,-0.06
KLaL_cation_pi_RCCE_opt_2p4.xyz,Nucleus 49C :,-0.35573,4.85022,-16.04481,45.87,160.89,-26.07,2.79,223.21,256.89,258.68,-94.32,-238.28,-268.56,-26.07,2.79,160.89,0,186.96,-0.69
KLaL_cation_pi_RCCE_opt_2p4.xyz,Nucleus 50C :,-0.07021,3.35851,-16.85674,20.23,-73.36,13.32,120.73,126.02,221.68,261.45,-33.4,-218.39,-296.68,-73.36,13.32,120.73,0,194.09,-0.11
KLaL_cation_pi_RCCE_opt_2p4.xyz,Nucleus 51C :,-0.64706,3.18323,-14.92389,28.45,-57.78,104.27,38.86,154.0,298.64,271.71,-83.03,-227.45,-328.52,-57.78,38.86,104.27,0,162.05,0.19
KLaL_cation_pi_RCCE_opt_2p4.xyz,Nucleus 57C :,-0.16135,1.39658,-15.68304,28.12,125.21,-26.46,-14.4,232.15,268.81,308.76,-115.68,-279.26,-330.42,-26.46,-14.4,125.21,0,151.67,-0.84
KLaL_cation_pi_RCCE_opt_2p4.xyz,Nucleus 52N :,-0.9608,3.83763,-13.83124,169.4,105.36,186.4,216.45,416.91,344.32,310.29,-270.87,-142.33,-150.11,105.36,186.4,216.45,0,111.09,0.46
KLaL_cation_pi_RCCE_opt_2p4.xyz,Nucleus 54N :,-0.9621,4.84135,-13.79599,179.27,231.64,181.8,124.38,202.24,315.41,370.09,-20.68,-193.13,-136.12,124.38,181.8,231.64,0,107.26,0.07
KLaL_cation_pi_RCCE_opt_2p4.xyz,Nucleus 59N :,-1.16151,3.34139,-12.97253,178.96,231.24,182.04,123.6,402.54,318.68,356.01,-214.97,-230.68,-94.69,123.6,182.04,231.24,0,107.64,0.09
KLaL_cation_pi_RCCE_opt_2p5.xyz,Nucleus 3H :,1.85056,-3.65399,-14.42354,27.77,34.26,25.18,23.86,-79.25,77.74,14.25,105.54,-47.38,12.4,23.86,25.18,34.26,0,10.4,-0.75
KLaL_cation_pi_RCCE_opt_2p5.xyz,Nucleus 4H :,-1.00867,-3.16908,-13.28325,26.9,23.57,27.21,29.92,-59.89,6.99,84.42,84.92,21.42,-57.17,23.57,27.21,29.92,0,6.35,0.15
KLaL_cation_pi_RCCE_opt_2p5.xyz,Nucleus 7H :,2.41198,-2.20461,-16.88088,24.46,29.51,20.83,23.03,-32.37,52.21,93.03,56.79,-26.34,-69.96,20.83,23.03,29.51,0,8.68,-0.49
KLaL_cation_pi_RCCE_opt_2p5.xyz,Nucleus 9H :,3.34765,-1.9455,-17.38756,25.04,22.38,25.57,27.18,16.67,90.27,67.49,9.32,-64.01,-44.61,22.38,25.57,27.18,0,4.8,0.33
KLaL_cation_pi_RCCE_opt_2p5.xyz,Nucleus 11H :,2.39691,-3.29532,-16.81784,24.35,29.55,20.78,22.71,125.06,65.84,32.45,-101.05,-9.13,-40.13,20.78,22.71,29.55,0,8.77,-0.56
KLaL_cation_pi_RCCE_opt_2p5.xyz,Nucleus 14H :,2.4252,-1.57784,-15.50033,26.26,29.59,23.23,25.97,15.64,96.64,71.68,10.28,-72.28,-43.17,23.23,25.97,29.59,0,6.36,-0.14
KLaL_cation_pi_RCCE_opt_2p5.xyz,Nucleus 15H :,2.68791,-0.21348,-15.39687,28.0,34.54,25.5,23.95,133.7,35.82,64.97,-106.89,-2.85,-40.77,23.95,25.5,34.54,0,10.59,-0.71
KLaL_cation_pi_RCCE_opt_2p5.xyz,Nucleus 18H :,2.98968,0.34051,-16.28164,23.83,28.21,22.58,20.69,120.07,89.23,37.76,-98.08,-66.48,-11.03,20.69,22.58,28.21,0,7.52,-0.5
KLaL_cation_pi_RCCE_opt_2p5.xyz,Nucleus 20H :,2.57849,0.43438,-14.17723,24.49,21.11,26.66,25.71,35.8,90.85,106.63,-64.29,-85.2,-10.3,21.11,25.71,26.66,0,5.55,0.66
KLaL_cation_pi_RCCE_opt_2p5.xyz,Nucleus 22H :,2.82822,1.48929,-14.10622,24.1,28.6,23.03,20.67,118.81,24.54,76.58,2.85,-95.7,-54.76,20.67,23.03,28.6,0,7.93,-0.4
KLaL_cation_pi_RCCE_opt_2p5.xyz,Nucleus 29H :,2.14561,-0.24168,-13.06379,27.63,34.22,25.06,23.6,126.69,8.22,33.28,-98.61,22.67,-9.37,23.6,25.06,34.22,0,10.62,-0.73
KLaL_cation_pi_RCCE_opt_2p5.xyz,Nucleus 30H :,2.02109,0.28044,-12.11936,27.02,23.53,27.56,29.98,3.99,91.18,66.86,23.34,-66.19,-38.11,23.53,27.56,29.98,0,6.45,0.25
KLaL_cation_pi_RCCE_opt_2p5.xyz,Nucleus 33H :,1.85668,-1.6211,-13.12241,24.18,29.34,20.59,22.6,124.18,32.08,6.43,-100.42,-6.55,16.82,20.59,22.6,29.34,0,8.75,-0.54
KLaL_cation_pi_RCCE_opt_2p5.xyz,Nucleus 35H :,1.26442,-2.28521,-11.89554,24.66,21.88,25.01,27.08,90.03,-19.23,8.83,-64.84,44.7,14.5,21.88,25.01,27.08,0,5.2,0.2
KLaL_cation_pi_RCCE_opt_2p5.xyz,Nucleus 37H :,1.23472,-3.36627,-12.0504,24.24,29.56,20.54,22.62,-71.52,84.83,16.72,96.63,-61.78,7.83,20.54,22.62,29.56,0,9.02,-0.54
KLaL_cation_pi_RCCE_opt_2p5.xyz,Nucleus 40H :,1.91674,-2.09261,-11.03742,27.13,23.81,30.05,27.54,60.62,-70.48,-16.55,-32.38,94.3,45.89,23.81,27.54,30.05,0,6.24,0.2
KLaL_cation_pi_RCCE_opt_2p5.xyz,Nucleus 41H :,-0.11608,-1.76989,-11.58662,27.57,34.28,24.98,23.46,-112.31,58.14,-30.29,137.01,-24.58,54.74,23.46,24.98,34.28,0,10.82,-0.72
KLaL_cation_pi_RCCE_opt_2p5.xyz,Nucleus 44H :,-0.34726,-0.74504,-10.66249,23.95,28.44,22.82,20.6,-83.91,-30.02,61.69,-36.24,105.36,54.97,20.6,22.82,28.44,0,7.84,-0.43
KLaL_cation_pi_RCCE_opt_2p5.xyz,Nucleus 46H :,0.48968,-0.37756,-10.07614,24.42,21.02,26.6,25.63,69.11,-29.24,-75.64,-43.71,55.78,96.94,21.02,25.63,26.6,0,5.58,0.65
KLaL_cation_pi_RCCE_opt_2p5.xyz,Nucleus 48H :,-1.61623,-0.22215,-10.4753,23.88,28.35,22.68,20.62,64.36,-40.19,-16.81,-38.62,62.99,39.93,20.62,22.68,28.35,0,7.73,-0.47
KLaL_cation_pi_RCCE_opt_2p5.xyz,Nucleus 53H :,-1.78286,0.55559,-9.73755,29.05,37.25,24.0,25.91,17.93,120.38,95.78,7.96,-95.25,-59.64,24.0,25.91,37.25,0,13.25,-0.71
KLaL_cation_pi_RCCE_opt_2p5.xyz,Nucleus 55H :,-2.67282,-0.71904,-11.20753,27.26,20.69,24.61,36.47,-49.59,22.24,68.34,71.17,3.63,-34.01,20.69,24.61,36.47,0,15.78,-0.5
KLaL_cation_pi_RCCE_opt_2p5.xyz,Nucleus 56H :,-3.67284,-0.32653,-11.04041,27.23,20.36,34.47,26.86,-79.01,24.54,67.32,99.57,7.09,-37.83,20.36,26.86,34.47,0,14.11,-0.08
KLaL_cation_pi_RCCE_opt_2p5.xyz,Nucleus 58H :,-2.50759,-1.75085,-12.13052,29.09,37.35,23.98,25.94,10.99,38.51,85.49,-59.23,13.6,-2.09,23.98,25.94,37.35,0,13.37,-0.71
KLaL_cation_pi_RCCE_opt_2p5.xyz,Nucleus 60H :,-1.21105,-2.26606,-12.34584,27.25,36.44,20.7,24.61,77.33,53.01,21.25,-52.16,-27.29,9.62,20.7,24.61,36.44,0,15.74,-0.5
KLaL_cation_pi_RCCE_opt_2p5.xyz,Nucleus 61H :,2.06614,-2.26271,-14.33433,27.19,20.32,34.44,26.82,146.22,17.19,74.64,-125.38,10.71,-41.81,20.32,26.82,34.44,0,14.12,-0.08
KLaL_cation_pi_RCCE_opt_2p5.xyz,Nucleus 62H :,-3.05617,-3.70143,-15.43508,25.81,37.61,17.92,21.91,19.55,39.02,67.59,-42.46,-9.6,3.34,17.92,21.91,37.61,0,19.69,-0.59
KLaL_cation_pi_RCCE_opt_2p5.xyz,Nucleus 63H :,-0.20716,-3.15713,-16.57412,24.74,35.94,23.2,15.08,87.78,45.74,10.41,-54.34,-21.79,6.42,15.08,23.2,35.94,0,20.86,-0.22
KLaL_cation_pi_RCCE_opt_2p5.xyz,Nucleus 64H :,-3.64618,-2.26946,-12.97424,27.83,41.98,19.74,21.78,78.46,-20.31,7.89,-38.3,41.66,14.09,19.74,21.78,41.98,0,22.24,-0.82
KLaL_cation_pi_RCCE_opt_2p5.xyz,Nucleus 65H :,-4.58558,-2.02912,-12.46536,24.38,36.63,22.91,13.59,53.28,31.86,20.79,-35.25,4.51,-2.05,13.59,22.91,36.63,0,23.04,-0.19
KLaL_cation_pi_RCCE_opt_2p5.xyz,Nucleus 2C :,-3.63086,-3.36289,-13.04152,151.54,134.7,163.37,156.54,299.41,168.44,208.0,-145.11,-6.77,-69.38,134.7,156.54,163.37,0,28.67,0.52
KLaL_cation_pi_RCCE_opt_2p5.xyz,Nucleus 5C :,-3.67186,-1.63971,-14.35326,40.3,161.37,5.71,-46.17,313.65,254.43,280.94,-105.48,-303.24,-319.38,-46.17,5.71,161.37,0,207.54,-0.5
KLaL_cation_pi_RCCE_opt_2p5.xyz,Nucleus 6C :,-3.9616,-0.28059,-14.4534,50.34,163.85,-54.96,42.13,238.97,320.13,284.4,-90.94,-362.94,-238.6,-54.96,42.13,163.85,0,218.81,-0.11
KLaL_cation_pi_RCCE_opt_2p5.xyz,Nucleus 8C :,-4.26639,0.26235,-13.56389,59.26,174.3,-51.97,55.46,314.43,247.89,281.11,-89.86,-339.94,-235.83,-51.97,55.46,174.3,0,226.27,-0.05
KLaL_cation_pi_RCCE_opt_2p5.xyz,Nucleus 10C :,-3.86508,0.37227,-15.67146,47.22,164.45,36.93,-59.71,232.77,291.59,323.49,-106.07,-332.37,-267.74,-59.71,36.93,164.45,0,224.16,-0.14
KLaL_cation_pi_RCCE_opt_2p5.xyz,Nucleus 12C :,-4.13466,1.42199,-15.74103,39.66,163.0,-42.16,-1.85,231.11,276.68,293.63,-80.59,-327.02,-274.82,-42.16,-1.85,163.0,0,205.16,-0.61
KLaL_cation_pi_RCCE_opt_2p5.xyz,Nucleus 13C :,-3.41889,-0.29236,-16.78652,152.02,134.18,164.28,157.6,345.21,241.95,298.27,-86.51,-181.01,-161.86,134.18,157.6,164.28,0,30.1,0.56
KLaL_cation_pi_RCCE_opt_2p5.xyz,Nucleus 16C :,-3.30176,0.23385,-17.72915,43.34,160.41,-29.8,-0.58,324.17,252.51,274.92,-93.6,-353.65,-274.31,-29.8,-0.58,160.41,0,190.21,-0.69
KLaL_cation_pi_RCCE_opt_2p5.xyz,Nucleus 17C :,-3.10266,-1.66591,-16.73126,46.15,-59.49,42.36,155.59,337.23,289.78,261.63,-371.28,-248.94,-129.95,-59.49,42.36,155.59,0,215.08,-0.05
KLaL_cation_pi_RCCE_opt_2p5.xyz,Nucleus 19C :,-2.49736,-2.31516,-17.95972,61.69,174.4,55.89,-45.23,332.27,247.96,289.06,-112.98,-273.7,-297.55,-45.23,55.89,174.4,0,219.63,-0.08
KLaL_cation_pi_RCCE_opt_2p5.xyz,Nucleus 21C :,-2.47907,-3.407,-17.86462,50.12,-53.21,47.69,155.88,350.42,270.21,265.0,-387.46,-111.84,-235.99,-53.21,47.69,155.88,0,209.09,-0.03
KLaL_cation_pi_RCCE_opt_2p5.xyz,Nucleus 23C :,-3.14888,-2.11605,-18.81737,48.2,-29.78,19.4,154.97,320.75,268.8,286.29,-119.75,-344.23,-267.27,-29.78,19.4,154.97,0,184.75,-0.47
KLaL_cation_pi_RCCE_opt_2p5.xyz,Nucleus 24C :,-1.12737,-1.77181,-18.26735,18.6,120.29,9.02,-73.5,238.65,328.11,317.26,-145.16,-312.51,-370.54,-73.5,9.02,120.29,0,193.79,-0.15
KLaL_cation_pi_RCCE_opt_2p5.xyz,Nucleus 25C :,-0.91658,-0.74033,-19.18898,19.91,109.3,-62.94,13.36,212.48,290.57,284.47,-112.8,-267.91,-347.1,-62.94,13.36,109.3,0,172.24,-0.11
KLaL_cation_pi_RCCE_opt_2p5.xyz,Nucleus 28C :,-1.75776,-0.38293,-19.77633,152.48,135.37,157.33,164.73,328.28,218.48,275.13,-73.2,-166.05,-125.2,135.37,157.33,164.73,0,29.36,0.5
KLaL_cation_pi_RCCE_opt_2p5.xyz,Nucleus 31C :,0.34176,-0.19192,-19.37488,39.05,163.14,-0.37,-45.61,204.03,286.84,256.51,-62.23,-249.95,-318.04,-45.61,-0.37,163.14,0,208.75,-0.57
KLaL_cation_pi_RCCE_opt_2p5.xyz,Nucleus 32C :,0.49023,0.59144,-20.11041,46.61,164.36,-57.92,33.38,207.83,319.38,269.58,-104.81,-260.91,-291.26,-57.92,33.38,164.36,0,222.28,-0.18
KLaL_cation_pi_RCCE_opt_2p5.xyz,Nucleus 34C :,1.40802,-0.66952,-18.64383,52.43,176.13,-60.31,41.47,322.29,198.92,248.21,-60.9,-343.89,-207.34,-60.31,41.47,176.13,0,236.44,-0.14
KLaL_cation_pi_RCCE_opt_2p5.xyz,Nucleus 36C :,2.40209,-0.26185,-18.80495,46.53,165.02,32.45,-57.88,181.08,320.47,254.42,-61.95,-348.95,-205.48,-57.88,32.45,165.02,0,222.9,-0.19
KLaL_cation_pi_RCCE_opt_2p5.xyz,Nucleus 38C :,1.26331,-1.70665,-17.72336,40.99,162.8,-43.38,3.54,221.03,296.02,327.32,-121.26,-277.24,-322.91,-43.38,3.54,162.8,0,206.18,-0.54
KLaL_cation_pi_RCCE_opt_2p5.xyz,Nucleus 39C :,-0.02275,-2.248,-17.50932,153.51,136.74,165.97,157.82,271.07,141.81,196.41,18.72,-113.19,-54.28,136.74,157.82,165.97,0,29.23,0.44
KLaL_cation_pi_RCCE_opt_2p5.xyz,Nucleus 42C :,-3.29932,-2.31449,-15.5209,46.79,155.38,-31.54,16.53,184.94,228.8,274.02,-46.72,-266.69,-233.98,-31.54,16.53,155.38,0,186.92,-0.49
KLaL_cation_pi_RCCE_opt_2p5.xyz,Nucleus 43C :,-0.634,1.96673,-14.92549,48.14,-56.04,44.39,156.07,164.58,212.54,284.6,-295.91,-169.56,-51.82,-56.04,44.39,156.07,0,212.11,-0.05
KLaL_cation_pi_RCCE_opt_2p5.xyz,Nucleus 45C :,-0.61955,1.47925,-14.04083,60.55,174.78,53.55,-46.67,201.88,227.51,287.61,-31.0,-173.42,-330.91,-46.67,53.55,174.78,0,221.45,-0.09
KLaL_cation_pi_RCCE_opt_2p5.xyz,Nucleus 47C :,-0.34639,3.94638,-16.01492,47.49,-56.7,43.49,155.68,288.34,187.05,223.87,-291.58,-194.41,-70.8,-56.7,43.49,155.68,0,212.38,-0.06
KLaL_cation_pi_RCCE_opt_2p5.xyz,Nucleus 49C :,-0.35573,4.95022,-16.04481,45.89,160.86,-26.12,2.94,222.67,256.99,258.66,-94.37,-237.77,-268.48,-26.12,2.94,160.86,0,186.98,-0.69
KLaL_cation_pi_RCCE_opt_2p5.xyz,Nucleus 50C :,-0.07021,3.45851,-16.85674,20.17,-73.47,13.31,120.66,126.52,221.25,261.55,-33.56,-217.95,-297.3,-73.47,13.31,120.66,0,194.13,-0.11
KLaL_cation_pi_RCCE_opt_2p5.xyz,Nucleus 51C :,-0.64706,3.28323,-14.92389,28.42,-57.87,104.25,38.89,153.86,298.84,272.21,-82.88,-227.5,-329.26,-57.87,38.89,104.25,0,162.12,0.19
KLaL_cation_pi_RCCE_opt_2p5.xyz,Nucleus 57C :,-0.16135,1.49658,-15.68304,28.0,125.1,-26.41,-14.68,231.96,268.49,308.1,-115.45,-279.31,-329.78,-26.41,-14.68,125.1,0,151.51,-0.85
KLaL_cation_pi_RCCE_opt_2p5.xyz,Nucleus 52N :,-0.9608,3.93763,-13.83124,169.9,106.14,185.85,217.72,416.06,343.9,310.57,-269.12,-143.1,-148.59,106.14,185.85,217.72,0,111.58,0.43
KLaL_cation_pi_RCCE_opt_2p5.xyz,Nucleus 54N :,-0.9621,4.94135,-13.79599,179.11,231.52,181.78,124.04,202.11,315.0,369.35,-20.56,-192.94,-135.63,124.04,181.78,231.52,0,107.48,0.07
KLaL_cation_pi_RCCE_opt_2p5.xyz,Nucleus 59N :,-1.16151,3.44139,-12.97253,178.8,231.13,182.01,123.27,401.71,318.72,355.38,-214.12,-230.44,-94.83,123.27,182.01,231.13,0,107.86,0.09
KLaL_cation_pi_RCCE_opt_2p6.xyz,Nucleus 3H :,1.85056,-3.65399,-14.42354,27.77,34.26,25.19,23.87,-79.24,77.72,14.08,105.55,-47.36,12.57,23.87,25.19,34.26,0,10.39,-0.74
KLaL_cation_pi_RCCE_opt_2p6.xyz,Nucleus 4H :,-1.00867,-3.16908,-13.28325,26.9,23.58,27.2,29.92,-59.79,6.86,84.42,84.83,21.57,-57.17,23.58,27.2,29.92,0,6.34,0.14
KLaL_cation_pi_RCCE_opt_2p6.xyz,Nucleus 7H :,2.41198,-2.20461,-16.88088,24.46,29.54,20.83,23.01,-32.33,52.04,92.66,56.75,-26.17,-69.57,20.83,23.01,29.54,0,8.71,-0.5
KLaL_cation_pi_RCCE_opt_2p6.xyz,Nucleus 9H :,3.34765,-1.9455,-17.38756,25.06,22.4,25.57,27.21,16.86,90.09,67.27,9.13,-63.84,-44.34,22.4,25.57,27.21,0,4.81,0.32
KLaL_cation_pi_RCCE_opt_2p6.xyz,Nucleus 11H :,2.39691,-3.29532,-16.81784,24.35,29.58,20.77,22.69,125.02,65.76,32.52,-101.04,-9.19,-40.04,20.77,22.69,29.58,0,8.81,-0.57
KLaL_cation_pi_RCCE_opt_2p6.xyz,Nucleus 14H :,2.4252,-1.57784,-15.50033,26.26,29.58,23.23,25.97,15.62,96.64,71.64,10.3,-72.29,-43.13,23.23,25.97,29.58,0,6.35,-0.14
KLaL_cation_pi_RCCE_opt_2p6.xyz,Nucleus 15H :,2.68791,-0.21348,-15.39687,28.0,34.54,25.51,23.95,133.71,35.82,64.94,-106.89,-2.86,-40.73,23.95,25.51,34.54,0,10.59,-0.71
KLaL_cation_pi_RCCE_opt_2p6.xyz,Nucleus 18H :,2.98968,0.34051,-16.28164,23.83,28.22,22.57,20.7,119.98,89.23,37.77,-97.99,-66.47,-11.03,20.7,22.57,28.22,0,7.52,-0.5
KLaL_cation_pi_RCCE_opt_2p6.xyz,Nucleus 20H :,2.57849,0.43438,-14.17723,24.5,21.12,26.67,25.71,35.82,90.71,106.75,-64.12,-85.31,-10.33,21.12,25.71,26.67,0,5.55,0.65
KLaL_cation_pi_RCCE_opt_2p6.xyz,Nucleus 22H :,2.82822,1.48929,-14.10622,24.11,28.61,23.03,20.68,118.61,24.57,76.74,2.81,-95.51,-54.9,20.68,23.03,28.61,0,7.93,-0.41
KLaL_cation_pi_RCCE_opt_2p6.xyz,Nucleus 29H :,2.14561,-0.24168,-13.06379,27.63,34.21,25.07,23.6,126.62,8.23,33.48,-98.55,22.66,-9.57,23.6,25.07,34.21,0,10.61,-0.72
KLaL_cation_pi_RCCE_opt_2p6.xyz,Nucleus 30H :,2.02109,0.28044,-12.11936,27.02,23.54,27.56,29.97,3.98,91.16,67.0,23.35,-66.17,-38.24,23.54,27.56,29.97,0,6.43,0.25
KLaL_cation_pi_RCCE_opt_2p6.xyz,Nucleus 33H :,1.85668,-1.6211,-13.12241,24.18,29.37,20.57,22.59,123.89,32.68,6.56,-100.15,-7.13,16.68,20.57,22.59,29.37,0,8.8,-0.54
KLaL_cation_pi_RCCE_opt_2p6.xyz,Nucleus 35H :,1.26442,-2.28521,-11.89554,24.67,21.89,25.01,27.1,89.91,-18.5,9.13,-64.74,43.97,14.23,21.89,25.01,27.1,0,5.21,0.2
KLaL_cation_pi_RCCE_opt_2p6.xyz,Nucleus 37H :,1.23472,-3.36627,-12.0504,24.24,29.58,20.53,22.62,-70.61,84.76,16.81,95.72,-61.71,7.75,20.53,22.62,29.58,0,9.05,-0.54
KLaL_cation_pi_RCCE_opt_2p6.xyz,Nucleus 40H :,1.91674,-2.09261,-11.03742,27.13,23.82,30.04,27.54,60.68,-70.45,-16.44,-32.44,94.28,45.79,23.82,27.54,30.04,0,6.22,0.2
KLaL_cation_pi_RCCE_opt_2p6.xyz,Nucleus 41H :,-0.11608,-1.76989,-11.58662,27.58,34.28,24.99,23.47,-112.24,58.17,-30.12,136.95,-24.61,54.59,23.47,24.99,34.28,0,10.81,-0.72
KLaL_cation_pi_RCCE_opt_2p6.xyz,Nucleus 44H :,-0.34726,-0.74504,-10.66249,23.96,28.45,22.82,20.62,-83.66,-29.66,61.75,-36.3,105.1,54.64,20.62,22.82,28.45,0,7.83,-0.44
KLaL_cation_pi_RCCE_opt_2p6.xyz,Nucleus 46H :,0.48968,-0.37756,-10.07614,24.42,21.03,26.61,25.63,69.09,-28.85,-75.78,-43.69,55.41,97.09,21.03,25.63,26.61,0,5.58,0.65
KLaL_cation_pi_RCCE_opt_2p6.xyz,Nucleus 48H :,-1.61623,-0.22215,-10.4753,23.89,28.36,22.68,20.63,64.27,-40.05,-16.89,-38.55,62.82,40.06,20.63,22.68,28.36,0,7.73,-0.47
KLaL_cation_pi_RCCE_opt_2p6.xyz,Nucleus 53H :,-1.78286,0.55559,-9.73755,28.92,37.17,23.72,25.86,18.39,120.43,95.11,7.5,-95.64,-59.05,23.72,25.86,37.17,0,13.45,-0.68
KLaL_cation_pi_RCCE_opt_2p6.xyz,Nucleus 55H :,-2.67282,-0.71904,-11.20753,27.22,20.67,24.59,36.41,-50.37,22.15,67.75,71.9,3.69,-33.44,20.67,24.59,36.41,0,15.74,-0.5
KLaL_cation_pi_RCCE_opt_2p6.xyz,Nucleus 56H :,-3.67284,-0.32653,-11.04041,27.19,20.34,34.41,26.82,-79.42,24.32,66.47,99.95,7.15,-36.92,20.34,26.82,34.41,0,14.07,-0.08
KLaL_cation_pi_RCCE_opt_2p6.xyz,Nucleus 58H :,-2.50759,-1.75085,-12.13052,28.96,37.27,23.69,25.91,11.0,38.15,83.85,-57.6,13.27,-1.79,23.69,25.91,37.27,0,13.58,-0.67
KLaL_cation_pi_RCCE_opt_2p6.xyz,Nucleus 60H :,-1.21105,-2.26606,-12.34584,27.22,36.38,20.68,24.59,76.58,52.46,21.18,-51.36,-26.81,9.59,20.68,24.59,36.38,0,15.7,-0.5
KLaL_cation_pi_RCCE_opt_2p6.xyz,Nucleus 61H :,2.06614,-2.26271,-14.33433,27.15,20.29,34.38,26.78,146.14,17.43,73.93,-125.31,10.46,-41.2,20.29,26.78,34.38,0,14.09,-0.08
KLaL_cation_pi_RCCE_opt_2p6.xyz,Nucleus 62H :,-3.05617,-3.70143,-15.43508,25.82,37.62,17.92,21.91,19.49,38.93,67.57,-42.48,-9.46,3.4,17.92,21.91,37.62,0,19.7,-0.6
KLaL_cation_pi_RCCE_opt_2p6.xyz,Nucleus 63H :,-0.20716,-3.15713,-16.57412,24.75,35.95,23.21,15.08,87.82,45.93,10.38,-54.37,-21.96,6.44,15.08,23.21,35.95,0,20.87,-0.22
KLaL_cation_pi_RCCE_opt_2p6.xyz,Nucleus 64H :,-3.64618,-2.26946,-12.97424,27.84,41.97,19.75,21.79,78.49,-20.31,7.92,-38.33,41.67,14.07,19.75,21.79,41.97,0,22.22,-0.82
KLaL_cation_pi_RCCE_opt_2p6.xyz,Nucleus 65H :,-4.58558,-2.02912,-12.46536,24.38,36.65,22.92,13.58,53.24,31.73,20.57,-35.3,4.79,-1.89,13.58,22.92,36.65,0,23.07,-0.19
KLaL_cation_pi_RCCE_opt_2p6.xyz,Nucleus 2C :,-3.63086,-3.36289,-13.04152,151.53,134.7,163.37,156.51,299.47,168.25,207.73,-145.2,-6.58,-69.09,134.7,156.51,163.37,0,28.67,0.52
KLaL_cation_pi_RCCE_opt_2p6.xyz,Nucleus 5C :,-3.67186,-1.63971,-14.35326,40.4,161.34,5.99,-46.12,313.76,254.64,280.97,-105.81,-303.08,-319.28,-46.12,5.99,161.34,0,207.46,-0.5
KLaL_cation_pi_RCCE_opt_2p6.xyz,Nucleus 6C :,-3.9616,-0.28059,-14.4534,50.26,163.78,-55.13,42.13,238.18,319.96,284.68,-90.7,-362.83,-238.52,-55.13,42.13,163.78,0,218.91,-0.11
KLaL_cation_pi_RCCE_opt_2p6.xyz,Nucleus 8C :,-4.26639,0.26235,-13.56389,59.46,174.12,-51.7,55.97,314.23,247.95,280.89,-90.07,-339.36,-235.24,-51.7,55.97,174.12,0,225.82,-0.05
KLaL_cation_pi_RCCE_opt_2p6.xyz,Nucleus 10C :,-3.86508,0.37227,-15.67146,47.15,164.38,36.93,-59.86,232.94,291.34,323.67,-106.28,-332.78,-267.44,-59.86,36.93,164.38,0,224.24,-0.14
KLaL_cation_pi_RCCE_opt_2p6.xyz,Nucleus 12C :,-4.13466,1.42199,-15.74103,39.75,162.97,-42.12,-1.59,231.2,277.08,292.8,-80.7,-326.86,-274.26,-42.12,-1.59,162.97,0,205.09,-0.6
KLaL_cation_pi_RCCE_opt_2p6.xyz,Nucleus 13C :,-3.41889,-0.29236,-16.78652,152.02,134.19,164.28,157.58,345.31,241.89,298.23,-86.44,-181.1,-161.84,134.19,157.58,164.28,0,30.09,0.55
KLaL_cation_pi_RCCE_opt_2p6.xyz,Nucleus 16C :,-3.30176,0.23385,-17.72915,43.38,160.39,-29.83,-0.42,324.65,252.69,274.59,-93.72,-354.15,-273.91,-29.83,-0.42,160.39,0,190.22,-0.69
KLaL_cation_pi_RCCE_opt_2p6.xyz,Nucleus 17C :,-3.10266,-1.66591,-16.73126,46.17,-59.5,42.47,155.54,337.12,289.86,261.72,-371.29,-248.92,-129.98,-59.5,42.47,155.54,0,215.04,-0.05
KLaL_cation_pi_RCCE_opt_2p6.xyz,Nucleus 19C :,-2.49736,-2.31516,-17.95972,61.7,174.33,56.0,-45.23,332.14,248.25,289.11,-113.01,-273.52,-297.86,-45.23,56.0,174.33,0,219.56,-0.08
KLaL_cation_pi_RCCE_opt_2p6.xyz,Nucleus 21C :,-2.47907,-3.407,-17.86462,50.14,-53.2,47.8,155.82,350.1,264.91,270.59,-387.29,-111.92,-235.97,-53.2,47.8,155.82,0,209.02,-0.03
KLaL_cation_pi_RCCE_opt_2p6.xyz,Nucleus 23C :,-3.14888,-2.11605,-18.81737,48.25,-29.77,19.59,154.94,321.1,268.78,286.19,-119.87,-344.53,-266.91,-29.77,19.59,154.94,0,184.71,-0.47
KLaL_cation_pi_RCCE_opt_2p6.xyz,Nucleus 24C :,-1.12737,-1.77181,-18.26735,18.57,120.27,9.03,-73.6,238.72,328.05,317.01,-145.22,-312.83,-370.03,-73.6,9.03,120.27,0,193.87,-0.15
KLaL_cation_pi_RCCE_opt_2p6.xyz,Nucleus 25C :,-0.91658,-0.74033,-19.18898,19.88,109.28,-63.05,13.41,212.48,290.64,284.32,-112.83,-267.91,-347.06,-63.05,13.41,109.28,0,172.33,-0.11
KLaL_cation_pi_RCCE_opt_2p6.xyz,Nucleus 28C :,-1.75776,-0.38293,-19.77633,152.47,135.37,157.29,164.74,328.26,218.53,275.16,-73.17,-166.05,-125.33,135.37,157.29,164.74,0,29.37,0.49
KLaL_cation_pi_RCCE_opt_2p6.xyz,Nucleus 31C :,0.34176,-0.19192,-19.37488,39.07,163.12,-0.3,-45.61,203.57,287.57,256.96,-62.08,-250.26,-318.54,-45.61,-0.3,163.12,0,208.73,-0.57
KLaL_cation_pi_RCCE_opt_2p6.xyz,Nucleus 32C :,0.49023,0.59144,-20.11041,46.59,164.3,-57.95,33.42,208.1,319.65,269.64,-105.13,-261.16,-291.34,-57.95,33.42,164.3,0,222.25,-0.18
KLaL_cation_pi_RCCE_opt_2p6.xyz,Nucleus 34C :,1.40802,-0.66952,-18.64383,52.55,176.02,-60.12,41.76,322.06,199.98,248.65,-61.49,-344.17,-207.36,-60.12,41.76,176.02,0,236.14,-0.14
KLaL_cation_pi_RCCE_opt_2p6.xyz,Nucleus 36C :,2.40209,-0.26185,-18.80495,46.52,164.96,32.5,-57.89,182.02,319.64,255.1,-62.3,-348.46,-206.43,-57.89,32.5,164.96,0,222.85,-0.19
KLaL_cation_pi_RCCE_opt_2p6.xyz,Nucleus 38C :,1.26331,-1.70665,-17.72336,41.0,162.78,-43.38,3.61,220.76,296.15,328.07,-121.04,-277.51,-323.42,-43.38,3.61,162.78,0,206.16,-0.54
KLaL_cation_pi_RCCE_opt_2p6.xyz,Nucleus 39C :,-0.02275,-2.248,-17.50932,153.5,136.74,165.97,157.79,271.14,141.64,196.45,18.88,-113.3,-54.32,136.74,157.79,165.97,0,29.23,0.44
KLaL_cation_pi_RCCE_opt_2p6.xyz,Nucleus 42C :,-3.29932,-2.31449,-15.5209,46.85,155.36,-31.52,16.7,185.76,228.64,274.32,-46.85,-266.8,-234.53,-31.52,16.7,155.36,0,186.88,-0.48
KLaL_cation_pi_RCCE_opt_2p6.xyz,Nucleus 43C :,-0.634,2.06673,-14.92549,48.18,-56.0,44.53,156.02,165.03,212.97,284.57,-296.06,-170.17,-51.79,-56.0,44.53,156.02,0,212.02,-0.05
KLaL_cation_pi_RCCE_opt_2p6.xyz,Nucleus 45C :,-0.61955,1.57925,-14.04083,60.58,174.72,53.67,-46.66,201.86,227.73,287.26,-31.12,-173.54,-330.46,-46.66,53.67,174.72,0,221.38,-0.09
KLaL_cation_pi_RCCE_opt_2p6.xyz,Nucleus 47C :,-0.34639,4.04638,-16.01492,47.49,-56.74,43.57,155.63,287.96,187.18,223.65,-290.93,-194.6,-70.79,-56.74,43.57,155.63,0,212.37,-0.06
KLaL_cation_pi_RCCE_opt_2p6.xyz,Nucleus 49C :,-0.35573,5.05022,-16.04481,45.92,160.84,-26.16,3.09,222.09,257.2,258.69,-94.41,-237.3,-268.49,-26.16,3.09,160.84,0,187.0,-0.69
KLaL_cation_pi_RCCE_opt_2p6.xyz,Nucleus 50C :,-0.07021,3.55851,-16.85674,20.13,-73.57,13.32,120.64,127.08,221.02,261.63,-33.7,-217.53,-298.1,-73.57,13.32,120.64,0,194.21,-0.11
KLaL_cation_pi_RCCE_opt_2p6.xyz,Nucleus 51C :,-0.64706,3.38323,-14.92389,28.4,-57.95,104.24,38.92,153.77,299.0,272.63,-82.75,-227.52,-329.92,-57.95,38.92,104.24,0,162.19,0.19
KLaL_cation_pi_RCCE_opt_2p6.xyz,Nucleus 57C :,-0.16135,1.59658,-15.68304,27.9,125.01,-26.36,-14.96,231.76,268.21,307.46,-115.2,-279.39,-329.15,-26.36,-14.96,125.01,0,151.37,-0.85
KLaL_cation_pi_RCCE_opt_2p6.xyz,Nucleus 52N :,-0.9608,4.03763,-13.83124,170.41,106.92,185.37,218.95,415.12,343.39,310.92,-267.25,-143.82,-147.12,106.92,185.37,218.95,0,112.03,0.4
KLaL_cation_pi_RCCE_opt_2p6.xyz,Nucleus 54N :,-0.9621,5.04135,-13.79599,178.94,231.39,181.76,123.68,201.98,314.63,368.63,-20.44,-192.8,-135.17,123.68,181.76,231.39,0,107.71,0.08
KLaL_cation_pi_RCCE_opt_2p6.xyz,Nucleus 59N :,-1.16151,3.54139,-12.97253,178.64,231.0,181.99,122.93,400.89,318.76,354.73,-213.28,-230.2,-94.99,122.93,181.99,231.0,0,108.07,0.09
KLaL_cation_pi_RCCE_opt_2p7.xyz,Nucleus 3H :,1.85056,-3.65399,-14.42354,27.78,34.25,25.2,23.88,-79.23,77.71,13.94,105.54,-47.36,12.72,23.88,25.2,34.25,0,10.37,-0.75
KLaL_cation_pi_RCCE_opt_2p7.xyz,Nucleus 4H :,-1.00867,-3.16908,-13.28325,26.9,23.59,27.2,29.92,-59.69,6.72,84.4,-57.17,84.73,21.71,23.59,27.2,29.92,0,6.33,0.14
KLaL_cation_pi_RCCE_opt_2p7.xyz,Nucleus 7H :,2.41198,-2.20461,-16.88088,24.46,29.57,20.82,23.0,-32.35,51.93,92.28,56.77,-26.06,-69.19,20.82,23.0,29.57,0,8.75,-0.5
KLaL_cation_pi_RCCE_opt_2p7.xyz,Nucleus 9H :,3.34765,-1.9455,-17.38756,25.07,22.42,25.57,27.23,17.0,89.93,67.05,8.99,-63.68,-44.08,22.42,25.57,27.23,0,4.81,0.31
KLaL_cation_pi_RCCE_opt_2p7.xyz,Nucleus 11H :,2.39691,-3.29532,-16.81784,24.35,29.6,20.76,22.68,125.04,65.63,32.6,-101.06,-9.26,-39.9,20.76,22.68,29.6,0,8.84,-0.57
KLaL_cation_pi_RCCE_opt_2p7.xyz,Nucleus 14H :,2.4252,-1.57784,-15.50033,26.26,29.58,23.24,25.97,15.62,96.63,71.62,10.3,-72.28,-43.1,23.24,25.97,29.58,0,6.34,-0.14
KLaL_cation_pi_RCCE_opt_2p7.xyz,Nucleus 15H :,2.68791,-0.21348,-15.39687,28.0,34.53,25.51,23.96,133.7,35.84,64.9,-106.88,-2.88,-40.69,23.96,25.51,34.53,0,10.57,-0.71
KLaL_cation_pi_RCCE_opt_2p7.xyz,Nucleus 18H :,2.98968,0.34051,-16.28164,23.84,28.23,22.57,20.71,119.91,89.21,37.79,-97.92,-66.44,-11.05,20.71,22.57,28.23,0,7.52,-0.51
KLaL_cation_pi_RCCE_opt_2p7.xyz,Nucleus 20H :,2.57849,0.43438,-14.17723,24.51,21.13,26.69,25.71,35.84,90.58,106.87,-63.98,-85.42,-10.37,21.13,25.71,26.69,0,5.56,0.65
KLaL_cation_pi_RCCE_opt_2p7.xyz,Nucleus 22H :,2.82822,1.48929,-14.10622,24.11,28.62,23.03,20.69,118.44,24.6,76.84,2.78,-95.34,-54.98,20.69,23.03,28.62,0,7.93,-0.41
KLaL_cation_pi_RCCE_opt_2p7.xyz,Nucleus 29H :,2.14561,-0.24168,-13.06379,27.63,34.21,25.08,23.61,126.56,8.24,33.65,-98.48,22.66,-9.73,23.61,25.08,34.21,0,10.6,-0.72
KLaL_cation_pi_RCCE_opt_2p7.xyz,Nucleus 30H :,2.02109,0.28044,-12.11936,27.02,23.54,27.56,29.97,3.98,91.13,67.11,23.35,-66.16,-38.35,23.54,27.56,29.97,0,6.43,0.25
KLaL_cation_pi_RCCE_opt_2p7.xyz,Nucleus 33H :,1.85668,-1.6211,-13.12241,24.18,29.39,20.56,22.59,123.63,33.24,6.69,-99.9,-7.68,16.56,20.56,22.59,29.39,0,8.83,-0.54
KLaL_cation_pi_RCCE_opt_2p7.xyz,Nucleus 35H :,1.26442,-2.28521,-11.89554,24.67,21.89,25.0,27.12,89.79,-17.8,9.39,-64.65,43.29,13.99,21.89,25.0,27.12,0,5.23,0.19
KLaL_cation_pi_RCCE_opt_2p7.xyz,Nucleus 37H :,1.23472,-3.36627,-12.0504,24.25,29.61,20.52,22.62,-69.79,84.71,16.91,94.91,-61.66,7.66,20.52,22.62,29.61,0,9.09,-0.54
KLaL_cation_pi_RCCE_opt_2p7.xyz,Nucleus 40H :,1.91674,-2.09261,-11.03742,27.14,23.83,30.04,27.54,60.73,-70.41,-16.34,-32.5,94.25,45.69,23.83,27.54,30.04,0,6.21,0.19
KLaL_cation_pi_RCCE_opt_2p7.xyz,Nucleus 41H :,-0.11608,-1.76989,-11.58662,27.58,34.27,25.0,23.48,-112.18,58.18,-29.95,136.9,-24.63,54.42,23.48,25.0,34.27,0,10.79,-0.72
KLaL_cation_pi_RCCE_opt_2p7.xyz,Nucleus 44H :,-0.34726,-0.74504,-10.66249,23.97,28.46,22.82,20.63,-83.48,-29.32,61.81,-36.37,104.93,54.33,20.63,22.82,28.46,0,7.83,-0.44
KLaL_cation_pi_RCCE_opt_2p7.xyz,Nucleus 46H :,0.48968,-0.37756,-10.07614,24.43,21.04,26.63,25.62,69.06,-28.51,-75.91,-43.67,55.09,97.24,21.04,25.62,26.63,0,5.59,0.64
KLaL_cation_pi_RCCE_opt_2p7.xyz,Nucleus 48H :,-1.61623,-0.22215,-10.4753,23.9,28.37,22.67,20.65,64.2,-39.93,-16.92,-38.49,62.67,40.15,20.65,22.67,28.37,0,7.72,-0.48
KLaL_cation_pi_RCCE_opt_2p7.xyz,Nucleus 53H :,-1.78286,0.55559,-9.73755,28.79,37.09,23.45,25.82,18.83,120.5,94.39,7.06,-96.02,-58.39,23.45,25.82,37.09,0,13.64,-0.65
KLaL_cation_pi_RCCE_opt_2p7.xyz,Nucleus 55H :,-2.67282,-0.71904,-11.20753,27.19,20.66,24.57,36.35,-51.14,22.07,67.17,72.63,3.74,-32.88,20.66,24.57,36.35,0,15.69,-0.5
KLaL_cation_pi_RCCE_opt_2p7.xyz,Nucleus 56H :,-3.67284,-0.32653,-11.04041,27.15,20.31,34.36,26.77,-79.79,24.12,65.65,100.31,7.18,-36.03,20.31,26.77,34.36,0,14.05,-0.08
KLaL_cation_pi_RCCE_opt_2p7.xyz,Nucleus 58H :,-2.50759,-1.75085,-12.13052,28.83,37.19,23.41,25.89,11.01,37.83,82.22,-55.99,12.94,-1.52,23.41,25.89,37.19,0,13.78,-0.64
KLaL_cation_pi_RCCE_opt_2p7.xyz,Nucleus 60H :,-1.21105,-2.26606,-12.34584,27.19,36.33,20.67,24.57,75.84,51.93,21.12,-50.56,-26.33,9.57,20.67,24.57,36.33,0,15.66,-0.5
KLaL_cation_pi_RCCE_opt_2p7.xyz,Nucleus 61H :,2.06614,-2.26271,-14.33433,27.11,20.27,34.33,26.74,146.03,17.66,73.22,-125.23,10.23,-40.58,20.27,26.74,34.33,0,14.06,-0.08
KLaL_cation_pi_RCCE_opt_2p7.xyz,Nucleus 62H :,-3.05617,-3.70143,-15.43508,25.82,37.64,17.91,21.92,19.41,38.85,67.55,-42.49,-9.32,3.45,17.91,21.92,37.64,0,19.73,-0.59
KLaL_cation_pi_RCCE_opt_2p7.xyz,Nucleus 63H :,-0.20716,-3.15713,-16.57412,24.75,35.96,23.23,15.07,87.86,46.13,10.35,-54.4,-22.14,6.47,15.07,23.23,35.96,0,20.89,-0.22
KLaL_cation_pi_RCCE_opt_2p7.xyz,Nucleus 64H :,-3.64618,-2.26946,-12.97424,27.84,41.97,19.76,21.8,78.51,-20.29,7.96,-38.36,41.67,14.03,19.76,21.8,41.97,0,22.21,-0.82
KLaL_cation_pi_RCCE_opt_2p7.xyz,Nucleus 65H :,-4.58558,-2.02912,-12.46536,24.39,36.66,22.94,13.57,53.2,31.65,20.39,-35.35,5.02,-1.75,13.57,22.94,36.66,0,23.09,-0.19
KLaL_cation_pi_RCCE_opt_2p7.xyz,Nucleus 2C :,-3.63086,-3.36289,-13.04152,151.52,134.7,163.36,156.49,299.52,168.03,207.46,-145.28,-6.38,-68.8,134.7,156.49,163.36,0,28.66,0.52
KLaL_cation_pi_RCCE_opt_2p7.xyz,Nucleus 5C :,-3.67186,-1.63971,-14.35326,40.5,161.31,6.26,-46.06,313.72,254.92,280.91,-106.11,-302.81,-319.14,-46.06,6.26,161.31,0,207.37,-0.5
KLaL_cation_pi_RCCE_opt_2p7.xyz,Nucleus 6C :,-3.9616,-0.28059,-14.4534,50.17,163.71,-55.31,42.11,237.42,319.68,284.99,-90.41,-362.7,-238.48,-55.31,42.11,163.71,0,219.02,-0.11
KLaL_cation_pi_RCCE_opt_2p7.xyz,Nucleus 8C :,-4.26639,0.26235,-13.56389,59.65,173.94,-51.46,56.46,314.08,248.03,280.69,-90.32,-338.84,-234.7,-51.46,56.46,173.94,0,225.4,-0.04
KLaL_cation_pi_RCCE_opt_2p7.xyz,Nucleus 10C :,-3.86508,0.37227,-15.67146,47.07,164.3,36.93,-60.01,233.24,323.92,290.96,-106.56,-333.16,-267.18,-60.01,36.93,164.3,0,224.31,-0.14
KLaL_cation_pi_RCCE_opt_2p7.xyz,Nucleus 12C :,-4.13466,1.42199,-15.74103,39.84,162.94,-42.08,-1.33,231.32,277.36,292.08,-80.77,-326.7,-273.76,-42.08,-1.33,162.94,0,205.02,-0.6
KLaL_cation_pi_RCCE_opt_2p7.xyz,Nucleus 13C :,-3.41889,-0.29236,-16.78652,152.02,134.2,164.29,157.56,345.4,241.86,298.19,-86.4,-181.19,-161.82,134.2,157.56,164.29,0,30.09,0.55
KLaL_cation_pi_RCCE_opt_2p7.xyz,Nucleus 16C :,-3.30176,0.23385,-17.72915,43.42,160.38,-29.85,-0.28,325.14,252.88,274.31,-93.87,-354.67,-273.55,-29.85,-0.28,160.38,0,190.23,-0.69
KLaL_cation_pi_RCCE_opt_2p7.xyz,Nucleus 17C :,-3.10266,-1.66591,-16.73126,46.17,-59.53,42.57,155.48,337.01,289.96,261.82,-371.32,-248.9,-130.04,-59.53,42.57,155.48,0,215.01,-0.05
KLaL_cation_pi_RCCE_opt_2p7.xyz,Nucleus 19C :,-2.49736,-2.31516,-17.95972,61.72,174.26,56.11,-45.22,332.04,248.56,289.14,-113.02,-273.36,-298.21,-45.22,56.11,174.26,0,219.48,-0.08
KLaL_cation_pi_RCCE_opt_2p7.xyz,Nucleus 21C :,-2.47907,-3.407,-17.86462,50.16,-53.19,47.91,155.76,349.82,264.81,270.99,-387.17,-112.01,-235.96,-53.19,47.91,155.76,0,208.95,-0.03
KLaL_cation_pi_RCCE_opt_2p7.xyz,Nucleus 23C :,-3.14888,-2.11605,-18.81737,48.31,-29.75,19.77,154.92,321.51,268.76,286.03,-119.93,-344.85,-266.58,-29.75,19.77,154.92,0,184.67,-0.46
KLaL_cation_pi_RCCE_opt_2p7.xyz,Nucleus 24C :,-1.12737,-1.77181,-18.26735,18.53,120.25,9.04,-73.7,238.78,328.03,316.75,-145.25,-313.17,-369.55,-73.7,9.04,120.25,0,193.95,-0.15
KLaL_cation_pi_RCCE_opt_2p7.xyz,Nucleus 25C :,-0.91658,-0.74033,-19.18898,19.86,109.26,-63.15,13.46,212.6,290.67,284.15,-112.97,-267.88,-347.01,-63.15,13.46,109.26,0,172.41,-0.11
KLaL_cation_pi_RCCE_opt_2p7.xyz,Nucleus 28C :,-1.75776,-0.38293,-19.77633,152.46,135.37,157.26,164.74,328.22,218.59,275.16,-73.16,-166.01,-125.43,135.37,157.26,164.74,0,29.37,0.49
KLaL_cation_pi_RCCE_opt_2p7.xyz,Nucleus 31C :,0.34176,-0.19192,-19.37488,39.09,163.11,-0.22,-45.61,203.18,288.26,257.29,-61.96,-250.48,-319.01,-45.61,-0.22,163.11,0,208.72,-0.57
KLaL_cation_pi_RCCE_opt_2p7.xyz,Nucleus 32C :,0.49023,0.59144,-20.11041,46.57,164.25,-57.98,33.44,208.48,319.93,269.62,-105.53,-261.32,-291.47,-57.98,33.44,164.25,0,222.23,-0.18
KLaL_cation_pi_RCCE_opt_2p7.xyz,Nucleus 34C :,1.40802,-0.66952,-18.64383,52.68,175.92,-59.93,42.04,321.8,201.04,248.91,-62.07,-344.3,-207.36,-59.93,42.04,175.92,0,235.85,-0.14
KLaL_cation_pi_RCCE_opt_2p7.xyz,Nucleus 36C :,2.40209,-0.26185,-18.80495,46.52,164.91,32.55,-57.91,182.86,318.83,255.69,-62.53,-348.03,-207.28,-57.91,32.55,164.91,0,222.82,-0.19
KLaL_cation_pi_RCCE_opt_2p7.xyz,Nucleus 38C :,1.26331,-1.70665,-17.72336,41.02,162.76,-43.38,3.68,220.56,296.26,328.73,-120.85,-277.75,-323.88,-43.38,3.68,162.76,0,206.14,-0.54
KLaL_cation_pi_RCCE_opt_2p7.xyz,Nucleus 39C :,-0.02275,-2.248,-17.50932,153.49,136.74,165.97,157.76,271.2,141.45,196.54,19.07,-113.39,-54.39,136.74,157.76,165.97,0,29.23,0.44
KLaL_cation_pi_RCCE_opt_2p7.xyz,Nucleus 42C :,-3.29932,-2.31449,-15.5209,46.91,155.34,-31.49,16.87,186.42,228.44,274.61,-46.94,-266.89,-234.91,-31.49,16.87,155.34,0,186.83,-0.48
KLaL_cation_pi_RCCE_opt_2p7.xyz,Nucleus 43C :,-0.634,2.16673,-14.92549,48.22,-55.96,44.66,155.97,165.32,213.33,284.52,-296.14,-170.62,-51.75,-55.96,44.66,155.97,0,211.93,-0.05
KLaL_cation_pi_RCCE_opt_2p7.xyz,Nucleus 45C :,-0.61955,1.67925,-14.04083,60.59,174.66,53.78,-46.66,201.78,227.8,286.92,-31.2,-173.5,-330.02,-46.66,53.78,174.66,0,221.32,-0.09
KLaL_cation_pi_RCCE_opt_2p7.xyz,Nucleus 47C :,-0.34639,4.14638,-16.01492,47.49,-56.77,43.65,155.58,287.59,187.26,223.48,-290.29,-194.76,-70.83,-56.77,43.65,155.58,0,212.35,-0.05
KLaL_cation_pi_RCCE_opt_2p7.xyz,Nucleus 49C :,-0.35573,5.15022,-16.04481,45.95,160.82,-26.19,3.23,221.51,257.34,258.8,-94.45,-236.74,-268.59,-26.19,3.23,160.82,0,187.01,-0.69
KLaL_cation_pi_RCCE_opt_2p7.xyz,Nucleus 50C :,-0.07021,3.65851,-16.85674,20.1,-73.66,13.34,120.63,127.57,220.79,261.68,-33.82,-217.06,-298.84,-73.66,13.34,120.63,0,194.29,-0.1
KLaL_cation_pi_RCCE_opt_2p7.xyz,Nucleus 51C :,-0.64706,3.48323,-14.92389,28.38,-58.02,104.22,38.94,153.8,299.18,272.94,-82.74,-227.54,-330.5,-58.02,38.94,104.22,0,162.24,0.2
KLaL_cation_pi_RCCE_opt_2p7.xyz,Nucleus 57C :,-0.16135,1.69658,-15.68304,27.79,124.93,-26.31,-15.24,231.54,267.97,306.83,-114.93,-279.49,-328.54,-26.31,-15.24,124.93,0,151.24,-0.85
KLaL_cation_pi_RCCE_opt_2p7.xyz,Nucleus 52N :,-0.9608,4.13763,-13.83124,170.93,107.7,184.95,220.13,414.1,342.83,311.35,-265.28,-144.28,-145.94,107.7,184.95,220.13,0,112.43,0.37
KLaL_cation_pi_RCCE_opt_2p7.xyz,Nucleus 54N :,-0.9621,5.14135,-13.79599,178.77,231.24,181.75,123.32,201.83,314.29,367.91,-20.3,-192.7,-134.72,123.32,181.75,231.24,0,107.92,0.08
KLaL_cation_pi_RCCE_opt_2p7.xyz,Nucleus 59N :,-1.16151,3.64139,-12.97253,178.47,230.86,181.98,122.58,400.1,318.79,354.08,-212.46,-229.95,-95.15,122.58,181.98,230.86,0,108.28,0.1
KLaL_cation_pi_RCCE_opt_2p8.xyz,Nucleus 3H :,1.85056,-3.65399,-14.42354,27.78,34.25,25.21,23.89,-79.21,77.69,13.82,105.54,-47.35,12.85,23.89,25.21,34.25,0,10.36,-0.74
KLaL_cation_pi_RCCE_opt_2p8.xyz,Nucleus 4H :,-1.00867,-3.16908,-13.28325,26.91,23.61,27.2,29.92,84.4,-59.56,6.59,-57.17,84.62,21.86,23.61,27.2,29.92,0,6.31,0.14
KLaL_cation_pi_RCCE_opt_2p8.xyz,Nucleus 7H :,2.41198,-2.20461,-16.88088,24.47,29.6,20.82,22.99,-32.38,51.81,91.91,56.8,-25.93,-68.82,20.82,22.99,29.6,0,8.78,-0.51
KLaL_cation_pi_RCCE_opt_2p8.xyz,Nucleus 9H :,3.34765,-1.9455,-17.38756,25.08,22.42,25.57,27.25,17.12,89.75,66.86,8.87,-63.5,-43.86,22.42,25.57,27.25,0,4.83,0.3
KLaL_cation_pi_RCCE_opt_2p8.xyz,Nucleus 11H :,2.39691,-3.29532,-16.81784,24.35,29.63,20.75,22.66,125.05,65.48,32.68,-101.09,-9.33,-39.75,20.75,22.66,29.63,0,8.88,-0.57
KLaL_cation_pi_RCCE_opt_2p8.xyz,Nucleus 14H :,2.4252,-1.57784,-15.50033,26.26,29.57,23.25,25.97,15.63,96.61,71.58,10.29,-72.26,-43.06,23.25,25.97,29.57,0,6.32,-0.14
KLaL_cation_pi_RCCE_opt_2p8.xyz,Nucleus 15H :,2.68791,-0.21348,-15.39687,28.0,34.52,25.52,23.96,133.68,35.86,64.84,-106.85,-2.91,-40.63,23.96,25.52,34.52,0,10.56,-0.7
KLaL_cation_pi_RCCE_opt_2p8.xyz,Nucleus 18H :,2.98968,0.34051,-16.28164,23.84,28.24,22.56,20.71,119.83,89.17,37.81,-97.84,-66.39,-11.06,20.71,22.56,28.24,0,7.53,-0.51
KLaL_cation_pi_RCCE_opt_2p8.xyz,Nucleus 20H :,2.57849,0.43438,-14.17723,24.51,21.13,26.7,25.71,35.87,90.44,106.97,-63.83,-85.51,-10.41,21.13,25.71,26.7,0,5.57,0.65
KLaL_cation_pi_RCCE_opt_2p8.xyz,Nucleus 22H :,2.82822,1.48929,-14.10622,24.12,28.63,23.03,20.69,118.27,24.62,76.93,2.75,-95.17,-55.05,20.69,23.03,28.63,0,7.94,-0.41
KLaL_cation_pi_RCCE_opt_2p8.xyz,Nucleus 29H :,2.14561,-0.24168,-13.06379,27.63,34.2,25.08,23.61,126.48,8.25,33.79,-98.41,22.64,-9.87,23.61,25.08,34.2,0,10.59,-0.72
KLaL_cation_pi_RCCE_opt_2p8.xyz,Nucleus 30H :,2.02109,0.28044,-12.11936,27.03,23.55,27.57,29.96,4.0,91.11,67.19,23.34,-66.14,-38.43,23.55,27.57,29.96,0,6.41,0.25
KLaL_cation_pi_RCCE_opt_2p8.xyz,Nucleus 33H :,1.85668,-1.6211,-13.12241,24.18,29.41,20.54,22.59,123.37,33.81,6.81,-99.66,-8.25,16.44,20.54,22.59,29.41,0,8.87,-0.54
KLaL_cation_pi_RCCE_opt_2p8.xyz,Nucleus 35H :,1.26442,-2.28521,-11.89554,24.68,21.89,25.0,27.14,89.67,-17.11,9.64,-64.55,42.6,13.78,21.89,25.0,27.14,0,5.25,0.18
KLaL_cation_pi_RCCE_opt_2p8.xyz,Nucleus 37H :,1.23472,-3.36627,-12.0504,24.25,29.63,20.5,22.61,-68.98,84.68,17.01,94.09,-61.63,7.57,20.5,22.61,29.63,0,9.13,-0.54
KLaL_cation_pi_RCCE_opt_2p8.xyz,Nucleus 40H :,1.91674,-2.09261,-11.03742,27.14,23.85,30.04,27.54,60.77,-70.35,-16.23,-32.55,94.2,45.59,23.85,27.54,30.04,0,6.19,0.19
KLaL_cation_pi_RCCE_opt_2p8.xyz,Nucleus 41H :,-0.11608,-1.76989,-11.58662,27.59,34.27,25.01,23.49,-112.1,58.2,-29.77,136.83,-24.66,54.25,23.49,25.01,34.27,0,10.78,-0.72
KLaL_cation_pi_RCCE_opt_2p8.xyz,Nucleus 44H :,-0.34726,-0.74504,-10.66249,23.98,28.46,22.82,20.65,-83.32,-28.97,61.88,-36.44,104.77,54.01,20.65,22.82,28.46,0,7.81,-0.45
KLaL_cation_pi_RCCE_opt_2p8.xyz,Nucleus 46H :,0.48968,-0.37756,-10.07614,24.44,21.05,26.64,25.62,69.03,-28.19,-76.05,-43.64,54.78,97.4,21.05,25.62,26.64,0,5.59,0.63
KLaL_cation_pi_RCCE_opt_2p8.xyz,Nucleus 48H :,-1.61623,-0.22215,-10.4753,23.9,28.38,22.67,20.66,64.13,-39.81,-16.93,-38.44,62.52,40.23,20.66,22.67,28.38,0,7.72,-0.48
KLaL_cation_pi_RCCE_opt_2p8.xyz,Nucleus 53H :,-1.78286,0.55559,-9.73755,28.66,37.01,23.18,25.79,19.23,120.6,93.62,6.65,-96.43,-57.69,23.18,25.79,37.01,0,13.83,-0.62
KLaL_cation_pi_RCCE_opt_2p8.xyz,Nucleus 55H :,-2.67282,-0.71904,-11.20753,27.17,20.65,24.56,36.3,-51.91,22.01,66.6,73.37,3.77,-32.34,20.65,24.56,36.3,0,15.65,-0.5
KLaL_cation_pi_RCCE_opt_2p8.xyz,Nucleus 56H :,-3.67284,-0.32653,-11.04041,27.11,20.29,34.31,26.72,-80.15,23.96,64.85,100.64,7.19,-35.17,20.29,26.72,34.31,0,14.02,-0.08
KLaL_cation_pi_RCCE_opt_2p8.xyz,Nucleus 58H :,-2.50759,-1.75085,-12.13052,28.71,37.11,23.14,25.87,11.02,37.55,80.61,-54.4,12.64,-1.29,23.14,25.87,37.11,0,13.97,-0.61
KLaL_cation_pi_RCCE_opt_2p8.xyz,Nucleus 60H :,-1.21105,-2.26606,-12.34584,27.16,36.27,20.65,24.55,75.12,51.4,21.05,-49.78,-25.87,9.55,20.65,24.55,36.27,0,15.62,-0.5
KLaL_cation_pi_RCCE_opt_2p8.xyz,Nucleus 61H :,2.06614,-2.26271,-14.33433,27.08,20.26,34.28,26.69,145.91,17.88,72.51,-125.12,10.01,-39.96,20.26,26.69,34.28,0,14.02,-0.08
KLaL_cation_pi_RCCE_opt_2p8.xyz,Nucleus 62H :,-3.05617,-3.70143,-15.43508,25.82,37.65,17.9,21.92,19.35,38.76,67.54,-42.5,-9.18,3.5,17.9,21.92,37.65,0,19.75,-0.59
KLaL_cation_pi_RCCE_opt_2p8.xyz,Nucleus 63H :,-0.20716,-3.15713,-16.57412,24.76,35.97,23.24,15.07,87.91,46.28,10.33,-54.44,-22.28,6.48,15.07,23.24,35.97,0,20.9,-0.22
KLaL_cation_pi_RCCE_opt_2p8.xyz,Nucleus 64H :,-3.64618,-2.26946,-12.97424,27.85,41.96,19.78,21.81,78.54,-20.26,8.0,-38.38,41.66,14.0,19.78,21.81,41.96,0,22.18,-0.82
KLaL_cation_pi_RCCE_opt_2p8.xyz,Nucleus 65H :,-4.58558,-2.02912,-12.46536,24.39,36.67,22.95,13.55,53.16,31.58,20.24,-35.39,5.21,-1.64,13.55,22.95,36.67,0,23.12,-0.19
KLaL_cation_pi_RCCE_opt_2p8.xyz,Nucleus 2C :,-3.63086,-3.36289,-13.04152,151.51,134.71,163.36,156.46,299.56,167.82,207.26,-145.35,-6.19,-68.57,134.71,156.46,163.36,0,28.65,0.52
KLaL_cation_pi_RCCE_opt_2p8.xyz,Nucleus 5C :,-3.67186,-1.63971,-14.35326,40.61,161.28,6.53,-45.99,313.59,255.31,280.83,-106.46,-302.48,-318.97,-45.99,6.53,161.28,0,207.27,-0.49
KLaL_cation_pi_RCCE_opt_2p8.xyz,Nucleus 6C :,-3.9616,-0.28059,-14.4534,50.08,163.64,-55.49,42.08,236.87,319.22,285.33,-90.2,-362.52,-238.47,-55.49,42.08,163.64,0,219.13,-0.11
KLaL_cation_pi_RCCE_opt_2p8.xyz,Nucleus 8C :,-4.26639,0.26235,-13.56389,59.82,173.77,-51.24,56.94,313.87,248.14,280.6,-90.62,-338.36,-234.16,-51.24,56.94,173.77,0,225.01,-0.04
KLaL_cation_pi_RCCE_opt_2p8.xyz,Nucleus 10C :,-3.86508,0.37227,-15.67146,46.99,164.22,36.92,-60.17,233.64,324.16,290.45,-106.86,-333.48,-266.95,-60.17,36.92,164.22,0,224.39,-0.13
KLaL_cation_pi_RCCE_opt_2p8.xyz,Nucleus 12C :,-4.13466,1.42199,-15.74103,39.94,162.92,-42.02,-1.08,231.53,277.54,291.47,-80.91,-326.53,-273.28,-42.02,-1.08,162.92,0,204.94,-0.6
KLaL_cation_pi_RCCE_opt_2p8.xyz,Nucleus 13C :,-3.41889,-0.29236,-16.78652,152.01,134.21,164.29,157.54,345.46,241.82,298.11,-86.35,-181.24,-161.77,134.21,157.54,164.29,0,30.08,0.55
KLaL_cation_pi_RCCE_opt_2p8.xyz,Nucleus 16C :,-3.30176,0.23385,-17.72915,43.45,160.36,-29.87,-0.15,325.53,253.05,274.07,-94.0,-355.09,-273.24,-29.87,-0.15,160.36,0,190.23,-0.69
KLaL_cation_pi_RCCE_opt_2p8.xyz,Nucleus 17C :,-3.10266,-1.66591,-16.73126,46.18,-59.55,42.66,155.43,336.86,290.07,261.92,-371.35,-248.87,-130.1,-59.55,42.66,155.43,0,214.98,-0.05
KLaL_cation_pi_RCCE_opt_2p8.xyz,Nucleus 19C :,-2.49736,-2.31516,-17.95972,61.73,174.2,56.21,-45.22,331.92,248.91,289.14,-113.01,-273.17,-298.6,-45.22,56.21,174.2,0,219.42,-0.08
KLaL_cation_pi_RCCE_opt_2p8.xyz,Nucleus 21C :,-2.47907,-3.407,-17.86462,50.18,-53.18,48.01,155.71,349.56,264.7,271.39,-387.07,-112.07,-235.98,-53.18,48.01,155.71,0,208.89,-0.03
KLaL_cation_pi_RCCE_opt_2p8.xyz,Nucleus 23C :,-3.14888,-2.11605,-18.81737,48.36,-29.74,19.93,154.89,321.84,268.73,285.88,-119.98,-345.09,-266.29,-29.74,19.93,154.89,0,184.63,-0.46
KLaL_cation_pi_RCCE_opt_2p8.xyz,Nucleus 24C :,-1.12737,-1.77181,-18.26735,18.5,120.22,9.05,-73.78,238.83,328.03,316.51,-145.29,-313.44,-369.15,-73.78,9.05,120.22,0,194.0,-0.15
KLaL_cation_pi_RCCE_opt_2p8.xyz,Nucleus 25C :,-0.91658,-0.74033,-19.18898,19.84,109.24,-63.23,13.51,212.69,290.61,283.98,-113.02,-267.79,-346.93,-63.23,13.51,109.24,0,172.47,-0.11
KLaL_cation_pi_RCCE_opt_2p8.xyz,Nucleus 28C :,-1.75776,-0.38293,-19.77633,152.45,135.37,157.23,164.75,328.15,218.64,275.13,-73.16,-165.94,-125.49,135.37,157.23,164.75,0,29.38,0.49
KLaL_cation_pi_RCCE_opt_2p8.xyz,Nucleus 31C :,0.34176,-0.19192,-19.37488,39.11,163.09,-0.15,-45.6,202.78,288.97,257.58,-61.85,-250.67,-319.47,-45.6,-0.15,163.09,0,208.69,-0.56
KLaL_cation_pi_RCCE_opt_2p8.xyz,Nucleus 32C :,0.49023,0.59144,-20.11041,46.54,164.19,-58.02,33.46,209.0,320.18,269.55,-106.02,-261.4,-291.66,-58.02,33.46,164.19,0,222.21,-0.18
KLaL_cation_pi_RCCE_opt_2p8.xyz,Nucleus 34C :,1.40802,-0.66952,-18.64383,52.79,175.81,-59.76,42.32,321.5,202.2,249.03,-62.69,-344.31,-207.37,-59.76,42.32,175.81,0,235.57,-0.13
KLaL_cation_pi_RCCE_opt_2p8.xyz,Nucleus 36C :,2.40209,-0.26185,-18.80495,46.5,164.86,32.59,-57.94,183.72,318.01,256.27,-62.75,-347.65,-208.09,-57.94,32.59,164.86,0,222.8,-0.19
KLaL_cation_pi_RCCE_opt_2p8.xyz,Nucleus 38C :,1.26331,-1.70665,-17.72336,41.04,162.74,-43.37,3.75,220.36,296.36,329.43,-120.69,-277.95,-324.39,-43.37,3.75,162.74,0,206.11,-0.54
KLaL_cation_pi_RCCE_opt_2p8.xyz,Nucleus 39C :,-0.02275,-2.248,-17.50932,153.48,136.74,165.97,157.72,271.25,141.32,196.6,19.19,-113.47,-54.46,136.74,157.72,165.97,0,29.23,0.44
KLaL_cation_pi_RCCE_opt_2p8.xyz,Nucleus 42C :,-3.29932,-2.31449,-15.5209,46.96,155.32,-31.46,17.02,187.0,228.31,274.88,-47.04,-267.05,-235.23,-31.46,17.02,155.32,0,186.78,-0.48
KLaL_cation_pi_RCCE_opt_2p8.xyz,Nucleus 43C :,-0.634,2.26673,-14.92549,48.26,-55.93,44.79,155.92,165.53,213.67,284.46,-296.19,-171.02,-51.66,-55.93,44.79,155.92,0,211.85,-0.05
KLaL_cation_pi_RCCE_opt_2p8.xyz,Nucleus 45C :,-0.61955,1.77925,-14.04083,60.61,174.6,53.89,-46.65,201.72,227.87,286.5,-31.29,-173.48,-329.48,-46.65,53.89,174.6,0,221.25,-0.09
KLaL_cation_pi_RCCE_opt_2p8.xyz,Nucleus 47C :,-0.34639,4.24638,-16.01492,47.48,-56.81,43.71,155.53,287.24,187.38,223.29,-289.64,-194.97,-70.87,-56.81,43.71,155.53,0,212.34,-0.05
KLaL_cation_pi_RCCE_opt_2p8.xyz,Nucleus 49C :,-0.35573,5.25022,-16.04481,45.99,160.81,-26.22,3.37,221.05,257.41,259.02,-94.49,-236.24,-268.8,-26.22,3.37,160.81,0,187.03,-0.68
KLaL_cation_pi_RCCE_opt_2p8.xyz,Nucleus 50C :,-0.07021,3.75851,-16.85674,20.08,-73.74,13.36,120.61,127.96,220.67,261.73,-33.91,-216.71,-299.49,-73.74,13.36,120.61,0,194.35,-0.1
KLaL_cation_pi_RCCE_opt_2p8.xyz,Nucleus 51C :,-0.64706,3.58323,-14.92389,28.36,-58.09,104.2,38.97,153.86,299.37,273.28,-82.77,-227.55,-331.1,-58.09,38.97,104.2,0,162.29,0.2
KLaL_cation_pi_RCCE_opt_2p8.xyz,Nucleus 57C :,-0.16135,1.79658,-15.68304,27.69,124.85,-26.25,-15.52,231.32,267.75,306.21,-114.68,-279.6,-327.94,-26.25,-15.52,124.85,0,151.1,-0.86
KLaL_cation_pi_RCCE_opt_2p8.xyz,Nucleus 52N :,-0.9608,4.23763,-13.83124,171.44,108.47,184.6,221.24,413.05,342.27,311.83,-263.28,-143.64,-145.92,108.47,184.6,221.24,0,112.77,0.35
KLaL_cation_pi_RCCE_opt_2p8.xyz,Nucleus 54N :,-0.9621,5.24135,-13.79599,178.6,231.1,181.74,122.97,201.63,313.99,367.21,-20.11,-192.64,-134.27,122.97,181.74,231.1,0,108.13,0.09
KLaL_cation_pi_RCCE_opt_2p8.xyz,Nucleus 59N :,-1.16151,3.74139,-12.97253,178.31,230.72,181.97,122.23,399.34,318.83,353.43,-211.66,-229.69,-95.32,122.23,181.97,230.72,0,108.49,0.1
KLaL_cation_pi_RCCE_opt_2p9.xyz,Nucleus 3H :,1.85056,-3.65399,-14.42354,27.8,34.24,25.23,23.94,-79.16,77.66,13.72,105.52,-47.33,13.0,23.94,25.23,34.24,0,10.3,-0.75
KLaL_cation_pi_RCCE_opt_2p9.xyz,Nucleus 4H :,-1.00867,-3.16908,-13.28325,26.92,23.62,27.21,29.92,84.38,-59.43,6.48,-57.18,84.5,22.02,23.62,27.21,29.92,0,6.3,0.14
KLaL_cation_pi_RCCE_opt_2p9.xyz,Nucleus 7H :,2.41198,-2.20461,-16.88088,24.47,29.63,20.82,22.96,-32.31,51.67,91.56,56.74,-25.79,-68.47,20.82,22.96,29.63,0,8.81,-0.51
KLaL_cation_pi_RCCE_opt_2p9.xyz,Nucleus 9H :,3.34765,-1.9455,-17.38756,25.09,22.43,25.58,27.27,17.25,89.55,66.65,8.74,-63.31,-43.61,22.43,25.58,27.27,0,4.84,0.3
KLaL_cation_pi_RCCE_opt_2p9.xyz,Nucleus 11H :,2.39691,-3.29532,-16.81784,24.34,29.64,20.72,22.66,125.0,65.34,32.75,-101.06,-9.37,-39.63,20.72,22.66,29.64,0,8.92,-0.57
KLaL_cation_pi_RCCE_opt_2p9.xyz,Nucleus 14H :,2.4252,-1.57784,-15.50033,26.26,29.56,23.25,25.98,15.64,96.55,71.53,10.29,-72.2,-43.01,23.25,25.98,29.56,0,6.31,-0.13
KLaL_cation_pi_RCCE_opt_2p9.xyz,Nucleus 15H :,2.68791,-0.21348,-15.39687,27.99,34.52,25.52,23.94,133.67,35.89,64.77,-106.83,-2.94,-40.57,23.94,25.52,34.52,0,10.58,-0.7
KLaL_cation_pi_RCCE_opt_2p9.xyz,Nucleus 18H :,2.98968,0.34051,-16.28164,23.83,28.25,22.55,20.7,119.75,89.1,37.83,-97.78,-66.33,-11.07,20.7,22.55,28.25,0,7.55,-0.51
KLaL_cation_pi_RCCE_opt_2p9.xyz,Nucleus 20H :,2.57849,0.43438,-14.17723,24.51,21.12,26.7,25.7,35.9,90.29,107.05,-63.67,-85.6,-10.45,21.12,25.7,26.7,0,5.58,0.64
KLaL_cation_pi_RCCE_opt_2p9.xyz,Nucleus 22H :,2.82822,1.48929,-14.10622,24.12,28.64,23.02,20.69,118.11,24.65,76.99,2.73,-95.03,-55.09,20.69,23.02,28.64,0,7.95,-0.42
KLaL_cation_pi_RCCE_opt_2p9.xyz,Nucleus 29H :,2.14561,-0.24168,-13.06379,27.64,34.2,25.09,23.62,126.4,8.27,33.92,-98.34,22.63,-9.98,23.62,25.09,34.2,0,10.58,-0.72
KLaL_cation_pi_RCCE_opt_2p9.xyz,Nucleus 30H :,2.02109,0.28044,-12.11936,27.03,23.55,27.58,29.96,4.02,91.06,67.27,23.33,-66.1,-38.5,23.55,27.58,29.96,0,6.41,0.26
KLaL_cation_pi_RCCE_opt_2p9.xyz,Nucleus 33H :,1.85668,-1.6211,-13.12241,24.17,29.42,20.5,22.59,123.1,34.35,6.92,-99.42,-8.78,16.34,20.5,22.59,29.42,0,8.92,-0.53
KLaL_cation_pi_RCCE_opt_2p9.xyz,Nucleus 35H :,1.26442,-2.28521,-11.89554,24.68,21.89,25.01,27.15,89.54,-16.42,9.88,-64.44,41.91,13.57,21.89,25.01,27.15,0,5.26,0.19
KLaL_cation_pi_RCCE_opt_2p9.xyz,Nucleus 37H :,1.23472,-3.36627,-12.0504,24.26,29.65,20.51,22.62,-68.13,84.66,17.13,93.26,-61.59,7.46,20.51,22.62,29.65,0,9.14,-0.54
KLaL_cation_pi_RCCE_opt_2p9.xyz,Nucleus 40H :,1.91674,-2.09261,-11.03742,27.15,23.87,30.03,27.54,60.8,-70.25,-16.11,-32.59,94.13,45.46,23.87,27.54,30.03,0,6.16,0.19
KLaL_cation_pi_RCCE_opt_2p9.xyz,Nucleus 41H :,-0.11608,-1.76989,-11.58662,27.58,34.26,25.02,23.45,-112.01,58.22,-29.59,136.75,-24.68,54.04,23.45,25.02,34.26,0,10.81,-0.71
KLaL_cation_pi_RCCE_opt_2p9.xyz,Nucleus 44H :,-0.34726,-0.74504,-10.66249,24.0,28.47,22.83,20.69,-83.18,-28.6,61.93,-36.5,104.68,53.66,20.69,22.83,28.47,0,7.78,-0.45
KLaL_cation_pi_RCCE_opt_2p9.xyz,Nucleus 46H :,0.48968,-0.37756,-10.07614,24.46,21.08,26.66,25.63,68.98,-27.84,-76.16,-43.61,54.44,97.55,21.08,25.63,26.66,0,5.58,0.63
KLaL_cation_pi_RCCE_opt_2p9.xyz,Nucleus 48H :,-1.61623,-0.22215,-10.4753,23.92,28.39,22.68,20.68,64.05,-39.66,-16.89,-38.37,62.35,40.28,20.68,22.68,28.39,0,7.71,-0.48
KLaL_cation_pi_RCCE_opt_2p9.xyz,Nucleus 53H :,-1.78286,0.55559,-9.73755,28.54,36.93,22.93,25.76,19.62,120.73,92.79,6.26,-96.85,-56.93,22.93,25.76,36.93,0,14.0,-0.6
KLaL_cation_pi_RCCE_opt_2p9.xyz,Nucleus 55H :,-2.67282,-0.71904,-11.20753,27.14,20.64,24.54,36.24,-52.67,21.97,66.05,74.1,3.78,-31.81,20.64,24.54,36.24,0,15.6,-0.5
KLaL_cation_pi_RCCE_opt_2p9.xyz,Nucleus 56H :,-3.67284,-0.32653,-11.04041,27.07,20.28,34.27,26.67,-80.48,23.83,64.07,100.96,7.17,-34.34,20.28,26.67,34.27,0,13.99,-0.09
KLaL_cation_pi_RCCE_opt_2p9.xyz,Nucleus 58H :,-2.50759,-1.75085,-12.13052,28.59,37.03,22.89,25.84,11.02,37.31,79.02,-52.84,12.35,-1.1,22.89,25.84,37.03,0,14.14,-0.58
KLaL_cation_pi_RCCE_opt_2p9.xyz,Nucleus 60H :,-1.21105,-2.26606,-12.34584,27.13,36.22,20.65,24.53,74.4,50.9,20.98,9.53,-48.99,-25.42,20.65,24.53,36.22,0,15.57,-0.5
KLaL_cation_pi_RCCE_opt_2p9.xyz,Nucleus 61H :,2.06614,-2.26271,-14.33433,27.03,20.23,34.23,26.64,145.77,18.08,71.8,-125.01,9.8,-39.34,20.23,26.64,34.23,0,14.0,-0.08
KLaL_cation_pi_RCCE_opt_2p9.xyz,Nucleus 62H :,-3.05617,-3.70143,-15.43508,25.81,37.65,17.85,21.93,19.28,38.7,67.51,-42.51,-9.1,3.55,17.85,21.93,37.65,0,19.8,-0.59
KLaL_cation_pi_RCCE_opt_2p9.xyz,Nucleus 63H :,-0.20716,-3.15713,-16.57412,24.77,35.97,23.25,15.09,87.93,46.41,10.32,-54.45,-22.41,6.51,15.09,23.25,35.97,0,20.88,-0.22
KLaL_cation_pi_RCCE_opt_2p9.xyz,Nucleus 64H :,-3.64618,-2.26946,-12.97424,27.86,41.96,19.8,21.82,78.54,-20.22,8.05,-38.39,41.64,13.97,19.8,21.82,41.96,0,22.16,-0.82
KLaL_cation_pi_RCCE_opt_2p9.xyz,Nucleus 65H :,-4.58558,-2.02912,-12.46536,24.4,36.7,22.97,13.54,53.09,31.52,20.17,-35.4,5.35,-1.53,13.54,22.97,36.7,0,23.16,-0.19
KLaL_cation_pi_RCCE_opt_2p9.xyz,Nucleus 2C :,-3.63086,-3.36289,-13.04152,151.56,134.79,163.37,156.51,299.59,167.66,207.11,-145.33,-6.0,-68.36,134.79,156.51,163.37,0,28.58,0.52
KLaL_cation_pi_RCCE_opt_2p9.xyz,Nucleus 5C :,-3.67186,-1.63971,-14.35326,40.7,161.25,6.78,-45.92,313.43,255.63,280.61,-106.61,-302.17,-318.77,-45.92,6.78,161.25,0,207.17,-0.49
KLaL_cation_pi_RCCE_opt_2p9.xyz,Nucleus 6C :,-3.9616,-0.28059,-14.4534,49.98,163.56,-55.67,42.04,236.46,318.63,285.64,-89.99,-362.34,-238.47,-55.67,42.04,163.56,0,219.23,-0.11
KLaL_cation_pi_RCCE_opt_2p9.xyz,Nucleus 8C :,-4.26639,0.26235,-13.56389,59.98,173.62,-51.05,57.38,313.63,248.4,280.41,-90.93,-337.94,-233.63,-51.05,57.38,173.62,0,224.67,-0.03
KLaL_cation_pi_RCCE_opt_2p9.xyz,Nucleus 10C :,-3.86508,0.37227,-15.67146,46.91,164.17,36.89,-60.32,234.17,324.35,289.77,-107.15,-333.69,-266.71,-60.32,36.89,164.17,0,224.49,-0.13
KLaL_cation_pi_RCCE_opt_2p9.xyz,Nucleus 12C :,-4.13466,1.42199,-15.74103,40.02,162.88,-41.97,-0.84,231.74,277.65,290.86,-81.05,-326.36,-272.75,-41.97,-0.84,162.88,0,204.85,-0.6
KLaL_cation_pi_RCCE_opt_2p9.xyz,Nucleus 13C :,-3.41889,-0.29236,-16.78652,151.98,134.19,164.27,157.48,345.47,241.83,297.99,-86.38,-181.27,-161.72,134.19,157.48,164.27,0,30.08,0.55
KLaL_cation_pi_RCCE_opt_2p9.xyz,Nucleus 16C :,-3.30176,0.23385,-17.72915,43.47,160.35,-29.9,-0.04,325.83,253.21,273.86,-94.12,-355.41,-272.97,-29.9,-0.04,160.35,0,190.25,-0.69
KLaL_cation_pi_RCCE_opt_2p9.xyz,Nucleus 17C :,-3.10266,-1.66591,-16.73126,46.17,-59.6,42.74,155.38,336.67,290.12,262.03,-371.39,-248.83,-130.09,-59.6,42.74,155.38,0,214.98,-0.05
KLaL_cation_pi_RCCE_opt_2p9.xyz,Nucleus 19C :,-2.49736,-2.31516,-17.95972,61.72,174.12,56.29,-45.24,331.8,249.25,289.1,-112.97,-273.01,-299.0,-45.24,56.29,174.12,0,219.36,-0.07
KLaL_cation_pi_RCCE_opt_2p9.xyz,Nucleus 21C :,-2.47907,-3.407,-17.86462,50.19,-53.19,48.1,155.65,349.32,264.63,271.81,-387.03,-112.16,-236.0,-53.19,48.1,155.65,0,208.84,-0.03
KLaL_cation_pi_RCCE_opt_2p9.xyz,Nucleus 23C :,-3.14888,-2.11605,-18.81737,48.41,-29.72,20.08,154.87,322.14,268.69,285.75,-120.01,-345.28,-266.07,-29.72,20.08,154.87,0,184.59,-0.46
KLaL_cation_pi_RCCE_opt_2p9.xyz,Nucleus 24C :,-1.12737,-1.77181,-18.26735,18.46,120.16,9.06,-73.83,238.85,328.05,316.29,-145.31,-313.66,-368.84,-73.83,9.06,120.16,0,193.99,-0.15
KLaL_cation_pi_RCCE_opt_2p9.xyz,Nucleus 25C :,-0.91658,-0.74033,-19.18898,19.83,109.22,-63.31,13.57,212.89,290.51,283.75,-113.16,-267.66,-346.85,-63.31,13.57,109.22,0,172.53,-0.11
KLaL_cation_pi_RCCE_opt_2p9.xyz,Nucleus 28C :,-1.75776,-0.38293,-19.77633,152.45,135.38,157.21,164.76,328.07,218.7,275.15,-73.18,-165.84,-125.56,135.38,157.21,164.76,0,29.38,0.49
KLaL_cation_pi_RCCE_opt_2p9.xyz,Nucleus 31C :,0.34176,-0.19192,-19.37488,39.15,163.11,-0.07,-45.59,202.43,289.6,257.77,-61.7,-250.78,-319.87,-45.59,-0.07,163.11,0,208.7,-0.56
KLaL_cation_pi_RCCE_opt_2p9.xyz,Nucleus 32C :,0.49023,0.59144,-20.11041,46.52,164.15,-58.06,33.48,209.44,320.4,269.45,-106.42,-261.42,-291.87,-58.06,33.48,164.15,0,222.21,-0.18
KLaL_cation_pi_RCCE_opt_2p9.xyz,Nucleus 34C :,1.40802,-0.66952,-18.64383,52.9,175.71,-59.6,42.6,321.17,203.41,249.17,-63.36,-344.3,-207.4,-59.6,42.6,175.71,0,235.31,-0.13
KLaL_cation_pi_RCCE_opt_2p9.xyz,Nucleus 36C :,2.40209,-0.26185,-18.80495,46.49,164.8,32.65,-57.97,184.61,317.22,256.85,-63.03,-347.31,-208.86,-57.97,32.65,164.8,0,222.77,-0.19
KLaL_cation_pi_RCCE_opt_2p9.xyz,Nucleus 38C :,1.26331,-1.70665,-17.72336,41.06,162.7,-43.36,3.83,220.17,296.44,330.18,-120.55,-278.11,-324.96,-43.36,3.83,162.7,0,206.06,-0.54
KLaL_cation_pi_RCCE_opt_2p9.xyz,Nucleus 39C :,-0.02275,-2.248,-17.50932,153.45,136.72,165.97,157.66,271.29,141.32,196.8,19.17,-113.56,-54.67,136.72,157.66,165.97,0,29.25,0.43
KLaL_cation_pi_RCCE_opt_2p9.xyz,Nucleus 42C :,-3.29932,-2.31449,-15.5209,47.0,155.26,-31.42,17.17,187.57,228.24,275.12,-47.24,-267.27,-235.41,-31.42,17.17,155.26,0,186.68,-0.48
KLaL_cation_pi_RCCE_opt_2p9.xyz,Nucleus 43C :,-0.634,2.36673,-14.92549,48.32,-55.88,44.94,155.89,165.77,213.99,284.35,-296.17,-171.4,-51.59,-55.88,44.94,155.89,0,211.77,-0.05
KLaL_cation_pi_RCCE_opt_2p9.xyz,Nucleus 45C :,-0.61955,1.87925,-14.04083,60.65,174.54,54.03,-46.61,201.8,227.94,286.06,-31.51,-173.44,-328.89,-46.61,54.03,174.54,0,221.15,-0.09
KLaL_cation_pi_RCCE_opt_2p9.xyz,Nucleus 47C :,-0.34639,4.34638,-16.01492,47.49,-56.79,43.79,155.48,286.87,187.58,223.2,-288.87,-195.32,-70.98,-56.79,43.79,155.48,0,212.27,-0.05
KLaL_cation_pi_RCCE_opt_2p9.xyz,Nucleus 49C :,-0.35573,5.35022,-16.04481,46.04,160.82,-26.23,3.52,220.69,257.21,259.36,-94.39,-235.62,-269.14,-26.23,3.52,160.82,0,187.05,-0.68
KLaL_cation_pi_RCCE_opt_2p9.xyz,Nucleus 50C :,-0.07021,3.85851,-16.85674,20.08,-73.78,13.38,120.65,128.23,220.53,261.73,-33.93,-216.36,-299.94,-73.78,13.38,120.65,0,194.43,-0.1
KLaL_cation_pi_RCCE_opt_2p9.xyz,Nucleus 51C :,-0.64706,3.68323,-14.92389,28.34,-58.15,104.19,38.99,153.94,299.51,273.58,-82.78,-227.53,-331.68,-58.15,38.99,104.19,0,162.34,0.2
KLaL_cation_pi_RCCE_opt_2p9.xyz,Nucleus 57C :,-0.16135,1.89658,-15.68304,27.59,124.79,-26.19,-15.82,231.09,267.55,305.61,-114.38,-279.73,-327.34,-26.19,-15.82,124.79,0,150.98,-0.86
KLaL_cation_pi_RCCE_opt_2p9.xyz,Nucleus 52N :,-0.9608,4.33763,-13.83124,171.9,109.17,184.29,222.24,411.98,341.71,312.34,-261.37,-146.55,-142.41,109.17,184.29,222.24,0,113.07,0.33
KLaL_cation_pi_RCCE_opt_2p9.xyz,Nucleus 54N :,-0.9621,5.34135,-13.79599,178.42,230.94,181.73,122.6,201.41,313.72,366.51,-19.9,-192.63,-133.85,122.6,181.73,230.94,0,108.34,0.09
KLaL_cation_pi_RCCE_opt_2p9.xyz,Nucleus 59N :,-1.16151,3.84139,-12.97253,178.13,230.56,181.97,121.87,398.62,318.88,352.76,-210.89,-229.46,-95.51,121.87,181.97,230.56,0,108.69,0.11
KLaL_cation_pi_RCCE_opt_3p0.xyz,Nucleus 3H :,1.85056,-3.65399,-14.42354,27.81,34.24,25.24,23.94,-79.09,77.63,13.63,105.46,-47.31,13.09,23.94,25.24,34.24,0,10.3,-0.75
KLaL_cation_pi_RCCE_opt_3p0.xyz,Nucleus 4H :,-1.00867,-3.16908,-13.28325,26.92,23.63,27.21,29.92,84.37,-59.29,6.36,-57.18,84.36,22.13,23.63,27.21,29.92,0,6.29,0.14
KLaL_cation_pi_RCCE_opt_3p0.xyz,Nucleus 7H :,2.41198,-2.20461,-16.88088,24.47,29.65,20.8,22.95,-32.3,51.54,91.24,56.73,-25.66,-68.13,20.8,22.95,29.65,0,8.85,-0.52
KLaL_cation_pi_RCCE_opt_3p0.xyz,Nucleus 9H :,3.34765,-1.9455,-17.38756,25.1,22.43,25.58,27.29,17.36,89.33,66.44,8.62,-63.09,-43.36,22.43,25.58,27.29,0,4.86,0.3
KLaL_cation_pi_RCCE_opt_3p0.xyz,Nucleus 11H :,2.39691,-3.29532,-16.81784,24.34,29.67,20.71,22.65,124.96,65.22,32.79,-101.02,-9.4,-39.52,20.71,22.65,29.67,0,8.96,-0.57
KLaL_cation_pi_RCCE_opt_3p0.xyz,Nucleus 14H :,2.4252,-1.57784,-15.50033,26.27,29.56,23.26,25.98,15.66,96.5,71.51,10.26,-72.16,-42.98,23.26,25.98,29.56,0,6.3,-0.14
KLaL_cation_pi_RCCE_opt_3p0.xyz,Nucleus 15H :,2.68791,-0.21348,-15.39687,28.0,34.51,25.53,23.95,133.63,35.91,64.7,-106.78,-2.97,-40.5,23.95,25.53,34.51,0,10.56,-0.7
KLaL_cation_pi_RCCE_opt_3p0.xyz,Nucleus 18H :,2.98968,0.34051,-16.28164,23.84,28.26,22.54,20.72,119.68,89.02,37.85,-97.72,-66.23,-11.09,20.72,22.54,28.26,0,7.54,-0.52
KLaL_cation_pi_RCCE_opt_3p0.xyz,Nucleus 20H :,2.57849,0.43438,-14.17723,24.52,21.13,26.72,25.7,35.93,90.15,107.14,-63.51,-85.68,-10.49,21.13,25.7,26.72,0,5.59,0.63
KLaL_cation_pi_RCCE_opt_3p0.xyz,Nucleus 22H :,2.82822,1.48929,-14.10622,24.12,28.65,23.02,20.7,117.96,24.67,77.04,2.7,-94.88,-55.12,20.7,23.02,28.65,0,7.95,-0.42
KLaL_cation_pi_RCCE_opt_3p0.xyz,Nucleus 29H :,2.14561,-0.24168,-13.06379,27.64,34.19,25.09,23.63,126.31,8.29,34.02,-98.24,22.61,-10.08,23.63,25.09,34.19,0,10.56,-0.72
KLaL_cation_pi_RCCE_opt_3p0.xyz,Nucleus 30H :,2.02109,0.28044,-12.11936,27.03,23.56,27.58,29.95,4.04,91.04,67.33,23.31,-66.08,-38.56,23.56,27.58,29.95,0,6.39,0.26
KLaL_cation_pi_RCCE_opt_3p0.xyz,Nucleus 33H :,1.85668,-1.6211,-13.12241,24.17,29.44,20.48,22.59,122.86,34.84,7.01,-99.18,-9.27,16.25,20.48,22.59,29.44,0,8.96,-0.53
KLaL_cation_pi_RCCE_opt_3p0.xyz,Nucleus 35H :,1.26442,-2.28521,-11.89554,24.69,21.88,25.02,27.17,89.41,-15.75,10.11,-64.33,41.26,13.36,21.88,25.02,27.17,0,5.29,0.19
KLaL_cation_pi_RCCE_opt_3p0.xyz,Nucleus 37H :,1.23472,-3.36627,-12.0504,24.26,29.67,20.48,22.62,-67.36,84.65,17.22,92.48,-61.58,7.36,20.48,22.62,29.67,0,9.19,-0.54
KLaL_cation_pi_RCCE_opt_3p0.xyz,Nucleus 40H :,1.91674,-2.09261,-11.03742,27.15,23.87,30.03,27.54,60.83,-70.17,-16.0,-32.62,94.05,45.36,23.87,27.54,30.03,0,6.16,0.19
KLaL_cation_pi_RCCE_opt_3p0.xyz,Nucleus 41H :,-0.11608,-1.76989,-11.58662,27.58,34.26,25.03,23.46,-111.92,58.24,-29.43,136.67,-24.7,53.89,23.46,25.03,34.26,0,10.8,-0.71
KLaL_cation_pi_RCCE_opt_3p0.xyz,Nucleus 44H :,-0.34726,-0.74504,-10.66249,24.0,28.48,22.83,20.69,-83.06,-28.25,61.97,-36.55,104.55,53.34,20.69,22.83,28.48,0,7.79,-0.45
KLaL_cation_pi_RCCE_opt_3p0.xyz,Nucleus 46H :,0.48968,-0.37756,-10.07614,24.46,21.08,26.67,25.63,68.93,-27.51,-76.29,-43.57,54.13,97.69,21.08,25.63,26.67,0,5.59,0.63
KLaL_cation_pi_RCCE_opt_3p0.xyz,Nucleus 48H :,-1.61623,-0.22215,-10.4753,23.92,28.4,22.67,20.69,63.97,-39.56,-16.81,-38.3,62.19,40.27,20.69,22.67,28.4,0,7.71,-0.49
KLaL_cation_pi_RCCE_opt_3p0.xyz,Nucleus 53H :,-1.78286,0.55559,-9.73755,28.43,36.86,22.69,25.74,19.96,120.89,91.95,5.91,-97.27,-56.14,22.69,25.74,36.86,0,14.17,-0.57
KLaL_cation_pi_RCCE_opt_3p0.xyz,Nucleus 55H :,-2.67282,-0.71904,-11.20753,27.11,20.63,24.52,36.19,-53.43,21.94,65.51,74.83,3.79,-31.29,20.63,24.52,36.19,0,15.56,-0.5
KLaL_cation_pi_RCCE_opt_3p0.xyz,Nucleus 56H :,-3.67284,-0.32653,-11.04041,27.04,20.26,34.23,26.62,-80.8,23.72,63.32,101.27,7.14,-33.53,20.26,26.62,34.23,0,13.97,-0.09
KLaL_cation_pi_RCCE_opt_3p0.xyz,Nucleus 58H :,-2.50759,-1.75085,-12.13052,28.48,36.95,22.65,25.83,11.0,37.1,77.48,-51.33,12.12,-0.94,22.65,25.83,36.95,0,14.3,-0.56
KLaL_cation_pi_RCCE_opt_3p0.xyz,Nucleus 60H :,-1.21105,-2.26606,-12.34584,27.11,36.16,20.64,24.52,73.69,50.4,20.91,9.51,-48.22,-24.98,20.64,24.52,36.16,0,15.52,-0.5
KLaL_cation_pi_RCCE_opt_3p0.xyz,Nucleus 61H :,2.06614,-2.26271,-14.33433,27.0,20.22,34.2,26.59,145.63,18.27,71.1,-124.88,9.6,-38.72,20.22,26.59,34.2,0,13.98,-0.09
KLaL_cation_pi_RCCE_opt_3p0.xyz,Nucleus 62H :,-3.05617,-3.70143,-15.43508,25.81,37.66,17.85,21.93,19.2,38.64,67.49,-42.5,-8.99,3.6,17.85,21.93,37.66,0,19.81,-0.59
KLaL_cation_pi_RCCE_opt_3p0.xyz,Nucleus 63H :,-0.20716,-3.15713,-16.57412,24.77,35.98,23.26,15.08,87.95,46.55,10.28,-54.46,-22.53,6.54,15.08,23.26,35.98,0,20.9,-0.22
KLaL_cation_pi_RCCE_opt_3p0.xyz,Nucleus 64H :,-3.64618,-2.26946,-12.97424,27.86,41.95,19.8,21.83,78.56,-20.16,8.09,-38.4,41.57,13.93,19.8,21.83,41.95,0,22.15,-0.82
KLaL_cation_pi_RCCE_opt_3p0.xyz,Nucleus 65H :,-4.58558,-2.02912,-12.46536,24.4,36.7,22.98,13.53,53.02,31.49,20.13,-35.39,5.43,-1.46,13.53,22.98,36.7,0,23.17,-0.18
KLaL_cation_pi_RCCE_opt_3p0.xyz,Nucleus 2C :,-3.63086,-3.36289,-13.04152,151.54,134.78,163.38,156.47,299.64,167.46,206.94,-145.43,-5.82,-68.16,134.78,156.47,163.38,0,28.6,0.52
KLaL_cation_pi_RCCE_opt_3p0.xyz,Nucleus 5C :,-3.67186,-1.63971,-14.35326,40.81,161.22,7.04,-45.84,313.29,255.98,280.42,-106.81,-301.89,-318.57,-45.84,7.04,161.22,0,207.06,-0.49
KLaL_cation_pi_RCCE_opt_3p0.xyz,Nucleus 6C :,-3.9616,-0.28059,-14.4534,49.89,163.5,-55.83,41.99,235.92,318.0,285.94,-89.55,-362.16,-238.49,-55.83,41.99,163.5,0,219.33,-0.11
KLaL_cation_pi_RCCE_opt_3p0.xyz,Nucleus 8C :,-4.26639,0.26235,-13.56389,60.11,173.45,-50.89,57.78,313.37,248.65,280.22,-91.22,-337.56,-233.11,-50.89,57.78,173.45,0,224.34,-0.03
KLaL_cation_pi_RCCE_opt_3p0.xyz,Nucleus 10C :,-3.86508,0.37227,-15.67146,46.84,164.11,36.86,-60.46,234.79,324.55,289.08,-107.59,-333.83,-266.49,-60.46,36.86,164.11,0,224.57,-0.13
KLaL_cation_pi_RCCE_opt_3p0.xyz,Nucleus 12C :,-4.13466,1.42199,-15.74103,40.12,162.86,-41.9,-0.6,232.01,277.69,290.29,-81.2,-326.21,-272.21,-41.9,-0.6,162.86,0,204.76,-0.6
KLaL_cation_pi_RCCE_opt_3p0.xyz,Nucleus 13C :,-3.41889,-0.29236,-16.78652,151.97,134.2,164.26,157.46,345.49,241.82,297.95,-86.35,-181.29,-161.69,134.2,157.46,164.26,0,30.06,0.55
KLaL_cation_pi_RCCE_opt_3p0.xyz,Nucleus 16C :,-3.30176,0.23385,-17.72915,43.49,160.33,-29.91,0.06,326.06,253.32,273.81,-94.22,-355.64,-272.84,-29.91,0.06,160.33,0,190.24,-0.68
KLaL_cation_pi_RCCE_opt_3p0.xyz,Nucleus 17C :,-3.10266,-1.66591,-16.73126,46.18,-59.62,42.82,155.33,336.49,290.25,262.17,-371.43,-248.82,-130.12,-59.62,42.82,155.33,0,214.95,-0.05
KLaL_cation_pi_RCCE_opt_3p0.xyz,Nucleus 19C :,-2.49736,-2.31516,-17.95972,61.74,174.07,56.38,-45.23,331.71,249.61,289.11,-112.92,-272.86,-299.43,-45.23,56.38,174.07,0,219.3,-0.07
KLaL_cation_pi_RCCE_opt_3p0.xyz,Nucleus 21C :,-2.47907,-3.407,-17.86462,50.21,-53.17,48.21,155.6,349.1,264.5,272.25,-387.0,-112.17,-236.04,-53.17,48.21,155.6,0,208.77,-0.03
KLaL_cation_pi_RCCE_opt_3p0.xyz,Nucleus 23C :,-3.14888,-2.11605,-18.81737,48.46,-29.7,20.23,154.85,322.41,268.67,285.67,-120.03,-345.41,-265.94,-29.7,20.23,154.85,0,184.55,-0.46
KLaL_cation_pi_RCCE_opt_3p0.xyz,Nucleus 24C :,-1.12737,-1.77181,-18.26735,18.45,120.15,9.08,-73.89,238.85,328.12,316.19,-145.29,-313.83,-368.71,-73.89,9.08,120.15,0,194.04,-0.14
KLaL_cation_pi_RCCE_opt_3p0.xyz,Nucleus 25C :,-0.91658,-0.74033,-19.18898,19.83,109.2,-63.35,13.64,213.17,290.4,283.49,-113.3,-267.51,-346.76,-63.35,13.64,109.2,0,172.55,-0.11
KLaL_cation_pi_RCCE_opt_3p0.xyz,Nucleus 28C :,-1.75776,-0.38293,-19.77633,152.44,135.38,157.17,164.76,328.0,218.74,275.11,-73.17,-165.77,-125.59,135.38,157.17,164.76,0,29.38,0.48
KLaL_cation_pi_RCCE_opt_3p0.xyz,Nucleus 31C :,0.34176,-0.19192,-19.37488,39.17,163.09,-0.0,-45.57,202.09,290.19,257.9,-61.56,-250.86,-320.24,-45.57,-0.0,163.09,0,208.66,-0.56
KLaL_cation_pi_RCCE_opt_3p0.xyz,Nucleus 32C :,0.49023,0.59144,-20.11041,46.5,164.11,-58.11,33.49,209.82,320.62,269.34,-106.85,-261.38,-292.07,-58.11,33.49,164.11,0,222.22,-0.18
KLaL_cation_pi_RCCE_opt_3p0.xyz,Nucleus 34C :,1.40802,-0.66952,-18.64383,53.01,175.61,-59.45,42.87,320.86,204.57,249.27,-63.98,-344.29,-207.41,-59.45,42.87,175.61,0,235.06,-0.13
KLaL_cation_pi_RCCE_opt_3p0.xyz,Nucleus 36C :,2.40209,-0.26185,-18.80495,46.47,164.76,32.67,-58.02,185.32,316.51,257.32,-63.17,-347.05,-209.51,-58.02,32.67,164.76,0,222.78,-0.19
KLaL_cation_pi_RCCE_opt_3p0.xyz,Nucleus 38C :,1.26331,-1.70665,-17.72336,41.08,162.69,-43.35,3.9,219.97,296.49,330.89,-120.35,-278.24,-325.52,-43.35,3.9,162.69,0,206.04,-0.54
KLaL_cation_pi_RCCE_opt_3p0.xyz,Nucleus 39C :,-0.02275,-2.248,-17.50932,153.45,136.73,165.98,157.64,271.33,141.2,196.91,19.27,-113.63,-54.76,136.73,157.64,165.98,0,29.25,0.43
KLaL_cation_pi_RCCE_opt_3p0.xyz,Nucleus 42C :,-3.29932,-2.31449,-15.5209,47.05,155.24,-31.4,17.3,187.95,228.23,275.3,-47.34,-267.51,-235.5,-31.4,17.3,155.24,0,186.64,-0.48
KLaL_cation_pi_RCCE_opt_3p0.xyz,Nucleus 43C :,-0.634,2.46673,-14.92549,48.34,-55.85,45.05,155.83,165.76,214.24,284.22,-296.08,-171.72,-51.38,-55.85,45.05,155.83,0,211.68,-0.05
KLaL_cation_pi_RCCE_opt_3p0.xyz,Nucleus 45C :,-0.61955,1.97925,-14.04083,60.66,174.48,54.11,-46.61,201.77,227.93,285.58,-31.63,-173.39,-328.28,-46.61,54.11,174.48,0,221.09,-0.09
KLaL_cation_pi_RCCE_opt_3p0.xyz,Nucleus 47C :,-0.34639,4.44638,-16.01492,47.48,-56.84,43.84,155.43,286.48,187.72,223.1,-288.07,-195.72,-71.09,-56.84,43.84,155.43,0,212.27,-0.05
KLaL_cation_pi_RCCE_opt_3p0.xyz,Nucleus 49C :,-0.35573,5.45022,-16.04481,46.05,160.8,-26.26,3.62,220.36,257.06,259.63,-94.42,-234.96,-269.5,-26.26,3.62,160.8,0,187.06,-0.68
KLaL_cation_pi_RCCE_opt_3p0.xyz,Nucleus 50C :,-0.07021,3.95851,-16.85674,20.06,-73.84,13.39,120.62,128.37,220.33,261.7,-34.0,-216.06,-300.16,-73.84,13.39,120.62,0,194.46,-0.1
KLaL_cation_pi_RCCE_opt_3p0.xyz,Nucleus 51C :,-0.64706,3.78323,-14.92389,28.33,-58.2,104.18,39.01,154.05,299.66,273.85,-82.85,-227.52,-332.21,-58.2,39.01,104.18,0,162.38,0.2
KLaL_cation_pi_RCCE_opt_3p0.xyz,Nucleus 57C :,-0.16135,1.99658,-15.68304,27.51,124.74,-26.13,-16.09,230.85,267.35,305.02,-114.09,-279.86,-326.75,-26.13,-16.09,124.74,0,150.87,-0.87
KLaL_cation_pi_RCCE_opt_3p0.xyz,Nucleus 52N :,-0.9608,4.43763,-13.83124,172.38,109.91,184.03,223.2,410.9,341.11,312.88,-259.34,-147.31,-141.1,109.91,184.03,223.2,0,113.29,0.31
KLaL_cation_pi_RCCE_opt_3p0.xyz,Nucleus 54N :,-0.9621,5.44135,-13.79599,178.26,230.79,181.73,122.26,201.16,313.48,365.84,-19.64,-192.63,-133.42,122.26,181.73,230.79,0,108.53,0.1
KLaL_cation_pi_RCCE_opt_3p0.xyz,Nucleus 59N :,-1.16151,3.94139,-12.97253,177.98,230.42,181.97,121.54,397.93,318.93,352.1,-210.14,-229.19,-95.7,121.54,181.97,230.42,0,108.88,0.11
KLaL_cation_pi_RCCE_opt_3p1.xyz,Nucleus 3H :,1.85056,-3.65399,-14.42354,27.81,34.24,25.24,23.94,-79.01,77.61,13.54,105.38,-47.29,13.19,23.94,25.24,34.24,0,10.3,-0.75
KLaL_cation_pi_RCCE_opt_3p1.xyz,Nucleus 4H :,-1.00867,-3.16908,-13.28325,26.92,23.64,27.21,29.91,84.38,-59.14,6.24,-57.18,84.21,22.26,23.64,27.21,29.91,0,6.27,0.14
KLaL_cation_pi_RCCE_opt_3p1.xyz,Nucleus 7H :,2.41198,-2.20461,-16.88088,24.47,29.67,20.79,22.95,-32.28,51.39,90.93,56.71,-25.52,-67.82,20.79,22.95,29.67,0,8.88,-0.51
KLaL_cation_pi_RCCE_opt_3p1.xyz,Nucleus 9H :,3.34765,-1.9455,-17.38756,25.11,22.42,25.59,27.32,17.49,89.08,66.24,8.49,-62.84,-43.13,22.42,25.59,27.32,0,4.9,0.29
KLaL_cation_pi_RCCE_opt_3p1.xyz,Nucleus 11H :,2.39691,-3.29532,-16.81784,24.35,29.69,20.7,22.65,124.92,65.12,32.83,-100.98,-9.42,-39.42,20.7,22.65,29.69,0,8.99,-0.57
KLaL_cation_pi_RCCE_opt_3p1.xyz,Nucleus 14H :,2.4252,-1.57784,-15.50033,26.27,29.57,23.27,25.97,15.68,96.44,71.48,10.24,-72.09,-42.94,23.27,25.97,29.57,0,6.3,-0.14
KLaL_cation_pi_RCCE_opt_3p1.xyz,Nucleus 15H :,2.68791,-0.21348,-15.39687,28.0,34.51,25.54,23.96,133.57,35.94,64.63,-106.71,-3.0,-40.42,23.96,25.54,34.51,0,10.55,-0.7
KLaL_cation_pi_RCCE_opt_3p1.xyz,Nucleus 18H :,2.98968,0.34051,-16.28164,23.85,28.27,22.54,20.73,119.62,88.92,37.87,-97.66,-66.12,-11.1,20.73,22.54,28.27,0,7.54,-0.52
KLaL_cation_pi_RCCE_opt_3p1.xyz,Nucleus 20H :,2.57849,0.43438,-14.17723,24.52,21.13,26.73,25.7,35.97,90.02,107.23,-63.36,-85.76,-10.53,21.13,25.7,26.73,0,5.6,0.63
KLaL_cation_pi_RCCE_opt_3p1.xyz,Nucleus 22H :,2.82822,1.48929,-14.10622,24.13,28.66,23.02,20.7,117.82,24.69,77.11,2.68,-94.74,-55.17,20.7,23.02,28.66,0,7.96,-0.42
KLaL_cation_pi_RCCE_opt_3p1.xyz,Nucleus 29H :,2.14561,-0.24168,-13.06379,27.64,34.19,25.1,23.63,126.21,8.32,34.12,-98.13,22.59,-10.18,23.63,25.1,34.19,0,10.56,-0.72
KLaL_cation_pi_RCCE_opt_3p1.xyz,Nucleus 30H :,2.02109,0.28044,-12.11936,27.03,23.57,27.58,29.95,4.05,91.0,67.4,23.3,-66.04,-38.62,23.57,27.58,29.95,0,6.38,0.26
KLaL_cation_pi_RCCE_opt_3p1.xyz,Nucleus 33H :,1.85668,-1.6211,-13.12241,24.17,29.46,20.47,22.59,122.61,35.33,7.09,-98.93,-9.76,16.18,20.47,22.59,29.46,0,8.99,-0.53
KLaL_cation_pi_RCCE_opt_3p1.xyz,Nucleus 35H :,1.26442,-2.28521,-11.89554,24.69,21.86,25.03,27.19,89.28,-15.08,10.33,-64.21,40.59,13.16,21.86,25.03,27.19,0,5.33,0.19
KLaL_cation_pi_RCCE_opt_3p1.xyz,Nucleus 37H :,1.23472,-3.36627,-12.0504,24.26,29.69,20.46,22.63,-66.57,84.65,17.32,91.68,-61.57,7.26,20.46,22.63,29.69,0,9.23,-0.53
KLaL_cation_pi_RCCE_opt_3p1.xyz,Nucleus 40H :,1.91674,-2.09261,-11.03742,27.15,23.88,30.02,27.54,60.85,-70.09,-15.88,-32.64,93.98,45.23,23.88,27.54,30.02,0,6.14,0.19
KLaL_cation_pi_RCCE_opt_3p1.xyz,Nucleus 41H :,-0.11608,-1.76989,-11.58662,27.59,34.25,25.04,23.47,-111.8,58.25,-29.23,136.55,-24.72,53.69,23.47,25.04,34.25,0,10.78,-0.71
KLaL_cation_pi_RCCE_opt_3p1.xyz,Nucleus 44H :,-0.34726,-0.74504,-10.66249,24.01,28.49,22.83,20.7,-82.93,-27.9,62.02,-36.61,104.42,53.01,20.7,22.83,28.49,0,7.79,-0.45
KLaL_cation_pi_RCCE_opt_3p1.xyz,Nucleus 46H :,0.48968,-0.37756,-10.07614,24.47,21.09,26.69,25.63,68.88,-27.19,-76.42,-43.52,53.82,97.83,21.09,25.63,26.69,0,5.6,0.62
KLaL_cation_pi_RCCE_opt_3p1.xyz,Nucleus 48H :,-1.61623,-0.22215,-10.4753,23.92,28.41,22.67,20.69,63.89,-39.48,-16.73,-38.24,62.07,40.26,20.69,22.67,28.41,0,7.72,-0.49
KLaL_cation_pi_RCCE_opt_3p1.xyz,Nucleus 53H :,-1.78286,0.55559,-9.73755,28.33,36.79,22.47,25.72,20.26,121.1,91.08,5.59,-97.73,-55.32,22.47,25.72,36.79,0,14.32,-0.55
KLaL_cation_pi_RCCE_opt_3p1.xyz,Nucleus 55H :,-2.67282,-0.71904,-11.20753,27.09,20.62,24.51,36.13,-54.18,21.92,64.98,75.55,3.78,-30.78,20.62,24.51,36.13,0,15.51,-0.5
KLaL_cation_pi_RCCE_opt_3p1.xyz,Nucleus 56H :,-3.67284,-0.32653,-11.04041,27.01,20.25,34.2,26.57,-81.11,23.64,62.6,101.56,7.08,-32.75,20.25,26.57,34.2,0,13.95,-0.09
KLaL_cation_pi_RCCE_opt_3p1.xyz,Nucleus 58H :,-2.50759,-1.75085,-12.13052,28.37,36.87,22.44,25.81,10.96,36.93,75.98,-49.86,11.93,-0.81,22.44,25.81,36.87,0,14.43,-0.53
KLaL_cation_pi_RCCE_opt_3p1.xyz,Nucleus 60H :,-1.21105,-2.26606,-12.34584,27.08,36.11,20.63,24.5,73.0,49.92,20.84,9.49,-47.47,-24.55,20.63,24.5,36.11,0,15.48,-0.5
KLaL_cation_pi_RCCE_opt_3p1.xyz,Nucleus 61H :,2.06614,-2.26271,-14.33433,26.97,20.21,34.16,26.55,145.49,18.45,70.42,-124.75,9.4,-38.1,20.21,26.55,34.16,0,13.95,-0.09
KLaL_cation_pi_RCCE_opt_3p1.xyz,Nucleus 62H :,-3.05617,-3.70143,-15.43508,25.81,37.67,17.84,21.93,19.13,38.6,67.49,-42.5,-8.91,3.64,17.84,21.93,37.67,0,19.83,-0.59
KLaL_cation_pi_RCCE_opt_3p1.xyz,Nucleus 63H :,-0.20716,-3.15713,-16.57412,24.78,35.99,23.28,15.07,87.96,46.64,10.27,-54.47,-22.61,6.55,15.07,23.28,35.99,0,20.92,-0.22
KLaL_cation_pi_RCCE_opt_3p1.xyz,Nucleus 64H :,-3.64618,-2.26946,-12.97424,27.87,41.95,19.81,21.84,78.57,-20.11,8.12,-38.41,41.53,13.9,19.81,21.84,41.95,0,22.14,-0.82
KLaL_cation_pi_RCCE_opt_3p1.xyz,Nucleus 65H :,-4.58558,-2.02912,-12.46536,24.41,36.71,22.99,13.53,52.95,31.43,20.14,-35.38,5.48,-1.39,13.53,22.99,36.71,0,23.18,-0.18
KLaL_cation_pi_RCCE_opt_3p1.xyz,Nucleus 2C :,-3.63086,-3.36289,-13.04152,151.54,134.79,163.38,156.45,299.7,167.29,206.74,-145.52,-5.66,-67.92,134.79,156.45,163.38,0,28.59,0.52
KLaL_cation_pi_RCCE_opt_3p1.xyz,Nucleus 5C :,-3.67186,-1.63971,-14.35326,40.91,161.2,7.28,-45.76,313.12,256.36,280.21,-107.02,-301.58,-318.38,-45.76,7.28,161.2,0,206.96,-0.49
KLaL_cation_pi_RCCE_opt_3p1.xyz,Nucleus 6C :,-3.9616,-0.28059,-14.4534,49.79,163.44,-55.99,41.93,235.4,317.28,286.2,-88.99,-361.97,-238.53,-55.99,41.93,163.44,0,219.43,-0.11
KLaL_cation_pi_RCCE_opt_3p1.xyz,Nucleus 8C :,-4.26639,0.26235,-13.56389,60.23,173.29,-50.76,58.15,313.06,248.93,280.02,-91.49,-337.23,-232.6,-50.76,58.15,173.29,0,224.05,-0.03
KLaL_cation_pi_RCCE_opt_3p1.xyz,Nucleus 10C :,-3.86508,0.37227,-15.67146,46.76,164.06,36.83,-60.6,235.48,324.72,288.46,-108.19,-333.92,-266.27,-60.6,36.83,164.06,0,224.66,-0.13
KLaL_cation_pi_RCCE_opt_3p1.xyz,Nucleus 12C :,-4.13466,1.42199,-15.74103,40.21,162.84,-41.83,-0.37,232.23,277.65,289.8,-81.29,-326.05,-271.71,-41.83,-0.37,162.84,0,204.67,-0.59
KLaL_cation_pi_RCCE_opt_3p1.xyz,Nucleus 13C :,-3.41889,-0.29236,-16.78652,151.97,134.21,164.26,157.44,345.49,241.81,297.9,-86.33,-181.28,-161.67,134.21,157.44,164.26,0,30.05,0.55
KLaL_cation_pi_RCCE_opt_3p1.xyz,Nucleus 16C :,-3.30176,0.23385,-17.72915,43.52,160.32,-29.92,0.15,326.22,253.39,273.83,-94.29,-355.81,-272.8,-29.92,0.15,160.32,0,190.24,-0.68
KLaL_cation_pi_RCCE_opt_3p1.xyz,Nucleus 17C :,-3.10266,-1.66591,-16.73126,46.18,-59.64,42.9,155.29,336.32,290.35,262.31,-371.48,-248.84,-130.11,-59.64,42.9,155.29,0,214.93,-0.05
KLaL_cation_pi_RCCE_opt_3p1.xyz,Nucleus 19C :,-2.49736,-2.31516,-17.95972,61.75,174.02,56.46,-45.23,331.62,250.0,289.14,-112.88,-272.72,-299.91,-45.23,56.46,174.02,0,219.25,-0.07
KLaL_cation_pi_RCCE_opt_3p1.xyz,Nucleus 21C :,-2.47907,-3.407,-17.86462,50.23,-53.16,48.3,155.55,348.89,264.36,272.65,-386.97,-112.14,-236.1,-53.16,48.3,155.55,0,208.71,-0.03
KLaL_cation_pi_RCCE_opt_3p1.xyz,Nucleus 23C :,-3.14888,-2.11605,-18.81737,48.51,-29.68,20.37,154.83,322.64,268.64,285.61,-120.06,-345.5,-265.82,-29.68,20.37,154.83,0,184.51,-0.46
KLaL_cation_pi_RCCE_opt_3p1.xyz,Nucleus 24C :,-1.12737,-1.77181,-18.26735,18.44,120.14,9.1,-73.93,238.8,328.15,316.1,-145.21,-313.93,-368.6,-73.93,9.1,120.14,0,194.07,-0.14
KLaL_cation_pi_RCCE_opt_3p1.xyz,Nucleus 25C :,-0.91658,-0.74033,-19.18898,19.84,109.19,-63.38,13.7,213.44,290.24,283.23,-113.43,-267.32,-346.65,-63.38,13.7,109.19,0,172.57,-0.11
KLaL_cation_pi_RCCE_opt_3p1.xyz,Nucleus 28C :,-1.75776,-0.38293,-19.77633,152.43,135.37,157.14,164.77,327.93,218.78,275.1,-73.16,-165.72,-125.65,135.37,157.14,164.77,0,29.4,0.48
KLaL_cation_pi_RCCE_opt_3p1.xyz,Nucleus 31C :,0.34176,-0.19192,-19.37488,39.2,163.08,0.07,-45.54,201.79,290.79,258.02,-61.46,-250.9,-320.63,-45.54,0.07,163.08,0,208.62,-0.56
KLaL_cation_pi_RCCE_opt_3p1.xyz,Nucleus 32C :,0.49023,0.59144,-20.11041,46.46,164.07,-58.17,33.49,210.24,320.83,269.28,-107.38,-261.32,-292.27,-58.17,33.49,164.07,0,222.24,-0.18
KLaL_cation_pi_RCCE_opt_3p1.xyz,Nucleus 34C :,1.40802,-0.66952,-18.64383,53.11,175.52,-59.32,43.14,320.53,205.67,249.32,-64.51,-344.24,-207.43,-59.32,43.14,175.52,0,234.84,-0.13
KLaL_cation_pi_RCCE_opt_3p1.xyz,Nucleus 36C :,2.40209,-0.26185,-18.80495,46.45,164.72,32.69,-58.07,186.02,315.76,257.75,-63.25,-346.79,-210.16,-58.07,32.69,164.72,0,222.79,-0.19
KLaL_cation_pi_RCCE_opt_3p1.xyz,Nucleus 38C :,1.26331,-1.70665,-17.72336,41.11,162.68,-43.33,3.97,219.77,296.54,331.56,-120.18,-278.33,-326.05,-43.33,3.97,162.68,0,206.01,-0.54
KLaL_cation_pi_RCCE_opt_3p1.xyz,Nucleus 39C :,-0.02275,-2.248,-17.50932,153.44,136.73,165.99,157.61,271.35,141.12,197.03,19.35,-113.68,-54.86,136.73,157.61,165.99,0,29.26,0.43
KLaL_cation_pi_RCCE_opt_3p1.xyz,Nucleus 42C :,-3.29932,-2.31449,-15.5209,47.09,155.23,-31.38,17.43,188.36,228.26,275.49,-47.45,-267.73,-235.66,-31.38,17.43,155.23,0,186.61,-0.48
KLaL_cation_pi_RCCE_opt_3p1.xyz,Nucleus 43C :,-0.634,2.56673,-14.92549,48.38,-55.82,45.17,155.79,165.85,214.55,284.08,-296.02,-172.02,-51.31,-55.82,45.17,155.79,0,211.61,-0.05
KLaL_cation_pi_RCCE_opt_3p1.xyz,Nucleus 45C :,-0.61955,2.07925,-14.04083,60.67,174.42,54.2,-46.6,201.76,227.91,285.08,-31.78,-173.33,-327.62,-46.6,54.2,174.42,0,221.02,-0.09
KLaL_cation_pi_RCCE_opt_3p1.xyz,Nucleus 47C :,-0.34639,4.54638,-16.01492,47.46,-56.88,43.89,155.38,286.09,187.78,223.03,-287.24,-196.08,-71.19,-56.88,43.89,155.38,0,212.26,-0.05
KLaL_cation_pi_RCCE_opt_3p1.xyz,Nucleus 49C :,-0.35573,5.55022,-16.04481,46.07,160.78,-26.28,3.72,220.13,256.93,259.85,-94.47,-234.38,-269.84,-26.28,3.72,160.78,0,187.06,-0.68
KLaL_cation_pi_RCCE_opt_3p1.xyz,Nucleus 50C :,-0.07021,4.05851,-16.85674,20.04,-73.88,13.41,120.6,128.57,220.16,261.76,-34.09,-215.88,-300.4,-73.88,13.41,120.6,0,194.48,-0.1
KLaL_cation_pi_RCCE_opt_3p1.xyz,Nucleus 51C :,-0.64706,3.88323,-14.92389,28.32,-58.24,104.16,39.04,154.1,299.77,274.1,-82.84,-227.49,-332.69,-58.24,39.04,104.16,0,162.4,0.2
KLaL_cation_pi_RCCE_opt_3p1.xyz,Nucleus 57C :,-0.16135,2.09658,-15.68304,27.42,124.68,-26.05,-16.36,230.6,267.19,304.46,-113.81,-280.0,-326.17,-26.05,-16.36,124.68,0,150.73,-0.87
KLaL_cation_pi_RCCE_opt_3p1.xyz,Nucleus 52N :,-0.9608,4.53763,-13.83124,172.84,110.62,183.82,224.08,409.8,340.5,313.46,-257.31,-148.13,-139.81,110.62,183.82,224.08,0,113.46,0.29
KLaL_cation_pi_RCCE_opt_3p1.xyz,Nucleus 54N :,-0.9621,5.54135,-13.79599,178.1,230.65,181.74,121.92,200.88,313.28,365.18,-19.35,-192.66,-133.01,121.92,181.74,230.65,0,108.73,0.1
KLaL_cation_pi_RCCE_opt_3p1.xyz,Nucleus 59N :,-1.16151,4.04139,-12.97253,177.83,230.28,181.98,121.22,397.28,318.99,351.44,-209.42,-228.92,-95.89,121.22,181.98,230.28,0,109.06,0.11
KLaL_cation_pi_RCCE_opt_3p2.xyz,Nucleus 3H :,1.85056,-3.65399,-14.42354,27.81,34.24,25.25,23.94,-78.93,77.58,13.48,105.3,-47.27,13.26,23.94,25.25,34.24,0,10.3,-0.75
KLaL_cation_pi_RCCE_opt_3p2.xyz,Nucleus 4H :,-1.00867,-3.16908,-13.28325,26.92,23.64,27.21,29.91,84.38,-59.0,6.14,-57.19,84.07,22.37,23.64,27.21,29.91,0,6.27,0.14
KLaL_cation_pi_RCCE_opt_3p2.xyz,Nucleus 7H :,2.41198,-2.20461,-16.88088,24.47,29.7,20.77,22.95,-32.24,51.22,90.65,56.67,-25.36,-67.52,20.77,22.95,29.7,0,8.93,-0.51
KLaL_cation_pi_RCCE_opt_3p2.xyz,Nucleus 9H :,3.34765,-1.9455,-17.38756,25.12,22.41,25.6,27.34,17.63,88.79,66.03,8.35,-62.55,-42.9,22.41,25.6,27.34,0,4.93,0.29
KLaL_cation_pi_RCCE_opt_3p2.xyz,Nucleus 11H :,2.39691,-3.29532,-16.81784,24.35,29.72,20.69,22.64,124.86,65.02,32.85,-100.93,-9.42,-39.32,20.69,22.64,29.72,0,9.03,-0.57
KLaL_cation_pi_RCCE_opt_3p2.xyz,Nucleus 14H :,2.4252,-1.57784,-15.50033,26.27,29.57,23.28,25.97,15.71,96.38,71.44,10.21,-72.03,-42.89,23.28,25.97,29.57,0,6.29,-0.14
KLaL_cation_pi_RCCE_opt_3p2.xyz,Nucleus 15H :,2.68791,-0.21348,-15.39687,28.01,34.51,25.55,23.97,133.54,35.97,64.54,-106.66,-3.03,-40.33,23.97,25.55,34.51,0,10.54,-0.7
KLaL_cation_pi_RCCE_opt_3p2.xyz,Nucleus 18H :,2.98968,0.34051,-16.28164,23.85,28.28,22.54,20.74,119.56,88.82,37.89,-97.6,-66.02,-11.11,20.74,22.54,28.28,0,7.54,-0.52
KLaL_cation_pi_RCCE_opt_3p2.xyz,Nucleus 20H :,2.57849,0.43438,-14.17723,24.53,21.14,26.75,25.71,36.01,89.88,107.31,-63.21,-85.83,-10.58,21.14,25.71,26.75,0,5.61,0.63
KLaL_cation_pi_RCCE_opt_3p2.xyz,Nucleus 22H :,2.82822,1.48929,-14.10622,24.13,28.67,23.02,20.71,117.68,24.71,77.16,2.66,-94.6,-55.21,20.71,23.02,28.67,0,7.96,-0.42
KLaL_cation_pi_RCCE_opt_3p2.xyz,Nucleus 29H :,2.14561,-0.24168,-13.06379,27.65,34.19,25.11,23.64,126.1,8.35,34.22,-98.02,22.57,-10.27,23.64,25.11,34.19,0,10.55,-0.72
KLaL_cation_pi_RCCE_opt_3p2.xyz,Nucleus 30H :,2.02109,0.28044,-12.11936,27.03,23.58,27.58,29.94,4.07,90.96,67.46,23.28,-66.0,-38.67,23.58,27.58,29.94,0,6.36,0.26
KLaL_cation_pi_RCCE_opt_3p2.xyz,Nucleus 33H :,1.85668,-1.6211,-13.12241,24.17,29.48,20.45,22.59,122.36,35.82,7.17,-98.69,-10.24,16.1,20.45,22.59,29.48,0,9.03,-0.52
KLaL_cation_pi_RCCE_opt_3p2.xyz,Nucleus 35H :,1.26442,-2.28521,-11.89554,24.7,21.84,25.04,27.21,89.14,-14.41,10.53,-64.08,39.92,12.98,21.84,25.04,27.21,0,5.37,0.19
KLaL_cation_pi_RCCE_opt_3p2.xyz,Nucleus 37H :,1.23472,-3.36627,-12.0504,24.26,29.7,20.44,22.63,-65.78,84.64,17.41,90.89,-61.55,7.17,20.44,22.63,29.7,0,9.26,-0.53
KLaL_cation_pi_RCCE_opt_3p2.xyz,Nucleus 40H :,1.91674,-2.09261,-11.03742,27.15,23.88,30.02,27.54,60.87,-70.03,-15.76,-32.67,93.92,45.11,23.88,27.54,30.02,0,6.14,0.19
KLaL_cation_pi_RCCE_opt_3p2.xyz,Nucleus 41H :,-0.11608,-1.76989,-11.58662,27.59,34.25,25.04,23.47,-111.68,58.27,-29.05,136.44,-24.73,53.52,23.47,25.04,34.25,0,10.78,-0.71
KLaL_cation_pi_RCCE_opt_3p2.xyz,Nucleus 44H :,-0.34726,-0.74504,-10.66249,24.01,28.5,22.83,20.7,-82.77,-27.56,62.07,-36.66,104.26,52.69,20.7,22.83,28.5,0,7.8,-0.45
KLaL_cation_pi_RCCE_opt_3p2.xyz,Nucleus 46H :,0.48968,-0.37756,-10.07614,24.47,21.09,26.7,25.63,68.83,-26.87,-76.56,-43.47,53.51,97.98,21.09,25.63,26.7,0,5.61,0.62
KLaL_cation_pi_RCCE_opt_3p2.xyz,Nucleus 48H :,-1.61623,-0.22215,-10.4753,23.93,28.42,22.67,20.69,63.83,-39.38,-16.65,-38.19,61.93,40.24,20.69,22.67,28.42,0,7.73,-0.49
KLaL_cation_pi_RCCE_opt_3p2.xyz,Nucleus 53H :,-1.78286,0.55559,-9.73755,28.23,36.72,22.27,25.69,20.53,121.34,90.19,5.31,-98.21,-54.48,22.27,25.69,36.72,0,14.45,-0.53
KLaL_cation_pi_RCCE_opt_3p2.xyz,Nucleus 55H :,-2.67282,-0.71904,-11.20753,27.07,20.62,24.5,36.08,-54.93,21.91,64.47,76.28,3.76,-30.29,20.62,24.5,36.08,0,15.46,-0.5
KLaL_cation_pi_RCCE_opt_3p2.xyz,Nucleus 56H :,-3.67284,-0.32653,-11.04041,26.98,20.24,34.17,26.52,-81.41,23.58,61.91,101.85,7.0,-32.0,20.24,26.52,34.17,0,13.93,-0.1
KLaL_cation_pi_RCCE_opt_3p2.xyz,Nucleus 58H :,-2.50759,-1.75085,-12.13052,28.28,36.79,22.24,25.8,10.89,36.78,74.52,-48.43,11.79,-0.72,22.24,25.8,36.79,0,14.55,-0.51
KLaL_cation_pi_RCCE_opt_3p2.xyz,Nucleus 60H :,-1.21105,-2.26606,-12.34584,27.06,36.06,20.62,24.49,72.32,49.45,20.77,9.47,-46.72,-24.13,20.62,24.49,36.06,0,15.44,-0.5
KLaL_cation_pi_RCCE_opt_3p2.xyz,Nucleus 61H :,2.06614,-2.26271,-14.33433,26.94,20.2,34.13,26.5,145.35,18.63,69.74,-124.62,9.21,-37.48,20.2,26.5,34.13,0,13.93,-0.09
KLaL_cation_pi_RCCE_opt_3p2.xyz,Nucleus 62H :,-3.05617,-3.70143,-15.43508,25.82,37.68,17.84,21.94,19.06,38.57,67.47,-42.5,-8.83,3.68,17.84,21.94,37.68,0,19.84,-0.59
KLaL_cation_pi_RCCE_opt_3p2.xyz,Nucleus 63H :,-0.20716,-3.15713,-16.57412,24.78,36.0,23.29,15.06,87.96,46.72,10.27,-54.47,-22.67,6.55,15.06,23.29,36.0,0,20.94,-0.21
KLaL_cation_pi_RCCE_opt_3p2.xyz,Nucleus 64H :,-3.64618,-2.26946,-12.97424,27.87,41.95,19.81,21.84,78.57,-20.05,8.17,-38.42,41.47,13.86,19.81,21.84,41.95,0,22.14,-0.82
KLaL_cation_pi_RCCE_opt_3p2.xyz,Nucleus 65H :,-4.58558,-2.02912,-12.46536,24.41,36.72,23.0,13.52,52.89,31.39,20.17,-35.37,5.51,-1.35,13.52,23.0,36.72,0,23.2,-0.18
KLaL_cation_pi_RCCE_opt_3p2.xyz,Nucleus 2C :,-3.63086,-3.36289,-13.04152,151.54,134.8,163.39,156.42,299.78,167.11,206.59,-145.64,-5.48,-67.75,134.8,156.42,163.39,0,28.59,0.51
KLaL_cation_pi_RCCE_opt_3p2.xyz,Nucleus 5C :,-3.67186,-1.63971,-14.35326,41.0,161.18,7.51,-45.68,312.9,256.77,280.0,-107.23,-301.24,-318.19,-45.68,7.51,161.18,0,206.86,-0.49
KLaL_cation_pi_RCCE_opt_3p2.xyz,Nucleus 6C :,-3.9616,-0.28059,-14.4534,49.7,163.38,-56.14,41.87,235.01,316.48,286.44,-88.47,-361.76,-238.58,-56.14,41.87,163.38,0,219.52,-0.11
KLaL_cation_pi_RCCE_opt_3p2.xyz,Nucleus 8C :,-4.26639,0.26235,-13.56389,60.32,173.14,-50.65,58.48,312.7,249.2,279.81,-91.7,-336.93,-232.12,-50.65,58.48,173.14,0,223.79,-0.02
KLaL_cation_pi_RCCE_opt_3p2.xyz,Nucleus 10C :,-3.86508,0.37227,-15.67146,46.69,164.0,36.8,-60.72,236.21,324.83,287.83,-108.8,-333.93,-266.06,-60.72,36.8,164.0,0,224.72,-0.13
KLaL_cation_pi_RCCE_opt_3p2.xyz,Nucleus 12C :,-4.13466,1.42199,-15.74103,40.3,162.81,-41.76,-0.16,232.45,277.57,289.37,-81.36,-325.9,-271.22,-41.76,-0.16,162.81,0,204.57,-0.59
KLaL_cation_pi_RCCE_opt_3p2.xyz,Nucleus 13C :,-3.41889,-0.29236,-16.78652,151.97,134.22,164.26,157.42,345.49,241.82,297.83,-86.33,-181.29,-161.62,134.22,157.42,164.26,0,30.04,0.54
KLaL_cation_pi_RCCE_opt_3p2.xyz,Nucleus 16C :,-3.30176,0.23385,-17.72915,43.53,160.3,-29.92,0.22,326.38,253.45,273.79,-94.33,-355.96,-272.72,-29.92,0.22,160.3,0,190.22,-0.68
KLaL_cation_pi_RCCE_opt_3p2.xyz,Nucleus 17C :,-3.10266,-1.66591,-16.73126,46.19,-59.65,42.97,155.24,336.21,290.49,262.44,-371.54,-248.88,-130.15,-59.65,42.97,155.24,0,214.89,-0.04
KLaL_cation_pi_RCCE_opt_3p2.xyz,Nucleus 19C :,-2.49736,-2.31516,-17.95972,61.76,173.97,56.54,-45.23,331.55,250.39,289.16,-112.82,-272.62,-300.39,-45.23,56.54,173.97,0,219.2,-0.07
KLaL_cation_pi_RCCE_opt_3p2.xyz,Nucleus 21C :,-2.47907,-3.407,-17.86462,50.25,-53.14,48.39,155.51,348.71,264.22,273.04,-386.95,-112.11,-236.16,-53.14,48.39,155.51,0,208.65,-0.03
KLaL_cation_pi_RCCE_opt_3p2.xyz,Nucleus 23C :,-3.14888,-2.11605,-18.81737,48.55,-29.66,20.5,154.81,322.82,268.62,285.59,-120.09,-345.56,-265.73,-29.66,20.5,154.81,0,184.47,-0.46
KLaL_cation_pi_RCCE_opt_3p2.xyz,Nucleus 24C :,-1.12737,-1.77181,-18.26735,18.43,120.13,9.12,-73.97,238.78,328.17,315.92,-145.16,-314.0,-368.43,-73.97,9.12,120.13,0,194.1,-0.14
KLaL_cation_pi_RCCE_opt_3p2.xyz,Nucleus 25C :,-0.91658,-0.74033,-19.18898,19.86,109.18,-63.39,13.78,213.74,290.06,282.94,-113.55,-267.12,-346.5,-63.39,13.78,109.18,0,172.57,-0.11
KLaL_cation_pi_RCCE_opt_3p2.xyz,Nucleus 28C :,-1.75776,-0.38293,-19.77633,152.42,135.37,157.12,164.77,327.83,218.82,275.06,-73.17,-165.62,-125.67,135.37,157.12,164.77,0,29.4,0.48
KLaL_cation_pi_RCCE_opt_3p2.xyz,Nucleus 31C :,0.34176,-0.19192,-19.37488,39.23,163.06,0.15,-45.52,201.51,291.38,258.15,-61.36,-250.98,-321.01,-45.52,0.15,163.06,0,208.58,-0.56
KLaL_cation_pi_RCCE_opt_3p2.xyz,Nucleus 32C :,0.49023,0.59144,-20.11041,46.43,164.03,-58.23,33.48,210.71,321.02,269.18,-107.91,-261.23,-292.49,-58.23,33.48,164.03,0,222.26,-0.17
KLaL_cation_pi_RCCE_opt_3p2.xyz,Nucleus 34C :,1.40802,-0.66952,-18.64383,53.2,175.43,-59.2,43.38,320.16,206.8,249.28,-65.06,-344.11,-207.46,-59.2,43.38,175.43,0,234.63,-0.13
KLaL_cation_pi_RCCE_opt_3p2.xyz,Nucleus 36C :,2.40209,-0.26185,-18.80495,46.42,164.68,32.7,-58.12,186.68,314.98,258.16,-63.28,-346.51,-210.77,-58.12,32.7,164.68,0,222.8,-0.18
KLaL_cation_pi_RCCE_opt_3p2.xyz,Nucleus 38C :,1.26331,-1.70665,-17.72336,41.13,162.66,-43.3,4.04,219.62,296.6,332.19,-120.05,-278.42,-326.53,-43.3,4.04,162.66,0,205.96,-0.54
KLaL_cation_pi_RCCE_opt_3p2.xyz,Nucleus 39C :,-0.02275,-2.248,-17.50932,153.44,136.74,165.99,157.58,271.37,140.99,197.16,19.47,-113.73,-54.97,136.74,157.58,165.99,0,29.25,0.42
KLaL_cation_pi_RCCE_opt_3p2.xyz,Nucleus 42C :,-3.29932,-2.31449,-15.5209,47.14,155.21,-31.35,17.56,188.8,228.33,275.67,-47.6,-267.93,-235.86,-31.35,17.56,155.21,0,186.56,-0.48
KLaL_cation_pi_RCCE_opt_3p2.xyz,Nucleus 43C :,-0.634,2.66673,-14.92549,48.4,-55.8,45.27,155.74,165.94,214.82,283.96,-295.99,-172.27,-51.24,-55.8,45.27,155.74,0,211.54,-0.04
KLaL_cation_pi_RCCE_opt_3p2.xyz,Nucleus 45C :,-0.61955,2.17925,-14.04083,60.68,174.37,54.27,-46.6,201.71,227.87,284.54,-31.9,-173.26,-326.91,-46.6,54.27,174.37,0,220.97,-0.09
KLaL_cation_pi_RCCE_opt_3p2.xyz,Nucleus 47C :,-0.34639,4.64638,-16.01492,47.45,-56.92,43.94,155.33,285.72,187.82,222.96,-286.5,-196.39,-71.24,-56.92,43.94,155.33,0,212.25,-0.05
KLaL_cation_pi_RCCE_opt_3p2.xyz,Nucleus 49C :,-0.35573,5.65022,-16.04481,46.09,160.77,-26.29,3.8,219.98,256.8,260.11,-94.49,-233.97,-270.14,-26.29,3.8,160.77,0,187.06,-0.68
KLaL_cation_pi_RCCE_opt_3p2.xyz,Nucleus 50C :,-0.07021,4.15851,-16.85674,20.03,-73.92,13.42,120.58,128.8,220.11,261.86,-34.17,-215.79,-300.73,-73.92,13.42,120.58,0,194.5,-0.1
KLaL_cation_pi_RCCE_opt_3p2.xyz,Nucleus 51C :,-0.64706,3.98323,-14.92389,28.31,-58.27,104.15,39.06,154.2,299.87,274.31,-82.88,-227.44,-333.12,-58.27,39.06,104.15,0,162.42,0.2
KLaL_cation_pi_RCCE_opt_3p2.xyz,Nucleus 57C :,-0.16135,2.19658,-15.68304,27.35,124.64,-25.98,-16.62,230.36,267.03,303.91,-113.52,-280.15,-325.58,-25.98,-16.62,124.64,0,150.62,-0.88
KLaL_cation_pi_RCCE_opt_3p2.xyz,Nucleus 52N :,-0.9608,4.63763,-13.83124,173.28,111.3,183.65,224.88,408.68,339.87,314.1,-255.27,-149.0,-138.54,111.3,183.65,224.88,0,113.58,0.27
KLaL_cation_pi_RCCE_opt_3p2.xyz,Nucleus 54N :,-0.9621,5.64135,-13.79599,177.95,230.51,181.75,121.6,200.57,313.11,364.54,-19.03,-192.72,-132.61,121.6,181.75,230.51,0,108.91,0.1
KLaL_cation_pi_RCCE_opt_3p2.xyz,Nucleus 59N :,-1.16151,4.14139,-12.97253,177.68,230.14,181.99,120.9,396.66,319.04,350.79,-208.73,-228.64,-96.09,120.9,181.99,230.14,0,109.24,0.12
KLaL_cation_pi_RCCE_opt_3p3.xyz,Nucleus 3H :,1.85056,-3.65399,-14.42354,27.81,34.23,25.26,23.94,-78.84,77.56,13.43,105.23,-47.25,13.31,23.94,25.26,34.23,0,10.29,-0.74
KLaL_cation_pi_RCCE_opt_3p3.xyz,Nucleus 4H :,-1.00867,-3.16908,-13.28325,26.93,23.65,27.22,29.91,84.37,-58.86,6.05,-57.19,83.93,22.46,23.65,27.22,29.91,0,6.26,0.14
KLaL_cation_pi_RCCE_opt_3p3.xyz,Nucleus 7H :,2.41198,-2.20461,-16.88088,24.47,29.72,20.75,22.94,-32.21,51.07,90.37,56.64,-25.22,-67.23,20.75,22.94,29.72,0,8.97,-0.51
KLaL_cation_pi_RCCE_opt_3p3.xyz,Nucleus 9H :,3.34765,-1.9455,-17.38756,25.13,22.4,25.62,27.37,17.79,88.49,65.83,8.2,-62.25,-42.66,22.4,25.62,27.37,0,4.97,0.3
KLaL_cation_pi_RCCE_opt_3p3.xyz,Nucleus 11H :,2.39691,-3.29532,-16.81784,24.35,29.74,20.68,22.64,124.79,64.91,32.86,-100.87,-9.41,-39.22,20.68,22.64,29.74,0,9.06,-0.57
KLaL_cation_pi_RCCE_opt_3p3.xyz,Nucleus 14H :,2.4252,-1.57784,-15.50033,26.28,29.57,23.29,25.97,15.73,96.33,71.4,10.18,-71.98,-42.84,23.29,25.97,29.57,0,6.28,-0.15
KLaL_cation_pi_RCCE_opt_3p3.xyz,Nucleus 15H :,2.68791,-0.21348,-15.39687,28.02,34.51,25.56,23.98,133.48,36.0,64.45,-106.6,-3.07,-40.23,23.98,25.56,34.51,0,10.53,-0.7
KLaL_cation_pi_RCCE_opt_3p3.xyz,Nucleus 18H :,2.98968,0.34051,-16.28164,23.86,28.29,22.53,20.75,119.48,88.72,37.9,-97.51,-65.91,-11.12,20.75,22.53,28.29,0,7.54,-0.53
KLaL_cation_pi_RCCE_opt_3p3.xyz,Nucleus 20H :,2.57849,0.43438,-14.17723,24.54,21.14,26.76,25.71,36.04,89.74,107.39,-63.05,-85.89,-10.62,21.14,25.71,26.76,0,5.62,0.62
KLaL_cation_pi_RCCE_opt_3p3.xyz,Nucleus 22H :,2.82822,1.48929,-14.10622,24.14,28.68,23.02,20.72,24.73,117.53,77.22,2.64,-94.44,-55.24,20.72,23.02,28.68,0,7.96,-0.42
KLaL_cation_pi_RCCE_opt_3p3.xyz,Nucleus 29H :,2.14561,-0.24168,-13.06379,27.65,34.19,25.12,23.64,125.98,8.37,34.32,-97.9,22.54,-10.37,23.64,25.12,34.19,0,10.55,-0.72
KLaL_cation_pi_RCCE_opt_3p3.xyz,Nucleus 30H :,2.02109,0.28044,-12.11936,27.03,23.58,27.58,29.94,4.08,90.91,67.52,23.26,-65.95,-38.72,23.58,27.58,29.94,0,6.36,0.26
KLaL_cation_pi_RCCE_opt_3p3.xyz,Nucleus 33H :,1.85668,-1.6211,-13.12241,24.18,29.5,20.43,22.6,122.12,36.3,7.25,-98.45,-10.73,16.03,20.43,22.6,29.5,0,9.07,-0.52
KLaL_cation_pi_RCCE_opt_3p3.xyz,Nucleus 35H :,1.26442,-2.28521,-11.89554,24.7,21.82,25.06,27.22,89.02,-13.74,10.72,-63.96,39.24,12.82,21.82,25.06,27.22,0,5.4,0.2
KLaL_cation_pi_RCCE_opt_3p3.xyz,Nucleus 37H :,1.23472,-3.36627,-12.0504,24.26,29.72,20.42,22.64,-65.04,84.63,17.5,90.14,-61.54,7.07,20.42,22.64,29.72,0,9.3,-0.52
KLaL_cation_pi_RCCE_opt_3p3.xyz,Nucleus 40H :,1.91674,-2.09261,-11.03742,27.15,23.88,30.01,27.55,60.89,-69.96,-15.64,-32.69,93.85,44.99,23.88,27.55,30.01,0,6.13,0.2
KLaL_cation_pi_RCCE_opt_3p3.xyz,Nucleus 41H :,-0.11608,-1.76989,-11.58662,27.59,34.25,25.04,23.48,-111.56,58.28,-28.87,136.34,-24.75,53.34,23.48,25.04,34.25,0,10.77,-0.71
KLaL_cation_pi_RCCE_opt_3p3.xyz,Nucleus 44H :,-0.34726,-0.74504,-10.66249,24.02,28.51,22.83,20.71,-82.64,-27.22,62.12,-36.71,104.13,52.37,20.71,22.83,28.51,0,7.8,-0.46
KLaL_cation_pi_RCCE_opt_3p3.xyz,Nucleus 46H :,0.48968,-0.37756,-10.07614,24.48,21.09,26.71,25.63,-76.69,-26.56,68.76,-43.42,53.22,98.12,21.09,25.63,26.71,0,5.62,0.61
KLaL_cation_pi_RCCE_opt_3p3.xyz,Nucleus 48H :,-1.61623,-0.22215,-10.4753,23.93,28.44,22.66,20.69,63.77,-39.3,-16.53,-38.15,61.8,40.2,20.69,22.66,28.44,0,7.75,-0.49
KLaL_cation_pi_RCCE_opt_3p3.xyz,Nucleus 53H :,-1.78286,0.55559,-9.73755,28.13,36.65,22.07,25.67,20.77,121.63,89.29,5.06,-98.71,-53.62,22.07,25.67,36.65,0,14.58,-0.51
KLaL_cation_pi_RCCE_opt_3p3.xyz,Nucleus 55H :,-2.67282,-0.71904,-11.20753,27.04,20.61,24.48,36.03,-55.68,21.91,63.98,76.99,3.73,-29.81,20.61,24.48,36.03,0,15.42,-0.5
KLaL_cation_pi_RCCE_opt_3p3.xyz,Nucleus 56H :,-3.67284,-0.32653,-11.04041,26.95,20.24,34.14,26.47,-81.69,23.54,61.24,102.13,6.92,-31.28,20.24,26.47,34.14,0,13.9,-0.1
KLaL_cation_pi_RCCE_opt_3p3.xyz,Nucleus 58H :,-2.50759,-1.75085,-12.13052,28.19,36.72,22.05,25.79,10.83,36.66,73.11,-47.05,11.66,-0.65,22.05,25.79,36.72,0,14.67,-0.49
KLaL_cation_pi_RCCE_opt_3p3.xyz,Nucleus 60H :,-1.21105,-2.26606,-12.34584,27.04,36.01,20.62,24.48,71.65,48.99,20.7,9.45,-45.98,-23.71,20.62,24.48,36.01,0,15.39,-0.5
KLaL_cation_pi_RCCE_opt_3p3.xyz,Nucleus 61H :,2.06614,-2.26271,-14.33433,26.92,20.19,34.11,26.45,145.21,18.79,69.06,-124.48,9.03,-36.86,20.19,26.45,34.11,0,13.92,-0.1
KLaL_cation_pi_RCCE_opt_3p3.xyz,Nucleus 62H :,-3.05617,-3.70143,-15.43508,25.82,37.69,17.83,21.94,19.0,38.56,67.44,-42.48,-8.78,3.72,17.83,21.94,37.69,0,19.86,-0.59
KLaL_cation_pi_RCCE_opt_3p3.xyz,Nucleus 63H :,-0.20716,-3.15713,-16.57412,24.79,36.01,23.3,15.05,87.95,46.79,10.24,-54.46,-22.73,6.57,15.05,23.3,36.01,0,20.96,-0.21
KLaL_cation_pi_RCCE_opt_3p3.xyz,Nucleus 64H :,-3.64618,-2.26946,-12.97424,27.87,41.95,19.82,21.85,78.58,-19.99,8.21,-38.42,41.41,13.83,19.82,21.85,41.95,0,22.13,-0.82
KLaL_cation_pi_RCCE_opt_3p3.xyz,Nucleus 65H :,-4.58558,-2.02912,-12.46536,24.42,36.73,23.01,13.52,52.84,31.36,20.24,-35.36,5.49,-1.31,13.52,23.01,36.73,0,23.21,-0.18
KLaL_cation_pi_RCCE_opt_3p3.xyz,Nucleus 2C :,-3.63086,-3.36289,-13.04152,151.54,134.81,163.4,156.4,299.85,166.91,206.44,-145.74,-5.29,-67.57,134.81,156.4,163.4,0,28.59,0.51
KLaL_cation_pi_RCCE_opt_3p3.xyz,Nucleus 5C :,-3.67186,-1.63971,-14.35326,41.1,161.16,7.74,-45.6,312.69,257.19,279.79,-107.48,-300.89,-317.99,-45.6,7.74,161.16,0,206.76,-0.48
KLaL_cation_pi_RCCE_opt_3p3.xyz,Nucleus 6C :,-3.9616,-0.28059,-14.4534,49.62,163.33,-56.27,41.81,234.63,315.7,286.65,-87.94,-361.54,-238.64,-56.27,41.81,163.33,0,219.6,-0.11
KLaL_cation_pi_RCCE_opt_3p3.xyz,Nucleus 8C :,-4.26639,0.26235,-13.56389,60.4,172.99,-50.56,58.76,312.39,249.47,279.61,-91.92,-336.66,-231.71,-50.56,58.76,172.99,0,223.55,-0.02
KLaL_cation_pi_RCCE_opt_3p3.xyz,Nucleus 10C :,-3.86508,0.37227,-15.67146,46.62,163.95,36.76,-60.84,236.94,324.92,287.23,-109.43,-333.92,-265.87,-60.84,36.76,163.95,0,224.79,-0.13
KLaL_cation_pi_RCCE_opt_3p3.xyz,Nucleus 12C :,-4.13466,1.42199,-15.74103,40.39,162.79,-41.68,0.06,232.68,277.45,289.01,-81.44,-325.76,-270.78,-41.68,0.06,162.79,0,204.47,-0.59
KLaL_cation_pi_RCCE_opt_3p3.xyz,Nucleus 13C :,-3.41889,-0.29236,-16.78652,151.96,134.23,164.25,157.41,345.52,241.82,297.75,-86.32,-181.32,-161.56,134.23,157.41,164.25,0,30.02,0.54
KLaL_cation_pi_RCCE_opt_3p3.xyz,Nucleus 16C :,-3.30176,0.23385,-17.72915,43.55,160.29,-29.93,0.29,326.51,253.51,273.67,-94.37,-356.09,-272.59,-29.93,0.29,160.29,0,190.22,-0.68
KLaL_cation_pi_RCCE_opt_3p3.xyz,Nucleus 17C :,-3.10266,-1.66591,-16.73126,46.19,-59.67,43.04,155.2,336.08,290.57,262.55,-371.57,-248.91,-130.16,-59.67,43.04,155.2,0,214.87,-0.04
KLaL_cation_pi_RCCE_opt_3p3.xyz,Nucleus 19C :,-2.49736,-2.31516,-17.95972,61.76,173.92,56.6,-45.23,331.49,250.78,289.21,-112.78,-272.53,-300.88,-45.23,56.6,173.92,0,219.15,-0.07
KLaL_cation_pi_RCCE_opt_3p3.xyz,Nucleus 21C :,-2.47907,-3.407,-17.86462,50.27,-53.13,48.48,155.46,348.51,264.07,273.43,-386.9,-112.08,-236.22,-53.13,48.48,155.46,0,208.59,-0.03
KLaL_cation_pi_RCCE_opt_3p3.xyz,Nucleus 23C :,-3.14888,-2.11605,-18.81737,48.59,-29.64,20.62,154.79,322.96,268.59,285.56,-120.11,-345.59,-265.63,-29.64,20.62,154.79,0,184.43,-0.45
KLaL_cation_pi_RCCE_opt_3p3.xyz,Nucleus 24C :,-1.12737,-1.77181,-18.26735,18.41,120.11,9.14,-74.01,238.79,328.17,315.68,-145.12,-314.05,-368.22,-74.01,9.14,120.11,0,194.12,-0.14
KLaL_cation_pi_RCCE_opt_3p3.xyz,Nucleus 25C :,-0.91658,-0.74033,-19.18898,19.88,109.17,-63.39,13.85,214.03,289.88,282.69,-113.68,-266.91,-346.37,-63.39,13.85,109.17,0,172.56,-0.1
KLaL_cation_pi_RCCE_opt_3p3.xyz,Nucleus 28C :,-1.75776,-0.38293,-19.77633,152.41,135.37,157.09,164.77,327.73,218.88,275.06,-73.18,-165.53,-125.72,135.37,157.09,164.77,0,29.4,0.48
KLaL_cation_pi_RCCE_opt_3p3.xyz,Nucleus 31C :,0.34176,-0.19192,-19.37488,39.26,163.05,0.22,-45.49,201.29,291.94,258.25,-61.31,-251.02,-321.37,-45.49,0.22,163.05,0,208.54,-0.56
KLaL_cation_pi_RCCE_opt_3p3.xyz,Nucleus 32C :,0.49023,0.59144,-20.11041,46.39,164.0,-58.29,33.47,211.19,321.2,269.12,-108.49,-261.12,-292.71,-58.29,33.47,164.0,0,222.29,-0.17
KLaL_cation_pi_RCCE_opt_3p3.xyz,Nucleus 34C :,1.40802,-0.66952,-18.64383,53.29,175.35,-59.1,43.61,319.81,207.87,249.21,-65.59,-343.96,-207.49,-59.1,43.61,175.35,0,234.45,-0.12
KLaL_cation_pi_RCCE_opt_3p3.xyz,Nucleus 36C :,2.40209,-0.26185,-18.80495,46.39,164.64,32.7,-58.17,187.32,314.23,258.55,-63.34,-211.33,-346.25,-58.17,32.7,164.64,0,222.81,-0.18
KLaL_cation_pi_RCCE_opt_3p3.xyz,Nucleus 38C :,1.26331,-1.70665,-17.72336,41.16,162.65,-43.28,4.12,219.48,296.65,332.78,-119.95,-278.49,-326.99,-43.28,4.12,162.65,0,205.93,-0.54
KLaL_cation_pi_RCCE_opt_3p3.xyz,Nucleus 39C :,-0.02275,-2.248,-17.50932,153.43,136.74,166.0,157.55,271.4,140.88,197.29,19.57,-113.78,-55.07,136.74,157.55,166.0,0,29.26,0.42
KLaL_cation_pi_RCCE_opt_3p3.xyz,Nucleus 42C :,-3.29932,-2.31449,-15.5209,47.18,155.19,-31.33,17.67,189.23,228.38,275.83,-47.79,-268.11,-236.01,-31.33,17.67,155.19,0,186.52,-0.47
KLaL_cation_pi_RCCE_opt_3p3.xyz,Nucleus 43C :,-0.634,2.76673,-14.92549,48.43,-55.77,45.38,155.69,166.0,215.07,283.82,-295.93,-172.51,-51.15,-55.77,45.38,155.69,0,211.46,-0.04
KLaL_cation_pi_RCCE_opt_3p3.xyz,Nucleus 45C :,-0.61955,2.27925,-14.04083,60.68,174.31,54.34,-46.6,201.62,227.81,283.95,-32.01,-173.18,-326.14,-46.6,54.34,174.31,0,220.91,-0.09
KLaL_cation_pi_RCCE_opt_3p3.xyz,Nucleus 47C :,-0.34639,4.74638,-16.01492,47.44,-56.95,43.98,155.29,285.34,187.84,222.95,-285.82,-196.66,-71.34,-56.95,43.98,155.29,0,212.24,-0.05
KLaL_cation_pi_RCCE_opt_3p3.xyz,Nucleus 49C :,-0.35573,5.75022,-16.04481,46.11,160.76,-26.31,3.87,219.84,256.7,260.37,-94.52,-233.58,-270.48,-26.31,3.87,160.76,0,187.07,-0.68
KLaL_cation_pi_RCCE_opt_3p3.xyz,Nucleus 50C :,-0.07021,4.25851,-16.85674,20.01,-73.95,13.43,120.56,129.09,220.07,261.95,-34.3,-215.71,-301.06,-73.95,13.43,120.56,0,194.51,-0.1
KLaL_cation_pi_RCCE_opt_3p3.xyz,Nucleus 51C :,-0.64706,4.08323,-14.92389,28.31,-58.29,104.14,39.09,154.31,299.96,274.51,-82.91,-227.39,-333.54,-58.29,39.09,104.14,0,162.43,0.2
KLaL_cation_pi_RCCE_opt_3p3.xyz,Nucleus 57C :,-0.16135,2.29658,-15.68304,27.28,124.6,-25.89,-16.88,230.1,266.9,303.36,-113.23,-280.3,-325.01,-25.89,-16.88,124.6,0,150.49,-0.88
KLaL_cation_pi_RCCE_opt_3p3.xyz,Nucleus 52N :,-0.9608,4.73763,-13.83124,173.69,111.95,183.51,225.61,407.54,339.22,314.76,-253.23,-149.92,-137.3,111.95,183.51,225.61,0,113.66,0.26
KLaL_cation_pi_RCCE_opt_3p3.xyz,Nucleus 54N :,-0.9621,5.74135,-13.79599,177.81,230.37,181.77,121.29,200.24,312.96,363.91,-18.69,-192.8,-132.21,121.29,181.77,230.37,0,109.08,0.11
KLaL_cation_pi_RCCE_opt_3p3.xyz,Nucleus 59N :,-1.16151,4.24139,-12.97253,177.54,230.01,182.0,120.6,396.07,319.11,350.13,-208.07,-228.34,-96.29,120.6,182.0,230.01,0,109.41,0.12
KLaL_cation_pi_RCCE_opt_3p4.xyz,Nucleus 3H :,1.85056,-3.65399,-14.42354,27.81,34.23,25.26,23.95,-78.73,77.53,13.38,105.12,-47.23,13.37,23.95,25.26,34.23,0,10.28,-0.74
KLaL_cation_pi_RCCE_opt_3p4.xyz,Nucleus 4H :,-1.00867,-3.16908,-13.28325,26.93,23.66,27.22,29.9,84.38,-58.71,5.96,-57.19,83.78,22.56,23.66,27.22,29.9,0,6.24,0.14
KLaL_cation_pi_RCCE_opt_3p4.xyz,Nucleus 7H :,2.41198,-2.20461,-16.88088,24.47,29.74,20.74,22.94,-32.17,50.92,90.12,56.6,-25.09,-66.97,20.74,22.94,29.74,0,9.0,-0.51
KLaL_cation_pi_RCCE_opt_3p4.xyz,Nucleus 9H :,3.34765,-1.9455,-17.38756,25.14,22.38,25.64,27.39,17.96,88.16,65.6,8.02,-61.92,-42.42,22.38,25.64,27.39,0,5.01,0.3
KLaL_cation_pi_RCCE_opt_3p4.xyz,Nucleus 11H :,2.39691,-3.29532,-16.81784,24.36,29.77,20.67,22.64,124.7,64.82,32.87,-100.79,-9.39,-39.14,20.67,22.64,29.77,0,9.1,-0.57
KLaL_cation_pi_RCCE_opt_3p4.xyz,Nucleus 14H :,2.4252,-1.57784,-15.50033,26.28,29.57,23.3,25.97,15.76,96.27,71.36,10.15,-71.92,-42.79,23.3,25.97,29.57,0,6.27,-0.15
KLaL_cation_pi_RCCE_opt_3p4.xyz,Nucleus 15H :,2.68791,-0.21348,-15.39687,28.02,34.51,25.57,23.98,133.43,36.03,64.36,-106.53,-3.1,-40.14,23.98,25.57,34.51,0,10.53,-0.7
KLaL_cation_pi_RCCE_opt_3p4.xyz,Nucleus 18H :,2.98968,0.34051,-16.28164,23.86,28.3,22.53,20.76,119.4,88.62,37.91,-97.43,-65.8,-11.11,20.76,22.53,28.3,0,7.54,-0.53
KLaL_cation_pi_RCCE_opt_3p4.xyz,Nucleus 20H :,2.57849,0.43438,-14.17723,24.54,21.15,26.77,25.71,36.08,89.59,107.47,-62.89,-85.97,-10.66,21.15,25.71,26.77,0,5.62,0.62
KLaL_cation_pi_RCCE_opt_3p4.xyz,Nucleus 22H :,2.82822,1.48929,-14.10622,24.15,28.69,23.03,20.72,24.74,117.37,77.25,2.63,-94.29,-55.25,20.72,23.03,28.69,0,7.97,-0.42
KLaL_cation_pi_RCCE_opt_3p4.xyz,Nucleus 29H :,2.14561,-0.24168,-13.06379,27.65,34.19,25.12,23.65,125.88,8.4,34.41,-97.79,22.52,-10.45,23.65,25.12,34.19,0,10.54,-0.72
KLaL_cation_pi_RCCE_opt_3p4.xyz,Nucleus 30H :,2.02109,0.28044,-12.11936,27.04,23.59,27.58,29.94,4.11,90.86,67.58,23.24,-65.91,-38.78,23.59,27.58,29.94,0,6.35,0.26
KLaL_cation_pi_RCCE_opt_3p4.xyz,Nucleus 33H :,1.85668,-1.6211,-13.12241,24.18,29.52,20.41,22.6,121.87,36.78,7.31,-98.2,-11.21,15.97,20.41,22.6,29.52,0,9.11,-0.52
KLaL_cation_pi_RCCE_opt_3p4.xyz,Nucleus 35H :,1.26442,-2.28521,-11.89554,24.7,21.79,25.08,27.24,88.89,-13.06,10.88,-63.84,38.57,12.68,21.79,25.08,27.24,0,5.45,0.21
KLaL_cation_pi_RCCE_opt_3p4.xyz,Nucleus 37H :,1.23472,-3.36627,-12.0504,24.26,29.74,20.39,22.64,-64.32,84.63,17.59,89.42,-61.53,6.98,20.39,22.64,29.74,0,9.35,-0.52
KLaL_cation_pi_RCCE_opt_3p4.xyz,Nucleus 40H :,1.91674,-2.09261,-11.03742,27.15,23.89,30.01,27.55,60.9,-69.88,-15.52,-32.7,93.78,44.87,23.89,27.55,30.01,0,6.12,0.2
KLaL_cation_pi_RCCE_opt_3p4.xyz,Nucleus 41H :,-0.11608,-1.76989,-11.58662,27.59,34.25,25.05,23.48,-111.44,58.29,-28.7,136.22,-24.76,53.16,23.48,25.05,34.25,0,10.77,-0.71
KLaL_cation_pi_RCCE_opt_3p4.xyz,Nucleus 44H :,-0.34726,-0.74504,-10.66249,24.02,28.52,22.82,20.71,-82.52,-26.89,62.16,-36.76,104.01,52.06,20.71,22.82,28.52,0,7.81,-0.46
KLaL_cation_pi_RCCE_opt_3p4.xyz,Nucleus 46H :,0.48968,-0.37756,-10.07614,24.48,21.09,26.72,25.63,-76.84,-26.26,68.7,-43.36,52.93,98.27,21.09,25.63,26.72,0,5.63,0.61
KLaL_cation_pi_RCCE_opt_3p4.xyz,Nucleus 48H :,-1.61623,-0.22215,-10.4753,23.94,28.45,22.66,20.7,63.73,-39.21,-16.42,-38.11,61.68,40.14,20.7,22.66,28.45,0,7.75,-0.5
KLaL_cation_pi_RCCE_opt_3p4.xyz,Nucleus 53H :,-1.78286,0.55559,-9.73755,28.05,36.59,21.9,25.66,20.98,121.93,88.38,-99.22,4.83,-52.76,21.9,25.66,36.59,0,14.69,-0.49
KLaL_cation_pi_RCCE_opt_3p4.xyz,Nucleus 55H :,-2.67282,-0.71904,-11.20753,27.02,20.61,24.47,35.99,-56.42,21.93,63.49,77.71,3.69,-29.34,20.61,24.47,35.99,0,15.38,-0.5
KLaL_cation_pi_RCCE_opt_3p4.xyz,Nucleus 56H :,-3.67284,-0.32653,-11.04041,26.92,20.23,34.12,26.42,-81.96,23.51,60.59,102.4,6.81,-30.58,20.23,26.42,34.12,0,13.89,-0.11
KLaL_cation_pi_RCCE_opt_3p4.xyz,Nucleus 58H :,-2.50759,-1.75085,-12.13052,28.1,36.65,21.88,25.78,10.75,36.56,71.74,-45.72,11.57,-0.61,21.88,25.78,36.65,0,14.77,-0.47
KLaL_cation_pi_RCCE_opt_3p4.xyz,Nucleus 60H :,-1.21105,-2.26606,-12.34584,27.01,35.96,20.61,24.47,71.0,48.53,20.63,9.44,-45.26,-23.3,20.61,24.47,35.96,0,15.35,-0.5
KLaL_cation_pi_RCCE_opt_3p4.xyz,Nucleus 61H :,2.06614,-2.26271,-14.33433,26.89,20.18,34.09,26.4,145.07,18.94,68.4,-124.34,8.86,-36.26,20.18,26.4,34.09,0,13.91,-0.11
KLaL_cation_pi_RCCE_opt_3p4.xyz,Nucleus 62H :,-3.05617,-3.70143,-15.43508,25.82,37.7,17.83,21.94,18.95,38.55,67.43,-42.48,-8.72,3.75,17.83,21.94,37.7,0,19.87,-0.59
KLaL_cation_pi_RCCE_opt_3p4.xyz,Nucleus 63H :,-0.20716,-3.15713,-16.57412,24.79,36.02,23.31,15.05,87.95,46.86,10.22,-54.45,-22.77,6.58,15.05,23.31,36.02,0,20.97,-0.21
KLaL_cation_pi_RCCE_opt_3p4.xyz,Nucleus 64H :,-3.64618,-2.26946,-12.97424,27.88,41.95,19.82,21.86,78.58,-19.92,8.24,-38.42,41.34,13.8,19.82,21.86,41.95,0,22.13,-0.82
KLaL_cation_pi_RCCE_opt_3p4.xyz,Nucleus 65H :,-4.58558,-2.02912,-12.46536,24.42,36.73,23.02,13.51,52.79,31.33,20.33,-35.35,5.46,-1.29,13.51,23.02,36.73,0,23.22,-0.18
KLaL_cation_pi_RCCE_opt_3p4.xyz,Nucleus 2C :,-3.63086,-3.36289,-13.04152,151.53,134.81,163.4,156.38,299.93,166.79,206.29,-145.85,-5.18,-67.39,134.81,156.38,163.4,0,28.59,0.51
KLaL_cation_pi_RCCE_opt_3p4.xyz,Nucleus 5C :,-3.67186,-1.63971,-14.35326,41.19,161.14,7.94,-45.51,312.48,257.59,279.56,-107.69,-300.57,-317.8,-45.51,7.94,161.14,0,206.65,-0.48
KLaL_cation_pi_RCCE_opt_3p4.xyz,Nucleus 6C :,-3.9616,-0.28059,-14.4534,49.55,163.28,-56.39,41.75,234.22,315.01,286.81,-87.36,-361.36,-238.69,-56.39,41.75,163.28,0,219.67,-0.11
KLaL_cation_pi_RCCE_opt_3p4.xyz,Nucleus 8C :,-4.26639,0.26235,-13.56389,60.45,172.85,-50.5,58.99,312.11,249.75,279.38,-92.13,-336.43,-231.34,-50.5,58.99,172.85,0,223.35,-0.02
KLaL_cation_pi_RCCE_opt_3p4.xyz,Nucleus 10C :,-3.86508,0.37227,-15.67146,46.56,163.9,36.72,-60.94,237.65,324.97,286.69,-110.04,-333.88,-265.7,-60.94,36.72,163.9,0,224.84,-0.13
KLaL_cation_pi_RCCE_opt_3p4.xyz,Nucleus 12C :,-4.13466,1.42199,-15.74103,40.48,162.78,-41.61,0.26,232.89,277.31,288.72,-81.48,-325.63,-270.36,-41.61,0.26,162.78,0,204.39,-0.59
KLaL_cation_pi_RCCE_opt_3p4.xyz,Nucleus 13C :,-3.41889,-0.29236,-16.78652,151.96,134.24,164.25,157.39,345.52,241.83,297.67,-86.33,-181.32,-161.5,134.24,157.39,164.25,0,30.01,0.54
KLaL_cation_pi_RCCE_opt_3p4.xyz,Nucleus 16C :,-3.30176,0.23385,-17.72915,43.56,160.27,-29.93,0.35,326.62,253.56,273.51,-94.37,-356.19,-272.42,-29.93,0.35,160.27,0,190.2,-0.68
KLaL_cation_pi_RCCE_opt_3p4.xyz,Nucleus 17C :,-3.10266,-1.66591,-16.73126,46.19,-59.68,43.1,155.16,335.94,262.66,290.64,-371.58,-248.93,-130.15,-59.68,43.1,155.16,0,214.84,-0.04
KLaL_cation_pi_RCCE_opt_3p4.xyz,Nucleus 19C :,-2.49736,-2.31516,-17.95972,61.77,173.87,56.67,-45.24,331.39,251.17,289.21,-112.68,-272.41,-301.39,-45.24,56.67,173.87,0,219.11,-0.07
KLaL_cation_pi_RCCE_opt_3p4.xyz,Nucleus 21C :,-2.47907,-3.407,-17.86462,50.29,-53.12,48.56,155.42,348.27,263.91,273.81,-386.81,-112.04,-236.29,-53.12,48.56,155.42,0,208.54,-0.02
KLaL_cation_pi_RCCE_opt_3p4.xyz,Nucleus 23C :,-3.14888,-2.11605,-18.81737,48.63,-29.62,20.74,154.77,323.11,268.56,285.5,-120.1,-345.63,-265.55,-29.62,20.74,154.77,0,184.39,-0.45
KLaL_cation_pi_RCCE_opt_3p4.xyz,Nucleus 24C :,-1.12737,-1.77181,-18.26735,18.41,120.1,9.16,-74.04,238.84,328.15,315.39,-145.11,-314.07,-367.97,-74.04,9.16,120.1,0,194.14,-0.14
KLaL_cation_pi_RCCE_opt_3p4.xyz,Nucleus 25C :,-0.91658,-0.74033,-19.18898,19.91,109.16,-63.38,13.94,214.29,289.7,282.44,-113.77,-266.7,-346.24,-63.38,13.94,109.16,0,172.54,-0.1
KLaL_cation_pi_RCCE_opt_3p4.xyz,Nucleus 28C :,-1.75776,-0.38293,-19.77633,152.4,135.37,157.06,164.77,327.66,218.93,275.07,-73.2,-165.47,-125.78,135.37,157.06,164.77,0,29.4,0.48
KLaL_cation_pi_RCCE_opt_3p4.xyz,Nucleus 31C :,0.34176,-0.19192,-19.37488,39.29,163.04,0.29,-45.45,201.08,292.48,258.33,-61.24,-251.06,-321.72,-45.45,0.29,163.04,0,208.49,-0.56
KLaL_cation_pi_RCCE_opt_3p4.xyz,Nucleus 32C :,0.49023,0.59144,-20.11041,46.36,163.97,-58.35,33.46,211.67,321.35,269.04,-109.04,-261.01,-292.94,-58.35,33.46,163.97,0,222.32,-0.17
KLaL_cation_pi_RCCE_opt_3p4.xyz,Nucleus 34C :,1.40802,-0.66952,-18.64383,53.36,175.26,-59.0,43.82,319.49,208.92,249.08,-66.1,-343.78,-207.52,-59.0,43.82,175.26,0,234.26,-0.12
KLaL_cation_pi_RCCE_opt_3p4.xyz,Nucleus 36C :,2.40209,-0.26185,-18.80495,46.37,164.61,32.7,-58.21,187.9,313.55,258.88,-63.38,-211.85,-346.02,-58.21,32.7,164.61,0,222.82,-0.18
KLaL_cation_pi_RCCE_opt_3p4.xyz,Nucleus 38C :,1.26331,-1.70665,-17.72336,41.19,162.64,-43.25,4.19,219.39,296.72,333.39,-119.89,-278.56,-327.46,-43.25,4.19,162.64,0,205.89,-0.54
KLaL_cation_pi_RCCE_opt_3p4.xyz,Nucleus 39C :,-0.02275,-2.248,-17.50932,153.42,136.74,166.01,157.52,271.42,140.79,197.42,19.65,-113.83,-55.17,136.74,157.52,166.01,0,29.27,0.42
KLaL_cation_pi_RCCE_opt_3p4.xyz,Nucleus 42C :,-3.29932,-2.31449,-15.5209,47.22,155.18,-31.3,17.78,189.6,228.43,275.98,-47.94,-268.28,-236.13,-31.3,17.78,155.18,0,186.48,-0.47
KLaL_cation_pi_RCCE_opt_3p4.xyz,Nucleus 43C :,-0.634,2.86673,-14.92549,48.46,-55.75,45.48,155.65,166.01,215.33,283.67,-295.84,-172.72,-51.06,-55.75,45.48,155.65,0,211.4,-0.04
KLaL_cation_pi_RCCE_opt_3p4.xyz,Nucleus 45C :,-0.61955,2.37925,-14.04083,60.69,174.26,54.4,-46.6,201.53,227.76,283.35,-32.12,-173.11,-325.34,-46.6,54.4,174.26,0,220.86,-0.09
KLaL_cation_pi_RCCE_opt_3p4.xyz,Nucleus 47C :,-0.34639,4.84638,-16.01492,47.43,-56.98,44.02,155.24,284.96,187.86,222.92,-285.19,-196.87,-71.4,-56.98,44.02,155.24,0,212.22,-0.05
KLaL_cation_pi_RCCE_opt_3p4.xyz,Nucleus 49C :,-0.35573,5.85022,-16.04481,46.12,160.74,-26.32,3.93,219.74,260.53,256.62,-94.56,-233.28,-270.7,-26.32,3.93,160.74,0,187.06,-0.68
KLaL_cation_pi_RCCE_opt_3p4.xyz,Nucleus 50C :,-0.07021,4.35851,-16.85674,20.0,-73.98,13.45,120.54,129.39,220.07,262.07,-34.42,-215.68,-301.41,-73.98,13.45,120.54,0,194.52,-0.1
KLaL_cation_pi_RCCE_opt_3p4.xyz,Nucleus 51C :,-0.64706,4.18323,-14.92389,28.31,-58.31,104.12,39.12,154.42,300.03,274.73,-82.97,-227.33,-333.95,-58.31,39.12,104.12,0,162.43,0.2
KLaL_cation_pi_RCCE_opt_3p4.xyz,Nucleus 57C :,-0.16135,2.39658,-15.68304,27.21,124.56,-25.8,-17.13,229.85,266.77,302.83,-112.94,-280.46,-324.43,-25.8,-17.13,124.56,0,150.36,-0.88
KLaL_cation_pi_RCCE_opt_3p4.xyz,Nucleus 52N :,-0.9608,4.83763,-13.83124,174.08,112.57,183.4,226.26,406.41,338.56,315.44,-251.21,-150.86,-136.11,112.57,183.4,226.26,0,113.69,0.25
KLaL_cation_pi_RCCE_opt_3p4.xyz,Nucleus 54N :,-0.9621,5.84135,-13.79599,177.67,230.23,181.78,120.99,199.88,312.84,363.3,-18.31,-192.9,-131.83,120.99,181.78,230.23,0,109.24,0.11
KLaL_cation_pi_RCCE_opt_3p4.xyz,Nucleus 59N :,-1.16151,4.34139,-12.97253,177.4,229.87,182.01,120.31,395.5,319.17,349.49,-207.44,-228.04,-96.49,120.31,182.01,229.87,0,109.56,0.13
KLaL_cation_pi_RCCE_opt_3p5.xyz,Nucleus 3H :,1.85056,-3.65399,-14.42354,27.82,34.23,25.27,23.95,-78.61,77.51,13.34,105.01,-47.22,13.41,23.95,25.27,34.23,0,10.28,-0.74
KLaL_cation_pi_RCCE_opt_3p5.xyz,Nucleus 4H :,-1.00867,-3.16908,-13.28325,26.93,23.66,27.22,29.9,84.38,-58.57,5.88,-57.2,83.65,22.64,23.66,27.22,29.9,0,6.24,0.14
KLaL_cation_pi_RCCE_opt_3p5.xyz,Nucleus 7H :,2.41198,-2.20461,-16.88088,24.48,29.76,20.72,22.95,-32.11,50.78,89.9,56.54,-24.95,-66.73,20.72,22.95,29.76,0,9.04,-0.51
KLaL_cation_pi_RCCE_opt_3p5.xyz,Nucleus 9H :,3.34765,-1.9455,-17.38756,25.14,22.35,25.65,27.41,18.16,87.8,65.39,7.83,-61.56,-42.19,22.35,25.65,27.41,0,5.06,0.3
KLaL_cation_pi_RCCE_opt_3p5.xyz,Nucleus 11H :,2.39691,-3.29532,-16.81784,24.36,29.79,20.66,22.64,124.62,64.74,32.85,-100.71,-9.35,-39.06,20.66,22.64,29.79,0,9.13,-0.57
KLaL_cation_pi_RCCE_opt_3p5.xyz,Nucleus 14H :,2.4252,-1.57784,-15.50033,26.28,29.57,23.31,25.97,15.79,96.22,71.32,10.12,-71.86,-42.74,23.31,25.97,29.57,0,6.26,-0.15
KLaL_cation_pi_RCCE_opt_3p5.xyz,Nucleus 15H :,2.68791,-0.21348,-15.39687,28.02,34.5,25.57,23.99,133.37,36.06,64.28,-106.45,-3.13,-40.05,23.99,25.57,34.5,0,10.51,-0.7
KLaL_cation_pi_RCCE_opt_3p5.xyz,Nucleus 18H :,2.98968,0.34051,-16.28164,23.87,28.31,22.53,20.76,119.31,88.51,37.91,-97.34,-65.69,-11.11,20.76,22.53,28.31,0,7.55,-0.53
KLaL_cation_pi_RCCE_opt_3p5.xyz,Nucleus 20H :,2.57849,0.43438,-14.17723,24.55,21.15,26.79,25.71,36.11,89.43,107.54,-62.71,-86.03,-10.7,21.15,25.71,26.79,0,5.64,0.62
KLaL_cation_pi_RCCE_opt_3p5.xyz,Nucleus 22H :,2.82822,1.48929,-14.10622,24.15,28.71,23.03,20.72,24.75,117.21,77.28,2.61,-94.13,-55.26,20.72,23.03,28.71,0,7.99,-0.42
KLaL_cation_pi_RCCE_opt_3p5.xyz,Nucleus 29H :,2.14561,-0.24168,-13.06379,27.66,34.19,25.13,23.66,125.78,8.43,34.48,-97.7,22.49,-10.52,23.66,25.13,34.19,0,10.53,-0.72
KLaL_cation_pi_RCCE_opt_3p5.xyz,Nucleus 30H :,2.02109,0.28044,-12.11936,27.04,23.6,27.58,29.93,4.13,90.82,67.62,23.22,-65.86,-38.82,23.6,27.58,29.93,0,6.33,0.26
KLaL_cation_pi_RCCE_opt_3p5.xyz,Nucleus 33H :,1.85668,-1.6211,-13.12241,24.17,29.53,20.39,22.6,121.64,37.24,7.37,-97.98,-11.66,15.92,20.39,22.6,29.53,0,9.14,-0.52
KLaL_cation_pi_RCCE_opt_3p5.xyz,Nucleus 35H :,1.26442,-2.28521,-11.89554,24.71,21.76,25.1,27.26,88.77,-12.4,11.02,-63.73,37.9,12.56,21.76,25.1,27.26,0,5.5,0.21
KLaL_cation_pi_RCCE_opt_3p5.xyz,Nucleus 37H :,1.23472,-3.36627,-12.0504,24.26,29.75,20.37,22.65,-63.65,84.64,17.67,88.74,-61.53,6.89,20.37,22.65,29.75,0,9.38,-0.51
KLaL_cation_pi_RCCE_opt_3p5.xyz,Nucleus 40H :,1.91674,-2.09261,-11.03742,27.15,23.89,30.01,27.55,60.91,-69.81,-15.4,-32.71,93.71,44.76,23.89,27.55,30.01,0,6.12,0.2
KLaL_cation_pi_RCCE_opt_3p5.xyz,Nucleus 41H :,-0.11608,-1.76989,-11.58662,27.59,34.24,25.05,23.49,-111.32,58.3,-28.52,136.1,-24.77,52.99,23.49,25.05,34.24,0,10.75,-0.71
KLaL_cation_pi_RCCE_opt_3p5.xyz,Nucleus 44H :,-0.34726,-0.74504,-10.66249,24.02,28.53,22.82,20.71,-82.4,-26.56,62.2,-36.81,103.89,51.75,20.71,22.82,28.53,0,7.82,-0.46
KLaL_cation_pi_RCCE_opt_3p5.xyz,Nucleus 46H :,0.48968,-0.37756,-10.07614,24.48,21.09,26.73,25.63,-76.98,-25.95,68.63,-43.3,52.63,98.42,21.09,25.63,26.73,0,5.64,0.61
KLaL_cation_pi_RCCE_opt_3p5.xyz,Nucleus 48H :,-1.61623,-0.22215,-10.4753,23.94,28.46,22.66,20.7,63.68,-39.12,-16.27,-38.08,61.55,40.05,20.7,22.66,28.46,0,7.76,-0.49
KLaL_cation_pi_RCCE_opt_3p5.xyz,Nucleus 53H :,-1.78286,0.55559,-9.73755,27.97,21.74,25.64,36.52,21.17,122.28,87.47,-99.76,4.62,-51.88,21.74,25.64,36.52,0,14.78,-0.47
KLaL_cation_pi_RCCE_opt_3p5.xyz,Nucleus 55H :,-2.67282,-0.71904,-11.20753,27.0,20.6,24.46,35.94,-57.16,21.95,63.03,78.43,3.64,-28.89,20.6,24.46,35.94,0,15.34,-0.5
KLaL_cation_pi_RCCE_opt_3p5.xyz,Nucleus 56H :,-3.67284,-0.32653,-11.04041,26.9,20.22,34.1,26.37,-82.23,23.51,59.97,102.65,6.7,-29.91,20.22,26.37,34.1,0,13.88,-0.11
KLaL_cation_pi_RCCE_opt_3p5.xyz,Nucleus 58H :,-2.50759,-1.75085,-12.13052,28.02,36.58,21.72,25.77,10.68,36.49,70.43,-44.43,11.49,-0.59,21.72,25.77,36.58,0,14.86,-0.45
KLaL_cation_pi_RCCE_opt_3p5.xyz,Nucleus 60H :,-1.21105,-2.26606,-12.34584,26.99,35.92,20.61,24.45,70.36,48.08,20.56,9.42,-44.54,-22.9,20.61,24.45,35.92,0,15.31,-0.5
KLaL_cation_pi_RCCE_opt_3p5.xyz,Nucleus 61H :,2.06614,-2.26271,-14.33433,26.87,20.18,34.07,26.35,144.93,19.08,67.75,-124.21,8.7,-35.65,20.18,26.35,34.07,0,13.89,-0.11
KLaL_cation_pi_RCCE_opt_3p5.xyz,Nucleus 62H :,-3.05617,-3.70143,-15.43508,25.83,37.71,17.83,21.94,18.9,38.55,67.41,-42.47,-8.68,3.78,17.83,21.94,37.71,0,19.88,-0.59
KLaL_cation_pi_RCCE_opt_3p5.xyz,Nucleus 63H :,-0.20716,-3.15713,-16.57412,24.8,36.03,23.32,15.04,87.94,46.91,10.21,-54.44,-22.81,6.59,15.04,23.32,36.03,0,20.99,-0.21
KLaL_cation_pi_RCCE_opt_3p5.xyz,Nucleus 64H :,-3.64618,-2.26946,-12.97424,27.88,41.94,19.83,21.86,78.58,-19.83,8.27,-38.42,41.25,13.77,19.83,21.86,41.94,0,22.11,-0.82
KLaL_cation_pi_RCCE_opt_3p5.xyz,Nucleus 65H :,-4.58558,-2.02912,-12.46536,24.43,36.74,23.03,13.51,52.72,31.3,20.42,-35.31,5.42,-1.28,13.51,23.03,36.74,0,23.23,-0.18
KLaL_cation_pi_RCCE_opt_3p5.xyz,Nucleus 2C :,-3.63086,-3.36289,-13.04152,151.53,134.82,163.41,156.36,300.02,166.7,206.14,-145.97,-5.08,-67.23,134.82,156.36,163.41,0,28.59,0.51
KLaL_cation_pi_RCCE_opt_3p5.xyz,Nucleus 5C :,-3.67186,-1.63971,-14.35326,41.27,161.12,8.14,-45.44,312.34,257.99,279.32,-107.9,-300.3,-317.63,-45.44,8.14,161.12,0,206.56,-0.48
KLaL_cation_pi_RCCE_opt_3p5.xyz,Nucleus 6C :,-3.9616,-0.28059,-14.4534,49.47,163.23,-56.49,41.68,233.87,314.38,286.95,-86.85,-361.19,-238.75,-56.49,41.68,163.23,0,219.72,-0.11
KLaL_cation_pi_RCCE_opt_3p5.xyz,Nucleus 8C :,-4.26639,0.26235,-13.56389,60.48,172.72,-50.46,59.19,311.8,249.98,279.21,-92.32,-336.22,-231.01,-50.46,59.19,172.72,0,223.18,-0.02
KLaL_cation_pi_RCCE_opt_3p5.xyz,Nucleus 10C :,-3.86508,0.37227,-15.67146,46.5,163.85,36.68,-61.02,238.28,325.02,286.26,-110.67,-333.85,-265.53,-61.02,36.68,163.85,0,224.87,-0.13
KLaL_cation_pi_RCCE_opt_3p5.xyz,Nucleus 12C :,-4.13466,1.42199,-15.74103,40.56,162.76,-41.53,0.45,233.04,277.13,288.47,-81.49,-325.51,-269.95,-41.53,0.45,162.76,0,204.29,-0.59
KLaL_cation_pi_RCCE_opt_3p5.xyz,Nucleus 13C :,-3.41889,-0.29236,-16.78652,151.96,134.25,164.25,157.37,345.51,241.84,297.6,-86.32,-181.32,-161.44,134.25,157.37,164.25,0,30.0,0.54
KLaL_cation_pi_RCCE_opt_3p5.xyz,Nucleus 16C :,-3.30176,0.23385,-17.72915,43.58,160.26,-29.93,0.41,326.7,253.61,273.37,-94.39,-356.27,-272.29,-29.93,0.41,160.26,0,190.19,-0.68
KLaL_cation_pi_RCCE_opt_3p5.xyz,Nucleus 17C :,-3.10266,-1.66591,-16.73126,46.2,-59.69,43.16,155.12,335.78,262.76,290.72,-371.56,-248.96,-130.15,-59.69,43.16,155.12,0,214.81,-0.04
KLaL_cation_pi_RCCE_opt_3p5.xyz,Nucleus 19C :,-2.49736,-2.31516,-17.95972,61.77,173.82,56.72,-45.24,331.27,251.56,289.28,-112.62,-272.28,-301.91,-45.24,56.72,173.82,0,219.06,-0.07
KLaL_cation_pi_RCCE_opt_3p5.xyz,Nucleus 21C :,-2.47907,-3.407,-17.86462,50.3,-53.1,48.64,155.37,348.01,263.76,274.18,-386.72,-111.99,-236.33,-53.1,48.64,155.37,0,208.47,-0.02
KLaL_cation_pi_RCCE_opt_3p5.xyz,Nucleus 23C :,-3.14888,-2.11605,-18.81737,48.67,-29.6,20.84,154.76,323.24,268.55,285.46,-120.13,-345.64,-265.48,-29.6,20.84,154.76,0,184.36,-0.45
KLaL_cation_pi_RCCE_opt_3p5.xyz,Nucleus 24C :,-1.12737,-1.77181,-18.26735,18.4,120.09,9.18,-74.06,238.86,328.13,315.12,-145.07,-314.07,-367.76,-74.06,9.18,120.09,0,194.15,-0.14
KLaL_cation_pi_RCCE_opt_3p5.xyz,Nucleus 25C :,-0.91658,-0.74033,-19.18898,19.94,109.16,-63.36,14.02,214.52,289.52,282.19,-113.83,-266.48,-346.1,-63.36,14.02,109.16,0,172.52,-0.1
KLaL_cation_pi_RCCE_opt_3p5.xyz,Nucleus 28C :,-1.75776,-0.38293,-19.77633,152.39,135.37,157.04,164.77,327.6,219.01,275.04,-73.24,-165.43,-125.8,135.37,157.04,164.77,0,29.4,0.47
KLaL_cation_pi_RCCE_opt_3p5.xyz,Nucleus 31C :,0.34176,-0.19192,-19.37488,39.32,163.02,0.37,-45.42,200.92,292.97,258.37,-61.2,-251.07,-322.03,-45.42,0.37,163.02,0,208.44,-0.56
KLaL_cation_pi_RCCE_opt_3p5.xyz,Nucleus 32C :,0.49023,0.59144,-20.11041,46.33,163.94,-58.4,33.44,212.11,321.47,268.95,-109.53,-260.87,-293.16,-58.4,33.44,163.94,0,222.34,-0.17
KLaL_cation_pi_RCCE_opt_3p5.xyz,Nucleus 34C :,1.40802,-0.66952,-18.64383,53.42,175.18,-58.93,44.0,319.17,209.86,248.91,-66.54,-343.58,-207.56,-58.93,44.0,175.18,0,234.11,-0.12
KLaL_cation_pi_RCCE_opt_3p5.xyz,Nucleus 36C :,2.40209,-0.26185,-18.80495,46.34,164.57,32.7,-58.26,188.49,312.93,259.2,-63.48,-212.32,-345.8,-58.26,32.7,164.57,0,222.83,-0.18
KLaL_cation_pi_RCCE_opt_3p5.xyz,Nucleus 38C :,1.26331,-1.70665,-17.72336,41.22,162.63,-43.22,4.26,219.29,296.74,333.96,-119.79,-278.61,-327.92,-43.22,4.26,162.63,0,205.85,-0.54
KLaL_cation_pi_RCCE_opt_3p5.xyz,Nucleus 39C :,-0.02275,-2.248,-17.50932,153.42,136.75,166.01,157.5,271.43,140.69,197.56,19.73,-113.87,-55.29,136.75,157.5,166.01,0,29.26,0.42
KLaL_cation_pi_RCCE_opt_3p5.xyz,Nucleus 42C :,-3.29932,-2.31449,-15.5209,47.25,155.16,-31.28,17.88,189.87,228.53,276.12,-48.06,-268.48,-236.22,-31.28,17.88,155.16,0,186.44,-0.47
KLaL_cation_pi_RCCE_opt_3p5.xyz,Nucleus 43C :,-0.634,2.96673,-14.92549,48.48,-55.72,45.57,155.6,166.04,215.58,283.51,-295.74,-172.95,-50.99,-55.72,45.57,155.6,0,211.32,-0.04
KLaL_cation_pi_RCCE_opt_3p5.xyz,Nucleus 45C :,-0.61955,2.47925,-14.04083,60.69,174.21,54.45,-46.6,201.37,227.73,282.71,-32.17,-173.09,-324.48,-46.6,54.45,174.21,0,220.81,-0.08
KLaL_cation_pi_RCCE_opt_3p5.xyz,Nucleus 47C :,-0.34639,4.94638,-16.01492,47.42,-57.01,44.06,155.2,284.58,187.9,222.96,-284.6,-197.09,-71.5,-57.01,44.06,155.2,0,212.21,-0.05
KLaL_cation_pi_RCCE_opt_3p5.xyz,Nucleus 49C :,-0.35573,5.95022,-16.04481,46.13,160.73,-26.33,3.99,219.62,260.67,256.57,-94.62,-232.94,-270.92,-26.33,3.99,160.73,0,187.06,-0.68
KLaL_cation_pi_RCCE_opt_3p5.xyz,Nucleus 50C :,-0.07021,4.45851,-16.85674,20.0,-74.0,13.47,120.53,129.62,220.1,262.16,-34.52,-215.69,-301.68,-74.0,13.47,120.53,0,194.53,-0.1
KLaL_cation_pi_RCCE_opt_3p5.xyz,Nucleus 51C :,-0.64706,4.28323,-14.92389,28.31,-58.32,104.11,39.15,154.54,300.09,274.94,-83.03,-227.25,-334.34,-58.32,39.15,104.11,0,162.43,0.2
KLaL_cation_pi_RCCE_opt_3p5.xyz,Nucleus 57C :,-0.16135,2.49658,-15.68304,27.15,124.53,-25.71,-17.37,229.6,266.66,302.31,-112.64,-280.62,-323.85,-25.71,-17.37,124.53,0,150.24,-0.89
KLaL_cation_pi_RCCE_opt_3p5.xyz,Nucleus 52N :,-0.9608,4.93763,-13.83124,174.43,113.16,183.3,226.84,405.3,337.95,316.09,-249.26,-151.81,-134.97,113.16,183.3,226.84,0,113.68,0.23
KLaL_cation_pi_RCCE_opt_3p5.xyz,Nucleus 54N :,-0.9621,5.94135,-13.79599,177.53,230.09,181.8,120.7,199.49,312.75,362.71,-17.9,-193.01,-131.45,120.7,181.8,230.09,0,109.39,0.12
KLaL_cation_pi_RCCE_opt_3p5.xyz,Nucleus 59N :,-1.16151,4.44139,-12.97253,177.26,229.74,182.02,120.03,394.96,319.24,348.84,-206.84,-227.73,-96.7,120.03,182.02,229.74,0,109.71,0.13
KLaL_cation_pi_RCCE_opt_3p6.xyz,Nucleus 3H :,1.85056,-3.65399,-14.42354,27.82,34.23,25.27,23.95,-78.46,77.49,13.28,104.86,-47.2,13.48,23.95,25.27,34.23,0,10.28,-0.74
KLaL_cation_pi_RCCE_opt_3p6.xyz,Nucleus 4H :,-1.00867,-3.16908,-13.28325,26.93,23.67,27.21,29.91,84.39,-58.45,5.79,-57.2,83.52,22.74,23.67,27.21,29.91,0,6.24,0.13
KLaL_cation_pi_RCCE_opt_3p6.xyz,Nucleus 7H :,2.41198,-2.20461,-16.88088,24.48,29.79,20.7,22.95,-32.03,50.63,89.69,56.47,-24.82,-66.51,20.7,22.95,29.79,0,9.09,-0.5
KLaL_cation_pi_RCCE_opt_3p6.xyz,Nucleus 9H :,3.34765,-1.9455,-17.38756,25.15,22.33,25.67,27.44,18.37,87.41,65.18,7.63,-61.17,-41.98,22.33,25.67,27.44,0,5.11,0.31
KLaL_cation_pi_RCCE_opt_3p6.xyz,Nucleus 11H :,2.39691,-3.29532,-16.81784,24.36,29.81,20.65,22.63,124.54,64.66,32.82,-100.64,-9.3,-38.99,20.65,22.63,29.81,0,9.16,-0.57
KLaL_cation_pi_RCCE_opt_3p6.xyz,Nucleus 14H :,2.4252,-1.57784,-15.50033,26.29,29.57,23.32,25.97,15.82,96.17,71.3,10.09,-71.82,-42.71,23.32,25.97,29.57,0,6.25,-0.15
KLaL_cation_pi_RCCE_opt_3p6.xyz,Nucleus 15H :,2.68791,-0.21348,-15.39687,28.03,34.5,25.58,24.0,133.27,36.08,64.2,-106.35,-3.16,-39.96,24.0,25.58,34.5,0,10.5,-0.7
KLaL_cation_pi_RCCE_opt_3p6.xyz,Nucleus 18H :,2.98968,0.34051,-16.28164,23.87,28.32,22.53,20.77,119.23,88.4,37.92,-97.25,-65.56,-11.11,20.77,22.53,28.32,0,7.55,-0.53
KLaL_cation_pi_RCCE_opt_3p6.xyz,Nucleus 20H :,2.57849,0.43438,-14.17723,24.56,21.16,26.8,25.71,36.14,89.28,107.61,-62.54,-86.08,-10.74,21.16,25.71,26.8,0,5.64,0.61
KLaL_cation_pi_RCCE_opt_3p6.xyz,Nucleus 22H :,2.82822,1.48929,-14.10622,24.16,28.72,23.04,20.73,24.77,117.08,77.29,2.6,-93.99,-55.26,20.73,23.04,28.72,0,7.99,-0.42
KLaL_cation_pi_RCCE_opt_3p6.xyz,Nucleus 29H :,2.14561,-0.24168,-13.06379,27.66,34.18,25.14,23.65,125.67,8.48,34.54,-97.58,22.44,-10.58,23.65,25.14,34.18,0,10.53,-0.72
KLaL_cation_pi_RCCE_opt_3p6.xyz,Nucleus 30H :,2.02109,0.28044,-12.11936,27.04,23.61,27.58,29.93,4.16,90.8,67.67,23.19,-65.85,-38.86,23.61,27.58,29.93,0,6.32,0.26
KLaL_cation_pi_RCCE_opt_3p6.xyz,Nucleus 33H :,1.85668,-1.6211,-13.12241,24.18,29.55,20.38,22.61,121.46,37.6,7.44,-97.79,-12.03,15.87,20.38,22.61,29.55,0,9.17,-0.51
KLaL_cation_pi_RCCE_opt_3p6.xyz,Nucleus 35H :,1.26442,-2.28521,-11.89554,24.71,21.73,25.12,27.28,88.67,-11.79,11.14,-63.63,37.29,12.45,21.73,25.12,27.28,0,5.55,0.22
KLaL_cation_pi_RCCE_opt_3p6.xyz,Nucleus 37H :,1.23472,-3.36627,-12.0504,24.25,29.76,20.35,22.65,-63.08,84.66,17.76,88.17,-61.54,6.8,20.35,22.65,29.76,0,9.41,-0.51
KLaL_cation_pi_RCCE_opt_3p6.xyz,Nucleus 40H :,1.91674,-2.09261,-11.03742,27.15,23.9,30.0,27.55,60.9,-69.79,-15.3,-32.71,93.7,44.66,23.9,27.55,30.0,0,6.1,0.2
KLaL_cation_pi_RCCE_opt_3p6.xyz,Nucleus 41H :,-0.11608,-1.76989,-11.58662,27.6,34.24,25.06,23.5,-111.17,58.29,-28.35,135.97,-24.77,52.83,23.5,25.06,34.24,0,10.74,-0.71
KLaL_cation_pi_RCCE_opt_3p6.xyz,Nucleus 44H :,-0.34726,-0.74504,-10.66249,24.02,28.54,22.82,20.71,-82.34,-26.25,62.24,-36.85,103.82,51.45,20.71,22.82,28.54,0,7.83,-0.46
KLaL_cation_pi_RCCE_opt_3p6.xyz,Nucleus 46H :,0.48968,-0.37756,-10.07614,24.48,21.08,26.74,25.63,-77.14,-25.65,68.57,-43.24,52.35,98.57,21.08,25.63,26.74,0,5.66,0.61
KLaL_cation_pi_RCCE_opt_3p6.xyz,Nucleus 48H :,-1.61623,-0.22215,-10.4753,23.94,28.47,22.65,20.7,63.65,-39.04,-16.1,-38.07,61.43,39.94,20.7,22.65,28.47,0,7.77,-0.5
KLaL_cation_pi_RCCE_opt_3p6.xyz,Nucleus 53H :,-1.78286,0.55559,-9.73755,27.89,21.59,25.62,36.46,21.34,122.66,86.57,-100.32,4.43,-51.01,21.59,25.62,36.46,0,14.87,-0.46
KLaL_cation_pi_RCCE_opt_3p6.xyz,Nucleus 55H :,-2.67282,-0.71904,-11.20753,26.98,20.59,24.45,35.9,-57.9,21.97,62.57,79.15,3.59,-28.44,20.59,24.45,35.9,0,15.31,-0.5
KLaL_cation_pi_RCCE_opt_3p6.xyz,Nucleus 56H :,-3.67284,-0.32653,-11.04041,26.88,20.22,34.08,26.33,-82.48,23.51,59.37,102.9,6.58,-29.26,20.22,26.33,34.08,0,13.86,-0.12
KLaL_cation_pi_RCCE_opt_3p6.xyz,Nucleus 58H :,-2.50759,-1.75085,-12.13052,27.95,36.51,21.59,25.76,10.61,36.43,69.16,-43.2,11.44,-0.59,21.59,25.76,36.51,0,14.92,-0.44
KLaL_cation_pi_RCCE_opt_3p6.xyz,Nucleus 60H :,-1.21105,-2.26606,-12.34584,26.97,35.87,20.6,24.44,69.73,47.64,20.48,9.41,-43.84,-22.5,20.6,24.44,35.87,0,15.27,-0.5
KLaL_cation_pi_RCCE_opt_3p6.xyz,Nucleus 61H :,2.06614,-2.26271,-14.33433,26.84,20.18,34.05,26.3,144.79,19.21,67.12,-124.07,8.54,-35.06,20.18,26.3,34.05,0,13.87,-0.12
KLaL_cation_pi_RCCE_opt_3p6.xyz,Nucleus 62H :,-3.05617,-3.70143,-15.43508,25.84,37.73,17.84,21.95,18.86,38.54,67.39,-42.46,-8.6,3.8,17.84,21.95,37.73,0,19.89,-0.59
KLaL_cation_pi_RCCE_opt_3p6.xyz,Nucleus 63H :,-0.20716,-3.15713,-16.57412,24.8,36.04,23.33,15.03,87.93,46.98,10.21,-54.42,-22.88,6.58,15.03,23.33,36.04,0,21.01,-0.21
KLaL_cation_pi_RCCE_opt_3p6.xyz,Nucleus 64H :,-3.64618,-2.26946,-12.97424,27.88,41.94,19.84,21.87,78.57,-19.73,8.31,-38.4,41.17,13.74,19.84,21.87,41.94,0,22.1,-0.82
KLaL_cation_pi_RCCE_opt_3p6.xyz,Nucleus 65H :,-4.58558,-2.02912,-12.46536,24.43,36.74,23.04,13.5,52.66,31.29,20.51,-35.3,5.4,-1.28,13.5,23.04,36.74,0,23.24,-0.18
KLaL_cation_pi_RCCE_opt_3p6.xyz,Nucleus 2C :,-3.63086,-3.36289,-13.04152,151.5,134.8,163.39,156.31,300.14,166.52,205.85,-146.14,-4.94,-66.93,134.8,156.31,163.39,0,28.59,0.5
KLaL_cation_pi_RCCE_opt_3p6.xyz,Nucleus 5C :,-3.67186,-1.63971,-14.35326,41.37,161.12,8.33,-45.35,312.21,258.38,279.11,-108.13,-300.03,-317.45,-45.35,8.33,161.12,0,206.47,-0.48
KLaL_cation_pi_RCCE_opt_3p6.xyz,Nucleus 6C :,-3.9616,-0.28059,-14.4534,49.41,163.2,-56.59,41.62,233.27,313.8,286.96,-86.01,-361.04,-238.76,-56.59,41.62,163.2,0,219.79,-0.11
KLaL_cation_pi_RCCE_opt_3p6.xyz,Nucleus 8C :,-4.26639,0.26235,-13.56389,60.5,172.58,-50.43,59.34,311.49,250.08,279.08,-92.44,-336.0,-230.72,-50.43,59.34,172.58,0,223.01,-0.02
KLaL_cation_pi_RCCE_opt_3p6.xyz,Nucleus 10C :,-3.86508,0.37227,-15.67146,46.44,163.78,36.64,-61.1,238.85,325.1,286.06,-111.5,-333.83,-265.36,-61.1,36.64,163.78,0,224.88,-0.13
KLaL_cation_pi_RCCE_opt_3p6.xyz,Nucleus 12C :,-4.13466,1.42199,-15.74103,40.65,162.75,-41.45,0.64,233.15,276.92,288.23,-81.43,-325.39,-269.54,-41.45,0.64,162.75,0,204.2,-0.59
KLaL_cation_pi_RCCE_opt_3p6.xyz,Nucleus 13C :,-3.41889,-0.29236,-16.78652,151.98,134.28,164.27,157.38,345.52,241.8,297.63,-86.25,-181.3,-161.47,134.28,157.38,164.27,0,29.99,0.54
KLaL_cation_pi_RCCE_opt_3p6.xyz,Nucleus 16C :,-3.30176,0.23385,-17.72915,43.59,160.25,-29.94,0.45,326.79,253.6,273.35,-94.36,-356.36,-272.26,-29.94,0.45,160.25,0,190.19,-0.68
KLaL_cation_pi_RCCE_opt_3p6.xyz,Nucleus 17C :,-3.10266,-1.66591,-16.73126,46.2,-59.7,43.22,155.07,335.64,262.86,290.85,-371.56,-249.0,-130.19,-59.7,43.22,155.07,0,214.77,-0.04
KLaL_cation_pi_RCCE_opt_3p6.xyz,Nucleus 19C :,-2.49736,-2.31516,-17.95972,61.77,173.76,56.78,-45.24,331.17,251.91,289.37,-112.6,-272.15,-302.41,-45.24,56.78,173.76,0,219.0,-0.07
KLaL_cation_pi_RCCE_opt_3p6.xyz,Nucleus 21C :,-2.47907,-3.407,-17.86462,50.32,-53.09,48.71,155.33,347.81,263.59,274.5,-386.7,-111.88,-236.36,-53.09,48.71,155.33,0,208.42,-0.02
KLaL_cation_pi_RCCE_opt_3p6.xyz,Nucleus 23C :,-3.14888,-2.11605,-18.81737,48.7,-29.58,20.93,154.74,323.39,268.56,285.42,-120.14,-345.65,-265.48,-29.58,20.93,154.74,0,184.32,-0.45
KLaL_cation_pi_RCCE_opt_3p6.xyz,Nucleus 24C :,-1.12737,-1.77181,-18.26735,18.4,120.08,9.19,-74.08,238.87,328.15,314.94,-145.01,-314.11,-367.63,-74.08,9.19,120.08,0,194.16,-0.14
KLaL_cation_pi_RCCE_opt_3p6.xyz,Nucleus 25C :,-0.91658,-0.74033,-19.18898,19.98,109.15,-63.31,14.1,214.75,289.34,281.94,-113.89,-266.27,-345.93,-63.31,14.1,109.15,0,172.46,-0.1
KLaL_cation_pi_RCCE_opt_3p6.xyz,Nucleus 28C :,-1.75776,-0.38293,-19.77633,152.39,135.37,157.02,164.78,327.58,219.08,274.99,-73.27,-165.41,-125.81,135.37,157.02,164.78,0,29.41,0.47
KLaL_cation_pi_RCCE_opt_3p6.xyz,Nucleus 31C :,0.34176,-0.19192,-19.37488,39.35,163.0,0.44,-45.39,200.79,293.38,258.36,-61.16,-251.04,-322.28,-45.39,0.44,163.0,0,208.39,-0.56
KLaL_cation_pi_RCCE_opt_3p6.xyz,Nucleus 32C :,0.49023,0.59144,-20.11041,46.29,163.9,-58.45,33.42,212.47,321.6,268.88,-110.06,-260.71,-293.31,-58.45,33.42,163.9,0,222.35,-0.17
KLaL_cation_pi_RCCE_opt_3p6.xyz,Nucleus 34C :,1.40802,-0.66952,-18.64383,53.47,175.11,-58.87,44.16,318.91,210.6,248.73,-66.93,-343.37,-207.54,-58.87,44.16,175.11,0,233.98,-0.12
KLaL_cation_pi_RCCE_opt_3p6.xyz,Nucleus 36C :,2.40209,-0.26185,-18.80495,46.31,164.55,32.69,-58.3,188.81,312.4,259.41,-63.4,-212.67,-345.6,-58.3,32.69,164.55,0,222.85,-0.18
KLaL_cation_pi_RCCE_opt_3p6.xyz,Nucleus 38C :,1.26331,-1.70665,-17.72336,41.26,162.64,-43.19,4.33,219.26,296.8,334.42,-119.79,-278.64,-328.28,-43.19,4.33,162.64,0,205.83,-0.54
KLaL_cation_pi_RCCE_opt_3p6.xyz,Nucleus 39C :,-0.02275,-2.248,-17.50932,153.42,136.76,166.01,157.48,271.45,140.42,197.58,19.95,-113.89,-55.26,136.76,157.48,166.01,0,29.25,0.42
KLaL_cation_pi_RCCE_opt_3p6.xyz,Nucleus 42C :,-3.29932,-2.31449,-15.5209,47.3,155.16,-31.24,17.99,190.22,228.62,276.22,-48.28,-268.67,-236.2,-31.24,17.99,155.16,0,186.4,-0.47
KLaL_cation_pi_RCCE_opt_3p6.xyz,Nucleus 43C :,-0.634,3.06673,-14.92549,48.5,-55.7,45.65,155.56,165.89,215.81,283.34,-295.57,-173.11,-50.84,-55.7,45.65,155.56,0,211.26,-0.04
KLaL_cation_pi_RCCE_opt_3p6.xyz,Nucleus 45C :,-0.61955,2.57925,-14.04083,60.68,174.18,54.48,-46.62,201.07,227.66,282.12,-32.09,-173.04,-323.68,-46.62,54.48,174.18,0,220.8,-0.08
KLaL_cation_pi_RCCE_opt_3p6.xyz,Nucleus 47C :,-0.34639,5.04638,-16.01492,47.4,-57.06,44.09,155.17,284.19,187.91,223.05,-284.02,-197.35,-71.6,-57.06,44.09,155.17,0,212.23,-0.05
KLaL_cation_pi_RCCE_opt_3p6.xyz,Nucleus 49C :,-0.35573,6.05022,-16.04481,46.13,160.71,-26.34,4.03,219.5,260.73,256.57,-94.73,-232.58,-271.09,-26.34,4.03,160.71,0,187.05,-0.68
KLaL_cation_pi_RCCE_opt_3p6.xyz,Nucleus 50C :,-0.07021,4.55851,-16.85674,20.0,-74.0,13.5,120.5,129.88,220.07,262.24,-34.68,-215.61,-301.89,-74.0,13.5,120.5,0,194.5,-0.1
KLaL_cation_pi_RCCE_opt_3p6.xyz,Nucleus 51C :,-0.64706,4.38323,-14.92389,28.32,-58.31,104.1,39.18,154.74,300.16,275.11,-83.17,-227.19,-334.68,-58.31,39.18,104.1,0,162.41,0.2
KLaL_cation_pi_RCCE_opt_3p6.xyz,Nucleus 57C :,-0.16135,2.59658,-15.68304,27.1,124.5,-25.61,-17.59,229.37,266.54,301.81,-112.37,-280.77,-323.28,-25.61,-17.59,124.5,0,150.11,-0.89
KLaL_cation_pi_RCCE_opt_3p6.xyz,Nucleus 52N :,-0.9608,5.03763,-13.83124,174.77,113.73,183.22,227.37,404.21,337.36,316.73,-247.34,-152.78,-133.86,113.73,183.22,227.37,0,113.64,0.22
KLaL_cation_pi_RCCE_opt_3p6.xyz,Nucleus 54N :,-0.9621,6.04135,-13.79599,177.41,229.97,181.83,120.44,199.08,312.67,362.14,-17.45,-193.12,-131.08,120.44,181.83,229.97,0,109.53,0.12
KLaL_cation_pi_RCCE_opt_3p6.xyz,Nucleus 59N :,-1.16151,4.54139,-12.97253,177.14,229.62,182.03,119.77,394.45,319.31,348.21,-206.26,-227.4,-96.9,119.77,182.03,229.62,0,109.85,0.13
KLaL_cation_pi_RCCE_opt_3p7.xyz,Nucleus 3H :,1.85056,-3.65399,-14.42354,27.82,34.23,25.28,23.95,-78.32,77.48,13.26,104.73,-47.19,13.51,23.95,25.28,34.23,0,10.28,-0.74
KLaL_cation_pi_RCCE_opt_3p7.xyz,Nucleus 4H :,-1.00867,-3.16908,-13.28325,26.93,23.68,27.22,29.9,84.39,-58.3,5.72,-57.21,83.38,22.81,23.68,27.22,29.9,0,6.22,0.14
KLaL_cation_pi_RCCE_opt_3p7.xyz,Nucleus 7H :,2.41198,-2.20461,-16.88088,24.48,29.8,20.68,22.96,-31.94,50.45,89.5,56.39,-24.65,-66.31,20.68,22.96,29.8,0,9.12,-0.5
KLaL_cation_pi_RCCE_opt_3p7.xyz,Nucleus 9H :,3.34765,-1.9455,-17.38756,25.15,22.3,25.69,27.47,18.59,86.97,64.97,7.41,-60.72,-41.76,22.3,25.69,27.47,0,5.17,0.31
KLaL_cation_pi_RCCE_opt_3p7.xyz,Nucleus 11H :,2.39691,-3.29532,-16.81784,24.36,29.83,20.63,22.63,124.41,64.61,32.78,-100.53,-9.23,-38.94,20.63,22.63,29.83,0,9.2,-0.56
KLaL_cation_pi_RCCE_opt_3p7.xyz,Nucleus 14H :,2.4252,-1.57784,-15.50033,26.29,29.57,23.32,25.97,15.84,96.13,71.26,10.07,-71.77,-42.67,23.32,25.97,29.57,0,6.25,-0.15
KLaL_cation_pi_RCCE_opt_3p7.xyz,Nucleus 15H :,2.68791,-0.21348,-15.39687,28.03,34.5,25.59,24.0,133.21,36.1,64.11,-106.28,-3.18,-39.87,24.0,25.59,34.5,0,10.5,-0.7
KLaL_cation_pi_RCCE_opt_3p7.xyz,Nucleus 18H :,2.98968,0.34051,-16.28164,23.88,28.33,22.53,20.78,119.11,88.28,37.92,-97.13,-65.43,-11.1,20.78,22.53,28.33,0,7.55,-0.54
KLaL_cation_pi_RCCE_opt_3p7.xyz,Nucleus 20H :,2.57849,0.43438,-14.17723,24.56,21.16,26.81,25.72,36.17,89.08,107.67,-62.33,-86.13,-10.78,21.16,25.72,26.81,0,5.65,0.62
KLaL_cation_pi_RCCE_opt_3p7.xyz,Nucleus 22H :,2.82822,1.48929,-14.10622,24.17,28.73,23.04,20.73,24.79,116.91,77.3,2.58,-93.83,-55.25,20.73,23.04,28.73,0,8.0,-0.42
KLaL_cation_pi_RCCE_opt_3p7.xyz,Nucleus 29H :,2.14561,-0.24168,-13.06379,27.66,34.18,25.15,23.66,125.56,8.52,34.6,-97.47,22.41,-10.64,23.66,25.15,34.18,0,10.52,-0.72
KLaL_cation_pi_RCCE_opt_3p7.xyz,Nucleus 30H :,2.02109,0.28044,-12.11936,27.04,23.61,27.59,29.92,4.2,90.74,67.72,23.16,-65.8,-38.89,23.61,27.59,29.92,0,6.31,0.26
KLaL_cation_pi_RCCE_opt_3p7.xyz,Nucleus 33H :,1.85668,-1.6211,-13.12241,24.18,29.57,20.36,22.61,121.26,38.0,7.49,-97.6,-12.43,15.82,20.36,22.61,29.57,0,9.21,-0.51
KLaL_cation_pi_RCCE_opt_3p7.xyz,Nucleus 35H :,1.26442,-2.28521,-11.89554,24.71,21.7,25.14,27.3,88.55,-11.14,11.26,-63.51,36.64,12.34,21.7,25.14,27.3,0,5.6,0.23
KLaL_cation_pi_RCCE_opt_3p7.xyz,Nucleus 37H :,1.23472,-3.36627,-12.0504,24.26,29.78,20.33,22.66,-62.5,84.67,17.83,87.58,-61.54,6.72,20.33,22.66,29.78,0,9.45,-0.51
KLaL_cation_pi_RCCE_opt_3p7.xyz,Nucleus 40H :,1.91674,-2.09261,-11.03742,27.15,23.91,30.0,27.55,60.89,-69.73,-15.17,-32.7,93.64,44.53,23.91,27.55,30.0,0,6.09,0.2
KLaL_cation_pi_RCCE_opt_3p7.xyz,Nucleus 41H :,-0.11608,-1.76989,-11.58662,27.6,34.24,25.06,23.51,-111.05,58.29,-28.16,135.85,-24.77,52.65,23.51,25.06,34.24,0,10.73,-0.71
KLaL_cation_pi_RCCE_opt_3p7.xyz,Nucleus 44H :,-0.34726,-0.74504,-10.66249,24.03,28.55,22.82,20.71,-82.21,-25.9,62.27,-36.88,103.69,51.1,20.71,22.82,28.55,0,7.84,-0.46
KLaL_cation_pi_RCCE_opt_3p7.xyz,Nucleus 46H :,0.48968,-0.37756,-10.07614,24.49,21.08,26.75,25.63,-77.27,-25.26,68.51,-43.19,51.97,98.71,21.08,25.63,26.75,0,5.67,0.6
KLaL_cation_pi_RCCE_opt_3p7.xyz,Nucleus 48H :,-1.61623,-0.22215,-10.4753,23.94,28.48,22.65,20.7,63.6,-38.92,-15.89,-38.03,61.26,39.79,20.7,22.65,28.48,0,7.78,-0.5
KLaL_cation_pi_RCCE_opt_3p7.xyz,Nucleus 53H :,-1.78286,0.55559,-9.73755,27.82,21.45,25.6,36.4,21.49,123.05,85.65,-100.88,4.26,-50.13,21.45,25.6,36.4,0,14.95,-0.45
KLaL_cation_pi_RCCE_opt_3p7.xyz,Nucleus 55H :,-2.67282,-0.71904,-11.20753,26.96,20.59,24.44,35.85,-58.63,22.0,62.13,79.86,3.54,-28.01,20.59,24.44,35.85,0,15.26,-0.5
KLaL_cation_pi_RCCE_opt_3p7.xyz,Nucleus 56H :,-3.67284,-0.32653,-11.04041,26.86,20.22,34.07,26.28,-82.71,23.52,58.8,103.13,6.45,-28.63,20.22,26.28,34.07,0,13.85,-0.13
KLaL_cation_pi_RCCE_opt_3p7.xyz,Nucleus 58H :,-2.50759,-1.75085,-12.13052,27.88,36.44,21.46,25.75,10.55,36.39,67.94,-42.01,11.39,-0.62,21.46,25.75,36.44,0,14.98,-0.43
KLaL_cation_pi_RCCE_opt_3p7.xyz,Nucleus 60H :,-1.21105,-2.26606,-12.34584,26.95,35.83,20.6,24.43,69.12,47.2,20.4,9.39,-43.15,-22.11,20.6,24.43,35.83,0,15.23,-0.5
KLaL_cation_pi_RCCE_opt_3p7.xyz,Nucleus 61H :,2.06614,-2.26271,-14.33433,26.82,20.18,34.04,26.25,144.65,19.33,66.49,-123.93,8.39,-34.47,20.18,26.25,34.04,0,13.86,-0.12
KLaL_cation_pi_RCCE_opt_3p7.xyz,Nucleus 62H :,-3.05617,-3.70143,-15.43508,25.84,37.74,17.84,21.95,18.82,38.54,67.36,-42.46,-8.55,3.82,17.84,21.95,37.74,0,19.9,-0.59
KLaL_cation_pi_RCCE_opt_3p7.xyz,Nucleus 63H :,-0.20716,-3.15713,-16.57412,24.8,36.04,23.34,15.02,87.91,47.03,10.18,-54.41,-22.91,6.6,15.02,23.34,36.04,0,21.02,-0.21
KLaL_cation_pi_RCCE_opt_3p7.xyz,Nucleus 64H :,-3.64618,-2.26946,-12.97424,27.89,41.94,19.85,21.88,78.56,-19.65,8.33,-38.39,41.09,13.73,19.85,21.88,41.94,0,22.09,-0.82
KLaL_cation_pi_RCCE_opt_3p7.xyz,Nucleus 65H :,-4.58558,-2.02912,-12.46536,24.43,36.75,23.05,13.49,52.59,31.27,20.62,-35.27,5.36,-1.28,13.49,23.05,36.75,0,23.26,-0.18
KLaL_cation_pi_RCCE_opt_3p7.xyz,Nucleus 2C :,-3.63086,-3.36289,-13.04152,151.49,134.8,163.39,156.29,300.27,166.46,205.7,-146.3,-4.88,-66.77,134.8,156.29,163.39,0,28.59,0.5
KLaL_cation_pi_RCCE_opt_3p7.xyz,Nucleus 5C :,-3.67186,-1.63971,-14.35326,41.45,161.1,8.51,-45.27,312.11,258.74,278.87,-108.28,-299.81,-317.29,-45.27,8.51,161.1,0,206.37,-0.48
KLaL_cation_pi_RCCE_opt_3p7.xyz,Nucleus 6C :,-3.9616,-0.28059,-14.4534,49.34,163.15,-56.67,41.55,232.9,313.26,287.01,-85.42,-360.91,-238.8,-56.67,41.55,163.15,0,219.82,-0.11
KLaL_cation_pi_RCCE_opt_3p7.xyz,Nucleus 8C :,-4.26639,0.26235,-13.56389,60.5,172.47,-50.43,59.45,311.16,250.15,278.99,-92.52,-335.81,-230.48,-50.43,59.45,172.47,0,222.9,-0.01
KLaL_cation_pi_RCCE_opt_3p7.xyz,Nucleus 10C :,-3.86508,0.37227,-15.67146,46.39,163.74,36.59,-61.16,239.36,325.08,285.7,-112.01,-333.76,-265.19,-61.16,36.59,163.74,0,224.9,-0.13
KLaL_cation_pi_RCCE_opt_3p7.xyz,Nucleus 12C :,-4.13466,1.42199,-15.74103,40.73,162.74,-41.38,0.82,233.26,276.74,288.04,-81.42,-325.29,-269.15,-41.38,0.82,162.74,0,204.12,-0.59
KLaL_cation_pi_RCCE_opt_3p7.xyz,Nucleus 13C :,-3.41889,-0.29236,-16.78652,151.97,134.29,164.27,157.36,345.51,241.8,297.58,-86.25,-181.29,-161.43,134.29,157.36,164.27,0,29.98,0.54
KLaL_cation_pi_RCCE_opt_3p7.xyz,Nucleus 16C :,-3.30176,0.23385,-17.72915,43.6,160.24,-29.94,0.49,326.86,253.63,273.21,-94.36,-356.41,-272.14,-29.94,0.49,160.24,0,190.18,-0.68
KLaL_cation_pi_RCCE_opt_3p7.xyz,Nucleus 17C :,-3.10266,-1.66591,-16.73126,46.2,-59.71,43.27,155.03,335.4,262.95,290.93,-371.48,-249.02,-130.19,-59.71,43.27,155.03,0,214.74,-0.04
KLaL_cation_pi_RCCE_opt_3p7.xyz,Nucleus 19C :,-2.49736,-2.31516,-17.95972,61.76,173.71,56.82,-45.24,330.96,252.25,289.45,-112.53,-271.93,-302.9,-45.24,56.82,173.71,0,218.95,-0.07
KLaL_cation_pi_RCCE_opt_3p7.xyz,Nucleus 21C :,-2.47907,-3.407,-17.86462,50.33,-53.08,48.78,155.29,347.48,263.42,274.82,-386.58,-111.79,-236.36,-53.08,48.78,155.29,0,208.37,-0.02
KLaL_cation_pi_RCCE_opt_3p7.xyz,Nucleus 23C :,-3.14888,-2.11605,-18.81737,48.73,-29.56,21.03,154.73,323.52,268.54,285.32,-120.13,-345.64,-265.42,-29.56,21.03,154.73,0,184.29,-0.45
KLaL_cation_pi_RCCE_opt_3p7.xyz,Nucleus 24C :,-1.12737,-1.77181,-18.26735,18.4,120.07,9.21,-74.09,238.91,328.09,314.64,-144.98,-314.08,-367.39,-74.09,9.21,120.07,0,194.16,-0.14
KLaL_cation_pi_RCCE_opt_3p7.xyz,Nucleus 25C :,-0.91658,-0.74033,-19.18898,20.03,109.15,-63.27,14.2,214.92,289.2,281.64,-113.87,-266.06,-345.76,-63.27,14.2,109.15,0,172.42,-0.1
KLaL_cation_pi_RCCE_opt_3p7.xyz,Nucleus 28C :,-1.75776,-0.38293,-19.77633,152.38,135.37,156.99,164.78,327.49,219.14,274.98,-73.3,-165.33,-125.84,135.37,156.99,164.78,0,29.41,0.47
KLaL_cation_pi_RCCE_opt_3p7.xyz,Nucleus 31C :,0.34176,-0.19192,-19.37488,39.38,162.99,0.5,-45.36,200.69,293.77,258.37,-61.16,-251.01,-322.53,-45.36,0.5,162.99,0,208.35,-0.56
KLaL_cation_pi_RCCE_opt_3p7.xyz,Nucleus 32C :,0.49023,0.59144,-20.11041,46.26,163.87,-58.49,33.4,212.79,321.67,268.89,-110.56,-260.55,-293.46,-58.49,33.4,163.87,0,222.36,-0.17
KLaL_cation_pi_RCCE_opt_3p7.xyz,Nucleus 34C :,1.40802,-0.66952,-18.64383,53.51,175.04,-58.82,44.3,318.6,211.24,248.58,-67.21,-343.15,-207.54,-58.82,44.3,175.04,0,233.86,-0.12
KLaL_cation_pi_RCCE_opt_3p7.xyz,Nucleus 36C :,2.40209,-0.26185,-18.80495,46.29,164.52,32.69,-58.33,189.31,311.85,259.66,-63.46,-213.07,-345.4,-58.33,32.69,164.52,0,222.85,-0.18
KLaL_cation_pi_RCCE_opt_3p7.xyz,Nucleus 38C :,1.26331,-1.70665,-17.72336,41.28,162.63,-43.17,4.39,219.19,296.85,334.97,-119.75,-278.69,-328.71,-43.17,4.39,162.63,0,205.8,-0.54
KLaL_cation_pi_RCCE_opt_3p7.xyz,Nucleus 39C :,-0.02275,-2.248,-17.50932,153.41,136.76,166.02,157.46,271.44,140.31,197.73,20.04,-113.91,-55.38,136.76,157.46,166.02,0,29.26,0.42
KLaL_cation_pi_RCCE_opt_3p7.xyz,Nucleus 42C :,-3.29932,-2.31449,-15.5209,47.33,155.14,-31.22,18.08,190.56,228.68,276.38,-48.45,-268.89,-236.27,-31.22,18.08,155.14,0,186.36,-0.47
KLaL_cation_pi_RCCE_opt_3p7.xyz,Nucleus 43C :,-0.634,3.16673,-14.92549,48.53,-55.68,45.74,155.52,165.96,216.1,283.19,-295.45,-173.43,-50.79,-55.68,45.74,155.52,0,211.2,-0.04
KLaL_cation_pi_RCCE_opt_3p7.xyz,Nucleus 45C :,-0.61955,2.67925,-14.04083,60.68,174.13,54.52,-46.62,200.91,227.79,281.57,-32.13,-173.19,-322.92,-46.62,54.52,174.13,0,220.75,-0.08
KLaL_cation_pi_RCCE_opt_3p7.xyz,Nucleus 47C :,-0.34639,5.14638,-16.01492,47.39,-57.08,44.11,155.13,283.88,188.07,223.2,-283.46,-197.85,-71.66,-57.08,44.11,155.13,0,212.21,-0.05
KLaL_cation_pi_RCCE_opt_3p7.xyz,Nucleus 49C :,-0.35573,6.15022,-16.04481,46.14,160.7,-26.34,4.07,219.42,260.95,256.53,-94.81,-232.27,-271.4,-26.34,4.07,160.7,0,187.04,-0.67
KLaL_cation_pi_RCCE_opt_3p7.xyz,Nucleus 50C :,-0.07021,4.65851,-16.85674,20.0,-74.01,13.52,120.49,130.17,220.09,262.35,-34.81,-215.62,-302.18,-74.01,13.52,120.49,0,194.5,-0.1
KLaL_cation_pi_RCCE_opt_3p7.xyz,Nucleus 51C :,-0.64706,4.48323,-14.92389,28.33,-58.31,104.09,39.22,154.85,300.2,275.28,-83.21,-227.09,-335.04,-58.31,39.22,104.09,0,162.4,0.2
KLaL_cation_pi_RCCE_opt_3p7.xyz,Nucleus 57C :,-0.16135,2.69658,-15.68304,27.05,124.48,-25.51,-17.82,229.15,266.43,301.31,-112.1,-280.92,-322.71,-25.51,-17.82,124.48,0,149.99,-0.9
KLaL_cation_pi_RCCE_opt_3p7.xyz,Nucleus 52N :,-0.9608,5.13763,-13.83124,175.08,114.25,183.16,227.83,403.15,336.81,317.35,-245.52,-153.76,-132.8,114.25,183.16,227.83,0,113.58,0.21
KLaL_cation_pi_RCCE_opt_3p7.xyz,Nucleus 54N :,-0.9621,6.14135,-13.79599,177.29,229.84,181.85,120.18,198.65,312.62,361.58,-17.01,-193.26,-130.72,120.18,181.85,229.84,0,109.66,0.12
KLaL_cation_pi_RCCE_opt_3p7.xyz,Nucleus 59N :,-1.16151,4.64139,-12.97253,177.02,229.49,182.05,119.52,393.96,319.38,347.59,-205.7,-227.07,-97.1,119.52,182.05,229.49,0,109.97,0.14
KLaL_cation_pi_RCCE_opt_3p8.xyz,Nucleus 3H :,1.85056,-3.65399,-14.42354,27.82,34.23,25.28,23.95,-78.18,77.45,13.24,104.6,-47.17,13.53,23.95,25.28,34.23,0,10.28,-0.74
KLaL_cation_pi_RCCE_opt_3p8.xyz,Nucleus 4H :,-1.00867,-3.16908,-13.28325,26.93,23.68,27.22,29.9,84.4,-58.18,5.67,-57.21,83.26,22.86,23.68,27.22,29.9,0,6.22,0.14
KLaL_cation_pi_RCCE_opt_3p8.xyz,Nucleus 7H :,2.41198,-2.20461,-16.88088,24.48,29.82,20.66,22.96,-31.82,50.28,89.33,56.27,-24.49,-66.13,20.66,22.96,29.82,0,9.16,-0.5
KLaL_cation_pi_RCCE_opt_3p8.xyz,Nucleus 9H :,3.34765,-1.9455,-17.38756,25.15,22.26,25.71,27.49,18.83,86.53,64.77,7.18,-60.28,-41.56,22.26,25.71,27.49,0,5.23,0.32
KLaL_cation_pi_RCCE_opt_3p8.xyz,Nucleus 11H :,2.39691,-3.29532,-16.81784,24.37,29.85,20.62,22.64,124.28,64.56,32.73,-100.42,-9.16,-38.9,20.62,22.64,29.85,0,9.23,-0.56
KLaL_cation_pi_RCCE_opt_3p8.xyz,Nucleus 14H :,2.4252,-1.57784,-15.50033,26.29,29.56,23.33,25.97,15.87,96.06,71.21,10.04,-71.7,-42.62,23.33,25.97,29.56,0,6.23,-0.15
KLaL_cation_pi_RCCE_opt_3p8.xyz,Nucleus 15H :,2.68791,-0.21348,-15.39687,28.03,34.5,25.59,24.01,133.11,36.12,64.03,-106.17,-3.2,-39.79,24.01,25.59,34.5,0,10.49,-0.7
KLaL_cation_pi_RCCE_opt_3p8.xyz,Nucleus 18H :,2.98968,0.34051,-16.28164,23.88,28.34,22.52,20.78,118.98,88.16,37.91,-97.01,-65.31,-11.09,20.78,22.52,28.34,0,7.56,-0.54
KLaL_cation_pi_RCCE_opt_3p8.xyz,Nucleus 20H :,2.57849,0.43438,-14.17723,24.57,21.16,26.83,25.72,36.2,88.87,107.73,-62.1,-86.18,-10.81,21.16,25.72,26.83,0,5.67,0.61
KLaL_cation_pi_RCCE_opt_3p8.xyz,Nucleus 22H :,2.82822,1.48929,-14.10622,24.17,28.74,23.04,20.73,24.81,116.73,77.29,2.56,-93.66,-55.22,20.73,23.04,28.74,0,8.01,-0.42
KLaL_cation_pi_RCCE_opt_3p8.xyz,Nucleus 29H :,2.14561,-0.24168,-13.06379,27.66,34.18,25.15,23.66,125.46,8.57,34.66,-97.36,22.37,-10.7,23.66,25.15,34.18,0,10.52,-0.72
KLaL_cation_pi_RCCE_opt_3p8.xyz,Nucleus 30H :,2.02109,0.28044,-12.11936,27.04,23.62,27.59,29.92,4.23,90.7,67.76,23.12,-65.75,-38.93,23.62,27.59,29.92,0,6.3,0.26
KLaL_cation_pi_RCCE_opt_3p8.xyz,Nucleus 33H :,1.85668,-1.6211,-13.12241,24.18,29.58,20.34,22.62,121.05,38.36,7.54,-97.39,-12.8,15.78,20.34,22.62,29.58,0,9.24,-0.51
KLaL_cation_pi_RCCE_opt_3p8.xyz,Nucleus 35H :,1.26442,-2.28521,-11.89554,24.71,21.67,25.16,27.31,88.43,-10.52,11.36,-63.39,36.02,12.25,21.67,25.16,27.31,0,5.64,0.24
KLaL_cation_pi_RCCE_opt_3p8.xyz,Nucleus 37H :,1.23472,-3.36627,-12.0504,24.26,29.79,20.31,22.67,-61.95,84.69,17.9,87.03,-61.54,6.64,20.31,22.67,29.79,0,9.48,-0.5
KLaL_cation_pi_RCCE_opt_3p8.xyz,Nucleus 40H :,1.91674,-2.09261,-11.03742,27.15,23.91,29.99,27.56,60.88,-69.64,-15.06,-32.7,93.56,44.43,23.91,27.56,29.99,0,6.08,0.2
KLaL_cation_pi_RCCE_opt_3p8.xyz,Nucleus 41H :,-0.11608,-1.76989,-11.58662,27.61,34.24,25.07,23.51,-110.93,58.28,-28.01,135.75,-24.76,52.5,23.51,25.07,34.24,0,10.73,-0.71
KLaL_cation_pi_RCCE_opt_3p8.xyz,Nucleus 44H :,-0.34726,-0.74504,-10.66249,24.03,28.56,22.82,20.72,-82.09,-25.54,62.29,-36.9,103.56,50.76,20.72,22.82,28.56,0,7.84,-0.46
KLaL_cation_pi_RCCE_opt_3p8.xyz,Nucleus 46H :,0.48968,-0.37756,-10.07614,24.5,21.08,26.77,25.64,-77.38,-24.85,68.45,-43.14,51.57,98.83,21.08,25.64,26.77,0,5.69,0.6
KLaL_cation_pi_RCCE_opt_3p8.xyz,Nucleus 48H :,-1.61623,-0.22215,-10.4753,23.95,28.49,22.65,20.7,63.55,-38.79,-15.62,-37.99,61.09,39.6,20.7,22.65,28.49,0,7.79,-0.5
KLaL_cation_pi_RCCE_opt_3p8.xyz,Nucleus 53H :,-1.78286,0.55559,-9.73755,27.75,21.33,25.59,36.34,21.64,123.45,84.75,-101.43,4.1,-49.25,21.33,25.59,36.34,0,15.01,-0.43
KLaL_cation_pi_RCCE_opt_3p8.xyz,Nucleus 55H :,-2.67282,-0.71904,-11.20753,26.94,20.59,24.43,35.81,-59.36,22.04,61.7,80.57,3.48,-27.6,20.59,24.43,35.81,0,15.22,-0.49
KLaL_cation_pi_RCCE_opt_3p8.xyz,Nucleus 56H :,-3.67284,-0.32653,-11.04041,26.83,20.22,34.05,26.23,-82.92,23.54,58.25,103.34,6.32,-28.03,20.22,26.23,34.05,0,13.83,-0.13
KLaL_cation_pi_RCCE_opt_3p8.xyz,Nucleus 58H :,-2.50759,-1.75085,-12.13052,27.82,36.38,21.34,25.74,10.52,36.37,66.75,-40.86,11.33,-0.66,21.34,25.74,36.38,0,15.04,-0.41
KLaL_cation_pi_RCCE_opt_3p8.xyz,Nucleus 60H :,-1.21105,-2.26606,-12.34584,26.93,35.79,20.59,24.42,68.52,46.76,20.33,9.38,-42.47,-21.72,20.59,24.42,35.79,0,15.2,-0.5
KLaL_cation_pi_RCCE_opt_3p8.xyz,Nucleus 61H :,2.06614,-2.26271,-14.33433,26.8,20.18,34.02,26.2,144.51,19.45,65.88,-123.78,8.25,-33.89,20.18,26.2,34.02,0,13.84,-0.13
KLaL_cation_pi_RCCE_opt_3p8.xyz,Nucleus 62H :,-3.05617,-3.70143,-15.43508,25.85,37.76,17.84,21.95,18.79,38.53,67.34,-42.44,-8.51,3.84,17.84,21.95,37.76,0,19.92,-0.59
KLaL_cation_pi_RCCE_opt_3p8.xyz,Nucleus 63H :,-0.20716,-3.15713,-16.57412,24.81,36.05,23.35,15.02,87.9,47.07,10.15,-54.39,-22.95,6.63,15.02,23.35,36.05,0,21.03,-0.21
KLaL_cation_pi_RCCE_opt_3p8.xyz,Nucleus 64H :,-3.64618,-2.26946,-12.97424,27.9,41.94,19.86,21.89,78.56,-19.55,8.35,-38.38,41.0,13.72,19.86,21.89,41.94,0,22.08,-0.82
KLaL_cation_pi_RCCE_opt_3p8.xyz,Nucleus 65H :,-4.58558,-2.02912,-12.46536,24.43,36.76,23.05,13.48,52.53,31.26,20.73,-35.24,5.31,-1.3,13.48,23.05,36.76,0,23.28,-0.18
KLaL_cation_pi_RCCE_opt_3p8.xyz,Nucleus 2C :,-3.63086,-3.36289,-13.04152,151.49,134.8,163.39,156.28,300.39,166.37,205.56,-146.45,-4.79,-66.62,134.8,156.28,163.39,0,28.59,0.5
KLaL_cation_pi_RCCE_opt_3p8.xyz,Nucleus 5C :,-3.67186,-1.63971,-14.35326,41.53,161.09,8.68,-45.19,312.03,259.06,278.68,-108.44,-299.62,-317.13,-45.19,8.68,161.09,0,206.28,-0.48
KLaL_cation_pi_RCCE_opt_3p8.xyz,Nucleus 6C :,-3.9616,-0.28059,-14.4534,49.28,163.11,-56.74,41.48,232.47,312.77,287.03,-84.79,-360.79,-238.83,-56.74,41.48,163.11,0,219.85,-0.11
KLaL_cation_pi_RCCE_opt_3p8.xyz,Nucleus 8C :,-4.26639,0.26235,-13.56389,60.48,172.36,-50.43,59.52,310.93,250.16,278.96,-92.63,-335.64,-230.33,-50.43,59.52,172.36,0,222.79,-0.01
KLaL_cation_pi_RCCE_opt_3p8.xyz,Nucleus 10C :,-3.86508,0.37227,-15.67146,46.35,163.7,36.55,-61.21,239.8,325.09,285.48,-112.58,-333.72,-265.03,-61.21,36.55,163.7,0,224.91,-0.13
KLaL_cation_pi_RCCE_opt_3p8.xyz,Nucleus 12C :,-4.13466,1.42199,-15.74103,40.81,162.73,-41.3,0.99,233.35,276.58,287.88,-81.44,-325.18,-268.77,-41.3,0.99,162.73,0,204.03,-0.59
KLaL_cation_pi_RCCE_opt_3p8.xyz,Nucleus 13C :,-3.41889,-0.29236,-16.78652,151.97,134.29,164.27,157.35,345.46,241.78,297.52,-86.22,-181.24,-161.39,134.29,157.35,164.27,0,29.98,0.54
KLaL_cation_pi_RCCE_opt_3p8.xyz,Nucleus 16C :,-3.30176,0.23385,-17.72915,43.6,160.23,-29.94,0.52,326.87,253.66,273.1,-94.37,-356.42,-272.05,-29.94,0.52,160.23,0,190.17,-0.68
KLaL_cation_pi_RCCE_opt_3p8.xyz,Nucleus 17C :,-3.10266,-1.66591,-16.73126,46.19,-59.72,43.31,154.99,335.13,263.02,291.01,-371.37,-249.03,-130.18,-59.72,43.31,154.99,0,214.71,-0.04
KLaL_cation_pi_RCCE_opt_3p8.xyz,Nucleus 19C :,-2.49736,-2.31516,-17.95972,61.76,173.67,56.85,-45.25,330.72,252.58,289.51,-112.45,-271.7,-303.39,-45.25,56.85,173.67,0,218.92,-0.07
KLaL_cation_pi_RCCE_opt_3p8.xyz,Nucleus 21C :,-2.47907,-3.407,-17.86462,50.34,-53.06,48.85,155.24,347.15,263.26,275.14,-386.45,-111.72,-236.36,-53.06,48.85,155.24,0,208.3,-0.02
KLaL_cation_pi_RCCE_opt_3p8.xyz,Nucleus 23C :,-3.14888,-2.11605,-18.81737,48.76,-29.54,21.11,154.71,323.64,268.56,285.24,-120.17,-345.62,-265.37,-29.54,21.11,154.71,0,184.25,-0.45
KLaL_cation_pi_RCCE_opt_3p8.xyz,Nucleus 24C :,-1.12737,-1.77181,-18.26735,18.4,120.06,9.23,-74.09,238.93,328.04,314.35,-144.93,-314.03,-367.17,-74.09,9.23,120.06,0,194.15,-0.14
KLaL_cation_pi_RCCE_opt_3p8.xyz,Nucleus 25C :,-0.91658,-0.74033,-19.18898,20.07,109.14,-63.22,14.29,215.05,289.06,281.44,-113.88,-265.86,-345.6,-63.22,14.29,109.14,0,172.36,-0.1
KLaL_cation_pi_RCCE_opt_3p8.xyz,Nucleus 28C :,-1.75776,-0.38293,-19.77633,152.37,135.37,156.97,164.78,327.43,219.22,274.97,-73.34,-165.28,-125.88,135.37,156.97,164.78,0,29.41,0.47
KLaL_cation_pi_RCCE_opt_3p8.xyz,Nucleus 31C :,0.34176,-0.19192,-19.37488,39.41,162.98,0.57,-45.33,200.62,294.13,258.34,-61.17,-250.94,-322.76,-45.33,0.57,162.98,0,208.31,-0.56
KLaL_cation_pi_RCCE_opt_3p8.xyz,Nucleus 32C :,0.49023,0.59144,-20.11041,46.23,163.84,-58.53,33.38,213.03,268.9,321.73,-110.98,-260.4,-293.59,-58.53,33.38,163.84,0,222.37,-0.17
KLaL_cation_pi_RCCE_opt_3p8.xyz,Nucleus 34C :,1.40802,-0.66952,-18.64383,53.54,174.97,-58.78,44.43,318.32,211.79,248.46,-67.46,-342.96,-207.53,-58.78,44.43,174.97,0,233.75,-0.12
KLaL_cation_pi_RCCE_opt_3p8.xyz,Nucleus 36C :,2.40209,-0.26185,-18.80495,46.27,164.49,32.68,-58.36,189.68,311.34,259.89,-63.46,-213.41,-345.21,-58.36,32.68,164.49,0,222.85,-0.18
KLaL_cation_pi_RCCE_opt_3p8.xyz,Nucleus 38C :,1.26331,-1.70665,-17.72336,41.31,162.62,-43.14,4.46,219.13,296.86,335.47,-119.69,-278.72,-329.12,-43.14,4.46,162.62,0,205.76,-0.54
KLaL_cation_pi_RCCE_opt_3p8.xyz,Nucleus 39C :,-0.02275,-2.248,-17.50932,153.4,136.76,166.02,157.43,271.43,140.24,197.87,20.1,-113.92,-55.5,136.76,157.43,166.02,0,29.26,0.41
KLaL_cation_pi_RCCE_opt_3p8.xyz,Nucleus 42C :,-3.29932,-2.31449,-15.5209,47.37,155.13,-31.19,18.16,190.83,228.76,276.52,-48.59,-269.13,-236.3,-31.19,18.16,155.13,0,186.32,-0.47
KLaL_cation_pi_RCCE_opt_3p8.xyz,Nucleus 43C :,-0.634,3.26673,-14.92549,48.55,-55.66,45.82,155.48,166.06,216.43,283.02,-295.31,-173.79,-50.76,-55.66,45.82,155.48,0,211.14,-0.04
KLaL_cation_pi_RCCE_opt_3p8.xyz,Nucleus 45C :,-0.61955,2.77925,-14.04083,60.68,174.09,54.56,-46.62,200.76,227.96,281.03,-32.17,-173.38,-322.17,-46.62,54.56,174.09,0,220.71,-0.08
KLaL_cation_pi_RCCE_opt_3p8.xyz,Nucleus 47C :,-0.34639,5.24638,-16.01492,47.38,-57.1,44.14,155.09,188.25,223.38,283.57,-282.94,-198.42,-71.71,-57.1,44.14,155.09,0,212.19,-0.05
KLaL_cation_pi_RCCE_opt_3p8.xyz,Nucleus 49C :,-0.35573,6.25022,-16.04481,46.15,160.69,-26.35,4.1,219.31,261.23,256.51,-94.88,-231.96,-271.76,-26.35,4.1,160.69,0,187.04,-0.67
KLaL_cation_pi_RCCE_opt_3p8.xyz,Nucleus 50C :,-0.07021,4.75851,-16.85674,20.0,-74.01,13.53,120.47,130.42,220.15,262.42,-34.93,-215.63,-302.44,-74.01,13.53,120.47,0,194.48,-0.1
KLaL_cation_pi_RCCE_opt_3p8.xyz,Nucleus 51C :,-0.64706,4.58323,-14.92389,28.34,-58.3,104.08,39.25,154.97,300.24,275.43,-83.27,-227.0,-335.34,-58.3,39.25,104.08,0,162.38,0.2
KLaL_cation_pi_RCCE_opt_3p8.xyz,Nucleus 57C :,-0.16135,2.79658,-15.68304,27.01,124.46,-25.4,-18.03,228.93,266.32,300.82,-111.82,-281.08,-322.15,-25.4,-18.03,124.46,0,149.86,-0.9
KLaL_cation_pi_RCCE_opt_3p8.xyz,Nucleus 52N :,-0.9608,5.23763,-13.83124,175.36,114.74,183.11,228.24,402.17,336.31,317.91,-243.81,-154.7,-131.79,114.74,183.11,228.24,0,113.5,0.2
KLaL_cation_pi_RCCE_opt_3p8.xyz,Nucleus 54N :,-0.9621,6.24135,-13.79599,177.17,229.72,181.87,119.93,198.21,312.57,361.03,-16.54,-193.4,-130.36,119.93,181.87,229.72,0,109.79,0.13
KLaL_cation_pi_RCCE_opt_3p8.xyz,Nucleus 59N :,-1.16151,4.74139,-12.97253,176.91,229.37,182.07,119.28,393.48,319.46,346.97,-205.16,-226.74,-97.3,119.28,182.07,229.37,0,110.09,0.14
KLaL_cation_pi_RCCE_opt_3p9.xyz,Nucleus 3H :,1.85056,-3.65399,-14.42354,27.82,34.23,25.29,23.95,-78.02,77.43,13.22,104.45,-47.16,13.56,23.95,25.29,34.23,0,10.28,-0.74
KLaL_cation_pi_RCCE_opt_3p9.xyz,Nucleus 4H :,-1.00867,-3.16908,-13.28325,26.94,23.69,27.22,29.9,84.4,-58.05,5.62,-57.22,83.14,22.93,23.69,27.22,29.9,0,6.21,0.14
KLaL_cation_pi_RCCE_opt_3p9.xyz,Nucleus 7H :,2.41198,-2.20461,-16.88088,24.48,29.84,20.65,22.96,-31.7,50.11,89.18,56.16,-24.34,-65.96,20.65,22.96,29.84,0,9.19,-0.5
KLaL_cation_pi_RCCE_opt_3p9.xyz,Nucleus 9H :,3.34765,-1.9455,-17.38756,25.16,22.23,25.74,27.51,19.06,86.07,64.56,6.95,-59.82,-41.35,22.23,25.74,27.51,0,5.28,0.33
KLaL_cation_pi_RCCE_opt_3p9.xyz,Nucleus 11H :,2.39691,-3.29532,-16.81784,24.37,29.87,20.6,22.64,124.16,64.51,32.67,-100.31,-9.07,-38.85,20.6,22.64,29.87,0,9.27,-0.56
KLaL_cation_pi_RCCE_opt_3p9.xyz,Nucleus 14H :,2.4252,-1.57784,-15.50033,26.29,29.56,23.34,25.97,15.89,96.01,71.16,10.02,-71.65,-42.56,23.34,25.97,29.56,0,6.22,-0.15
KLaL_cation_pi_RCCE_opt_3p9.xyz,Nucleus 15H :,2.68791,-0.21348,-15.39687,28.04,34.5,25.6,24.01,133.02,36.14,63.93,-106.07,-3.22,-39.69,24.01,25.6,34.5,0,10.49,-0.7
KLaL_cation_pi_RCCE_opt_3p9.xyz,Nucleus 18H :,2.98968,0.34051,-16.28164,23.89,28.35,22.52,20.79,118.85,88.03,37.91,-96.88,-65.18,-11.08,20.79,22.52,28.35,0,7.56,-0.54
KLaL_cation_pi_RCCE_opt_3p9.xyz,Nucleus 20H :,2.57849,0.43438,-14.17723,24.57,21.15,26.84,25.72,36.22,88.65,107.79,-61.86,-86.25,-10.84,21.15,25.72,26.84,0,5.69,0.61
KLaL_cation_pi_RCCE_opt_3p9.xyz,Nucleus 22H :,2.82822,1.48929,-14.10622,24.17,28.75,23.04,20.73,24.83,116.55,77.29,2.54,-93.48,-55.21,20.73,23.04,28.75,0,8.02,-0.42
KLaL_cation_pi_RCCE_opt_3p9.xyz,Nucleus 29H :,2.14561,-0.24168,-13.06379,27.67,34.18,25.16,23.66,125.36,8.61,34.72,-97.25,22.33,-10.76,23.66,25.16,34.18,0,10.52,-0.72
KLaL_cation_pi_RCCE_opt_3p9.xyz,Nucleus 30H :,2.02109,0.28044,-12.11936,27.04,23.63,27.59,29.91,4.26,90.65,67.79,23.1,-65.71,-38.96,23.63,27.59,29.91,0,6.28,0.26
KLaL_cation_pi_RCCE_opt_3p9.xyz,Nucleus 33H :,1.85668,-1.6211,-13.12241,24.18,29.59,20.32,22.63,120.85,38.72,7.58,-97.19,-13.16,15.75,20.32,22.63,29.59,0,9.27,-0.5
KLaL_cation_pi_RCCE_opt_3p9.xyz,Nucleus 35H :,1.26442,-2.28521,-11.89554,24.72,21.63,25.19,27.33,88.32,-9.91,11.46,-63.28,35.41,12.16,21.63,25.19,27.33,0,5.7,0.25
KLaL_cation_pi_RCCE_opt_3p9.xyz,Nucleus 37H :,1.23472,-3.36627,-12.0504,24.26,29.81,20.29,22.67,-61.42,84.7,17.96,86.5,-61.55,6.57,20.29,22.67,29.81,0,9.52,-0.5
KLaL_cation_pi_RCCE_opt_3p9.xyz,Nucleus 40H :,1.91674,-2.09261,-11.03742,27.16,23.92,29.99,27.56,60.88,-69.56,-14.96,-32.7,93.48,44.32,23.92,27.56,29.99,0,6.07,0.2
KLaL_cation_pi_RCCE_opt_3p9.xyz,Nucleus 41H :,-0.11608,-1.76989,-11.58662,27.61,34.24,25.07,23.52,-110.81,58.28,-27.86,135.64,-24.76,52.35,23.52,25.07,34.24,0,10.72,-0.71
KLaL_cation_pi_RCCE_opt_3p9.xyz,Nucleus 44H :,-0.34726,-0.74504,-10.66249,24.03,28.57,22.81,20.72,-81.97,-25.16,62.31,-36.92,103.44,50.4,20.72,22.81,28.57,0,7.85,-0.47
KLaL_cation_pi_RCCE_opt_3p9.xyz,Nucleus 46H :,0.48968,-0.37756,-10.07614,24.5,21.08,26.78,25.64,-77.5,-24.4,68.4,-43.1,51.13,98.96,21.08,25.64,26.78,0,5.7,0.6
KLaL_cation_pi_RCCE_opt_3p9.xyz,Nucleus 48H :,-1.61623,-0.22215,-10.4753,23.95,28.5,22.65,20.7,63.5,-38.66,-15.34,-37.95,60.9,39.39,20.7,22.65,28.5,0,7.8,-0.5
KLaL_cation_pi_RCCE_opt_3p9.xyz,Nucleus 53H :,-1.78286,0.55559,-9.73755,27.69,21.22,25.57,36.28,21.77,123.86,83.84,-101.97,3.94,-48.38,21.22,25.57,36.28,0,15.06,-0.42
KLaL_cation_pi_RCCE_opt_3p9.xyz,Nucleus 55H :,-2.67282,-0.71904,-11.20753,26.93,20.59,24.42,35.77,-60.09,22.08,61.29,81.28,3.41,-27.19,20.59,24.42,35.77,0,15.18,-0.5
KLaL_cation_pi_RCCE_opt_3p9.xyz,Nucleus 56H :,-3.67284,-0.32653,-11.04041,26.81,20.22,34.04,26.18,-83.12,23.57,57.72,103.53,6.18,-27.45,20.22,26.18,34.04,0,13.82,-0.14
KLaL_cation_pi_RCCE_opt_3p9.xyz,Nucleus 58H :,-2.50759,-1.75085,-12.13052,27.76,36.31,21.24,25.72,10.51,36.37,65.6,-39.75,11.26,-0.71,21.24,25.72,36.31,0,15.07,-0.41
KLaL_cation_pi_RCCE_opt_3p9.xyz,Nucleus 60H :,-1.21105,-2.26606,-12.34584,26.92,35.75,20.59,24.41,67.93,46.33,20.25,9.38,-41.8,-21.34,20.59,24.41,35.75,0,15.16,-0.5
KLaL_cation_pi_RCCE_opt_3p9.xyz,Nucleus 61H :,2.06614,-2.26271,-14.33433,26.78,20.18,34.01,26.16,144.36,19.56,65.28,-123.63,8.11,-33.33,20.18,26.16,34.01,0,13.83,-0.13
KLaL_cation_pi_RCCE_opt_3p9.xyz,Nucleus 62H :,-3.05617,-3.70143,-15.43508,25.85,37.77,17.83,21.95,18.76,38.54,67.32,-42.44,-8.48,3.86,17.83,21.95,37.77,0,19.94,-0.59
KLaL_cation_pi_RCCE_opt_3p9.xyz,Nucleus 63H :,-0.20716,-3.15713,-16.57412,24.81,36.06,23.36,15.01,87.9,47.11,10.13,-54.39,-22.98,6.65,15.01,23.36,36.06,0,21.05,-0.21
KLaL_cation_pi_RCCE_opt_3p9.xyz,Nucleus 64H :,-3.64618,-2.26946,-12.97424,27.9,41.94,19.86,21.89,78.55,-19.47,8.36,-38.37,40.91,13.71,19.86,21.89,41.94,0,22.08,-0.82
KLaL_cation_pi_RCCE_opt_3p9.xyz,Nucleus 65H :,-4.58558,-2.02912,-12.46536,24.43,36.76,23.06,13.48,52.48,31.24,20.84,-35.23,5.27,-1.3,13.48,23.06,36.76,0,23.28,-0.18
KLaL_cation_pi_RCCE_opt_3p9.xyz,Nucleus 2C :,-3.63086,-3.36289,-13.04152,151.48,134.8,163.39,156.26,300.52,166.35,205.39,-146.6,-4.76,-66.45,134.8,156.26,163.39,0,28.59,0.5
KLaL_cation_pi_RCCE_opt_3p9.xyz,Nucleus 5C :,-3.67186,-1.63971,-14.35326,41.6,161.08,8.85,-45.12,312.03,259.36,278.52,-108.62,-299.49,-316.99,-45.12,8.85,161.08,0,206.2,-0.48
KLaL_cation_pi_RCCE_opt_3p9.xyz,Nucleus 6C :,-3.9616,-0.28059,-14.4534,49.23,163.08,-56.8,41.41,232.01,312.38,287.01,-84.15,-360.7,-238.85,-56.8,41.41,163.08,0,219.88,-0.11
KLaL_cation_pi_RCCE_opt_3p9.xyz,Nucleus 8C :,-4.26639,0.26235,-13.56389,60.45,172.26,-50.45,59.55,310.73,250.06,278.88,-92.61,-335.47,-230.23,-50.45,59.55,172.26,0,222.71,-0.01
KLaL_cation_pi_RCCE_opt_3p9.xyz,Nucleus 10C :,-3.86508,0.37227,-15.67146,46.31,163.66,36.51,-61.24,240.14,325.1,285.3,-113.05,-333.69,-264.87,-61.24,36.51,163.66,0,224.9,-0.13
KLaL_cation_pi_RCCE_opt_3p9.xyz,Nucleus 12C :,-4.13466,1.42199,-15.74103,40.88,162.72,-41.23,1.15,233.4,276.41,287.76,-81.44,-325.09,-268.39,-41.23,1.15,162.72,0,203.95,-0.58
KLaL_cation_pi_RCCE_opt_3p9.xyz,Nucleus 13C :,-3.41889,-0.29236,-16.78652,151.97,134.3,164.27,157.33,345.45,241.76,297.43,-86.19,-181.23,-161.32,134.3,157.33,164.27,0,29.97,0.54
KLaL_cation_pi_RCCE_opt_3p9.xyz,Nucleus 16C :,-3.30176,0.23385,-17.72915,43.61,160.22,-29.94,0.55,326.88,253.72,272.99,-94.41,-356.41,-271.95,-29.94,0.55,160.22,0,190.16,-0.68
KLaL_cation_pi_RCCE_opt_3p9.xyz,Nucleus 17C :,-3.10266,-1.66591,-16.73126,46.19,-59.73,43.36,154.95,334.86,263.11,291.04,-371.26,-249.04,-130.12,-59.73,43.36,154.95,0,214.68,-0.04
KLaL_cation_pi_RCCE_opt_3p9.xyz,Nucleus 19C :,-2.49736,-2.31516,-17.95972,61.75,173.63,56.88,-45.25,330.45,252.9,289.59,-112.38,-271.44,-303.87,-45.25,56.88,173.63,0,218.88,-0.07
KLaL_cation_pi_RCCE_opt_3p9.xyz,Nucleus 21C :,-2.47907,-3.407,-17.86462,50.36,-53.05,48.91,155.21,346.8,263.13,275.48,-386.3,-111.69,-236.35,-53.05,48.91,155.21,0,208.26,-0.02
KLaL_cation_pi_RCCE_opt_3p9.xyz,Nucleus 23C :,-3.14888,-2.11605,-18.81737,48.79,-29.52,21.2,154.7,323.72,268.55,285.17,-120.18,-345.56,-265.32,-29.52,21.2,154.7,0,184.22,-0.45
KLaL_cation_pi_RCCE_opt_3p9.xyz,Nucleus 24C :,-1.12737,-1.77181,-18.26735,18.4,120.04,9.25,-74.1,238.96,327.98,314.04,-144.88,-313.95,-366.96,-74.1,9.25,120.04,0,194.14,-0.14
KLaL_cation_pi_RCCE_opt_3p9.xyz,Nucleus 25C :,-0.91658,-0.74033,-19.18898,20.12,109.13,-63.17,14.39,215.21,288.94,281.24,-113.93,-265.67,-345.44,-63.17,14.39,109.13,0,172.3,-0.1
KLaL_cation_pi_RCCE_opt_3p9.xyz,Nucleus 28C :,-1.75776,-0.38293,-19.77633,152.37,135.38,156.95,164.79,327.37,219.27,274.95,-73.36,-165.22,-125.9,135.38,156.95,164.79,0,29.41,0.47
KLaL_cation_pi_RCCE_opt_3p9.xyz,Nucleus 31C :,0.34176,-0.19192,-19.37488,39.43,162.97,0.63,-45.3,200.6,294.49,258.29,-61.23,-250.85,-322.99,-45.3,0.63,162.97,0,208.27,-0.56
KLaL_cation_pi_RCCE_opt_3p9.xyz,Nucleus 32C :,0.49023,0.59144,-20.11041,46.2,163.82,-58.57,33.35,213.25,268.91,321.78,-111.37,-260.25,-293.71,-58.57,33.35,163.82,0,222.39,-0.17
KLaL_cation_pi_RCCE_opt_3p9.xyz,Nucleus 34C :,1.40802,-0.66952,-18.64383,53.57,174.9,-58.74,44.54,318.09,212.33,248.32,-67.72,-342.81,-207.51,-58.74,44.54,174.9,0,233.64,-0.12
KLaL_cation_pi_RCCE_opt_3p9.xyz,Nucleus 36C :,2.40209,-0.26185,-18.80495,46.25,164.47,32.67,-58.39,190.04,310.88,260.08,-63.48,-213.72,-345.05,-58.39,32.67,164.47,0,222.86,-0.18
KLaL_cation_pi_RCCE_opt_3p9.xyz,Nucleus 38C :,1.26331,-1.70665,-17.72336,41.34,162.61,-43.11,4.52,219.06,296.86,335.97,-119.59,-278.74,-329.52,-43.11,4.52,162.61,0,205.72,-0.54
KLaL_cation_pi_RCCE_opt_3p9.xyz,Nucleus 39C :,-0.02275,-2.248,-17.50932,153.4,136.77,166.02,157.41,271.44,140.2,197.95,20.13,-113.95,-55.57,136.77,157.41,166.02,0,29.25,0.41
KLaL_cation_pi_RCCE_opt_3p9.xyz,Nucleus 42C :,-3.29932,-2.31449,-15.5209,47.4,155.12,-31.17,18.24,191.13,228.86,276.66,-48.75,-269.38,-236.32,-31.17,18.24,155.12,0,186.29,-0.47
KLaL_cation_pi_RCCE_opt_3p9.xyz,Nucleus 43C :,-0.634,3.36673,-14.92549,48.57,-55.64,45.9,155.45,166.16,216.81,282.86,-295.15,-174.25,-50.71,-55.64,45.9,155.45,0,211.09,-0.04
KLaL_cation_pi_RCCE_opt_3p9.xyz,Nucleus 45C :,-0.61955,2.87925,-14.04083,60.67,174.05,54.59,-46.62,200.61,228.26,280.49,-32.2,-173.71,-321.43,-46.62,54.59,174.05,0,220.67,-0.08
KLaL_cation_pi_RCCE_opt_3p9.xyz,Nucleus 47C :,-0.34639,5.34638,-16.01492,47.37,-57.12,44.17,155.05,188.47,223.65,283.27,-282.45,-199.06,-71.77,-57.12,44.17,155.05,0,212.17,-0.05
KLaL_cation_pi_RCCE_opt_3p9.xyz,Nucleus 49C :,-0.35573,6.35022,-16.04481,46.15,160.68,-26.35,4.13,219.23,261.49,256.46,-94.93,-231.69,-272.1,-26.35,4.13,160.68,0,187.03,-0.67
KLaL_cation_pi_RCCE_opt_3p9.xyz,Nucleus 50C :,-0.07021,4.85851,-16.85674,20.0,-74.01,13.55,120.46,130.71,220.25,262.53,-35.07,-215.7,-302.71,-74.01,13.55,120.46,0,194.47,-0.1
KLaL_cation_pi_RCCE_opt_3p9.xyz,Nucleus 51C :,-0.64706,4.68323,-14.92389,28.36,-58.29,104.07,39.29,155.07,300.28,275.58,-83.33,-226.91,-335.62,-58.29,39.29,104.07,0,162.36,0.2
KLaL_cation_pi_RCCE_opt_3p9.xyz,Nucleus 57C :,-0.16135,2.89658,-15.68304,26.97,124.44,-25.3,-18.24,228.71,266.2,300.35,-111.54,-281.23,-321.59,-25.3,-18.24,124.44,0,149.74,-0.91
KLaL_cation_pi_RCCE_opt_3p9.xyz,Nucleus 52N :,-0.9608,5.33763,-13.83124,175.62,115.2,183.06,228.6,401.26,335.86,318.41,-242.2,-155.61,-130.84,115.2,183.06,228.6,0,113.4,0.2
KLaL_cation_pi_RCCE_opt_3p9.xyz,Nucleus 54N :,-0.9621,6.34135,-13.79599,177.06,229.6,181.89,119.69,197.76,312.54,360.51,-16.06,-193.55,-130.02,119.69,181.89,229.6,0,109.91,0.13
KLaL_cation_pi_RCCE_opt_3p9.xyz,Nucleus 59N :,-1.16151,4.84139,-12.97253,176.8,229.26,182.09,119.05,393.02,319.53,346.38,-204.63,-226.41,-97.49,119.05,182.09,229.26,0,110.21,0.14
KLaL_cation_pi_RCCE_opt_4p0.xyz,Nucleus 3H :,1.85056,-3.65399,-14.42354,27.83,34.23,25.3,23.96,-77.86,77.41,13.21,104.29,-47.14,13.58,23.96,25.3,34.23,0,10.27,-0.74
KLaL_cation_pi_RCCE_opt_4p0.xyz,Nucleus 4H :,-1.00867,-3.16908,-13.28325,26.94,23.7,27.22,29.9,84.41,-57.93,5.57,-57.23,83.02,22.98,23.7,27.22,29.9,0,6.2,0.14
KLaL_cation_pi_RCCE_opt_4p0.xyz,Nucleus 7H :,2.41198,-2.20461,-16.88088,24.49,29.86,20.63,22.97,-31.6,49.96,89.04,56.06,-24.21,-65.81,20.63,22.97,29.86,0,9.23,-0.49
KLaL_cation_pi_RCCE_opt_4p0.xyz,Nucleus 9H :,3.34765,-1.9455,-17.38756,25.16,22.19,25.76,27.53,19.3,85.61,64.34,6.72,-59.35,-41.14,22.19,25.76,27.53,0,5.34,0.34
KLaL_cation_pi_RCCE_opt_4p0.xyz,Nucleus 11H :,2.39691,-3.29532,-16.81784,24.37,29.88,20.58,22.65,124.02,64.45,32.6,-100.18,-8.97,-38.8,20.58,22.65,29.88,0,9.3,-0.55
KLaL_cation_pi_RCCE_opt_4p0.xyz,Nucleus 14H :,2.4252,-1.57784,-15.50033,26.29,29.56,23.35,25.97,15.91,95.96,71.11,10.0,-71.59,-42.51,23.35,25.97,29.56,0,6.21,-0.15
KLaL_cation_pi_RCCE_opt_4p0.xyz,Nucleus 15H :,2.68791,-0.21348,-15.39687,28.04,34.5,25.6,24.02,132.92,36.15,63.85,-105.96,-3.24,-39.6,24.02,25.6,34.5,0,10.48,-0.7
KLaL_cation_pi_RCCE_opt_4p0.xyz,Nucleus 18H :,2.98968,0.34051,-16.28164,23.89,28.36,22.52,20.79,118.71,87.9,37.9,-96.74,-65.04,-11.06,20.79,22.52,28.36,0,7.57,-0.54
KLaL_cation_pi_RCCE_opt_4p0.xyz,Nucleus 20H :,2.57849,0.43438,-14.17723,24.57,21.15,26.85,25.72,36.25,88.41,107.84,-61.61,-86.3,-10.87,21.15,25.72,26.85,0,5.7,0.61
KLaL_cation_pi_RCCE_opt_4p0.xyz,Nucleus 22H :,2.82822,1.48929,-14.10622,24.18,28.76,23.04,20.73,24.86,116.38,77.26,2.51,-93.31,-55.17,20.73,23.04,28.76,0,8.03,-0.43
KLaL_cation_pi_RCCE_opt_4p0.xyz,Nucleus 29H :,2.14561,-0.24168,-13.06379,27.67,34.18,25.17,23.67,125.27,8.65,34.77,-97.16,22.29,-10.81,23.67,25.17,34.18,0,10.51,-0.71
KLaL_cation_pi_RCCE_opt_4p0.xyz,Nucleus 30H :,2.02109,0.28044,-12.11936,27.04,23.63,27.59,29.91,4.29,90.59,67.83,23.07,-65.65,-38.99,23.63,27.59,29.91,0,6.28,0.26
KLaL_cation_pi_RCCE_opt_4p0.xyz,Nucleus 33H :,1.85668,-1.6211,-13.12241,24.18,29.61,20.3,22.63,120.67,39.08,7.62,-97.02,-13.52,15.71,20.3,22.63,29.61,0,9.31,-0.5
KLaL_cation_pi_RCCE_opt_4p0.xyz,Nucleus 35H :,1.26442,-2.28521,-11.89554,24.72,21.6,25.21,27.35,88.2,-9.32,11.56,-63.17,34.81,12.07,21.6,25.21,27.35,0,5.75,0.26
KLaL_cation_pi_RCCE_opt_4p0.xyz,Nucleus 37H :,1.23472,-3.36627,-12.0504,24.26,29.82,20.27,22.68,-60.9,84.71,18.03,85.98,-61.55,6.5,20.27,22.68,29.82,0,9.55,-0.5
KLaL_cation_pi_RCCE_opt_4p0.xyz,Nucleus 40H :,1.91674,-2.09261,-11.03742,27.16,23.92,29.99,27.56,60.87,-69.46,-14.86,-32.7,93.39,44.22,23.92,27.56,29.99,0,6.07,0.2
KLaL_cation_pi_RCCE_opt_4p0.xyz,Nucleus 41H :,-0.11608,-1.76989,-11.58662,27.61,34.24,25.08,23.52,-110.68,58.27,-27.7,135.51,-24.76,52.2,23.52,25.08,34.24,0,10.72,-0.71
KLaL_cation_pi_RCCE_opt_4p0.xyz,Nucleus 44H :,-0.34726,-0.74504,-10.66249,24.04,28.58,22.82,20.72,-81.84,-24.79,62.32,-36.94,103.31,50.05,20.72,22.82,28.58,0,7.86,-0.47
KLaL_cation_pi_RCCE_opt_4p0.xyz,Nucleus 46H :,0.48968,-0.37756,-10.07614,24.5,21.08,26.79,25.64,-77.61,-23.95,68.35,-43.05,50.69,99.07,21.08,25.64,26.79,0,5.71,0.6
KLaL_cation_pi_RCCE_opt_4p0.xyz,Nucleus 48H :,-1.61623,-0.22215,-10.4753,23.95,28.51,22.65,20.7,63.45,-38.54,-15.04,-37.91,60.74,39.16,20.7,22.65,28.51,0,7.81,-0.5
KLaL_cation_pi_RCCE_opt_4p0.xyz,Nucleus 53H :,-1.78286,0.55559,-9.73755,27.63,21.12,25.56,36.22,21.9,124.26,82.95,-102.49,3.8,-47.52,21.12,25.56,36.22,0,15.1,-0.41
KLaL_cation_pi_RCCE_opt_4p0.xyz,Nucleus 55H :,-2.67282,-0.71904,-11.20753,26.91,20.59,24.41,35.73,-60.81,22.12,60.89,81.98,3.35,-26.8,20.59,24.41,35.73,0,15.14,-0.5
KLaL_cation_pi_RCCE_opt_4p0.xyz,Nucleus 56H :,-3.67284,-0.32653,-11.04041,26.79,20.22,34.03,26.13,-83.29,23.6,57.22,103.71,6.04,-26.89,20.22,26.13,34.03,0,13.81,-0.14
KLaL_cation_pi_RCCE_opt_4p0.xyz,Nucleus 58H :,-2.50759,-1.75085,-12.13052,27.7,36.25,21.14,25.71,10.54,36.37,64.5,-38.68,11.17,-0.78,21.14,25.71,36.25,0,15.11,-0.4
KLaL_cation_pi_RCCE_opt_4p0.xyz,Nucleus 60H :,-1.21105,-2.26606,-12.34584,26.9,35.71,20.59,24.41,67.35,45.91,20.16,9.37,-41.13,-20.96,20.59,24.41,35.71,0,15.12,-0.49
KLaL_cation_pi_RCCE_opt_4p0.xyz,Nucleus 61H :,2.06614,-2.26271,-14.33433,26.77,20.18,34.01,26.11,144.2,19.67,64.7,-123.48,7.98,-32.77,20.18,26.11,34.01,0,13.83,-0.14
KLaL_cation_pi_RCCE_opt_4p0.xyz,Nucleus 62H :,-3.05617,-3.70143,-15.43508,25.86,37.78,17.83,21.96,18.74,38.55,67.29,-42.44,-8.46,3.87,17.83,21.96,37.78,0,19.95,-0.59
KLaL_cation_pi_RCCE_opt_4p0.xyz,Nucleus 63H :,-0.20716,-3.15713,-16.57412,24.81,36.07,23.36,15.01,87.88,47.16,10.11,-54.37,-23.02,6.67,15.01,23.36,36.07,0,21.06,-0.21
KLaL_cation_pi_RCCE_opt_4p0.xyz,Nucleus 64H :,-3.64618,-2.26946,-12.97424,27.9,41.94,19.87,21.9,78.54,-19.39,8.38,-38.35,40.83,13.7,19.87,21.9,41.94,0,22.07,-0.82
KLaL_cation_pi_RCCE_opt_4p0.xyz,Nucleus 65H :,-4.58558,-2.02912,-12.46536,24.44,36.77,23.07,13.47,52.43,31.21,20.94,-35.21,5.24,-1.3,13.47,23.07,36.77,0,23.3,-0.18
KLaL_cation_pi_RCCE_opt_4p0.xyz,Nucleus 2C :,-3.63086,-3.36289,-13.04152,151.48,134.81,163.39,156.24,300.61,166.27,205.23,-146.71,-4.67,-66.29,134.81,156.24,163.39,0,28.58,0.5
KLaL_cation_pi_RCCE_opt_4p0.xyz,Nucleus 5C :,-3.67186,-1.63971,-14.35326,41.67,161.07,9.0,-45.05,312.03,259.65,278.36,-108.79,-299.36,-316.86,-45.05,9.0,161.07,0,206.12,-0.48
KLaL_cation_pi_RCCE_opt_4p0.xyz,Nucleus 6C :,-3.9616,-0.28059,-14.4534,49.18,163.04,-56.84,41.35,231.49,312.06,286.96,-83.49,-360.62,-238.86,-56.84,41.35,163.04,0,219.88,-0.11
KLaL_cation_pi_RCCE_opt_4p0.xyz,Nucleus 8C :,-4.26639,0.26235,-13.56389,60.41,172.17,-50.48,59.55,310.58,249.92,278.82,-92.58,-335.31,-230.19,-50.48,59.55,172.17,0,222.65,-0.01
KLaL_cation_pi_RCCE_opt_4p0.xyz,Nucleus 10C :,-3.86508,0.37227,-15.67146,46.28,163.63,36.47,-61.27,240.42,325.13,285.17,-113.52,-333.66,-264.72,-61.27,36.47,163.63,0,224.9,-0.13
KLaL_cation_pi_RCCE_opt_4p0.xyz,Nucleus 12C :,-4.13466,1.42199,-15.74103,40.95,162.71,-41.16,1.31,233.42,276.25,287.66,-81.42,-325.02,-268.02,-41.16,1.31,162.71,0,203.87,-0.58
KLaL_cation_pi_RCCE_opt_4p0.xyz,Nucleus 13C :,-3.41889,-0.29236,-16.78652,151.97,134.31,164.27,157.32,345.39,241.73,297.37,-86.15,-181.17,-161.27,134.31,157.32,164.27,0,29.96,0.54
KLaL_cation_pi_RCCE_opt_4p0.xyz,Nucleus 16C :,-3.30176,0.23385,-17.72915,43.62,160.21,-29.93,0.57,326.91,253.73,272.87,-94.39,-356.43,-271.85,-29.93,0.57,160.21,0,190.14,-0.68
KLaL_cation_pi_RCCE_opt_4p0.xyz,Nucleus 17C :,-3.10266,-1.66591,-16.73126,46.2,-59.73,43.4,154.92,334.56,263.17,291.1,-371.12,-249.04,-130.09,-59.73,43.4,154.92,0,214.65,-0.04
KLaL_cation_pi_RCCE_opt_4p0.xyz,Nucleus 19C :,-2.49736,-2.31516,-17.95972,61.74,173.59,56.9,-45.26,330.16,253.18,289.66,-112.29,-271.16,-304.33,-45.26,56.9,173.59,0,218.85,-0.07
KLaL_cation_pi_RCCE_opt_4p0.xyz,Nucleus 21C :,-2.47907,-3.407,-17.86462,50.37,-53.04,48.97,155.17,346.44,262.99,275.78,-386.15,-111.65,-236.31,-53.04,48.97,155.17,0,208.21,-0.02
KLaL_cation_pi_RCCE_opt_4p0.xyz,Nucleus 23C :,-3.14888,-2.11605,-18.81737,48.82,-29.5,21.27,154.69,323.83,268.55,285.08,-120.2,-345.53,-265.26,-29.5,21.27,154.69,0,184.19,-0.45
KLaL_cation_pi_RCCE_opt_4p0.xyz,Nucleus 24C :,-1.12737,-1.77181,-18.26735,18.4,120.03,9.27,-74.09,239.0,327.91,313.74,-144.85,-313.87,-366.72,-74.09,9.27,120.03,0,194.12,-0.14
KLaL_cation_pi_RCCE_opt_4p0.xyz,Nucleus 25C :,-0.91658,-0.74033,-19.18898,20.17,109.13,-63.11,14.48,215.31,288.82,281.08,-113.93,-265.49,-345.27,-63.11,14.48,109.13,0,172.24,-0.1
KLaL_cation_pi_RCCE_opt_4p0.xyz,Nucleus 28C :,-1.75776,-0.38293,-19.77633,152.37,135.38,156.93,164.79,327.31,219.36,274.91,-73.41,-165.17,-125.91,135.38,156.93,164.79,0,29.41,0.47
KLaL_cation_pi_RCCE_opt_4p0.xyz,Nucleus 31C :,0.34176,-0.19192,-19.37488,39.47,162.96,0.7,-45.26,200.59,294.83,258.26,-61.3,-250.78,-323.19,-45.26,0.7,162.96,0,208.22,-0.56
KLaL_cation_pi_RCCE_opt_4p0.xyz,Nucleus 32C :,0.49023,0.59144,-20.11041,46.18,163.8,-58.6,33.33,213.48,268.88,321.83,-111.71,-260.11,-293.84,-58.6,33.33,163.8,0,222.4,-0.17
KLaL_cation_pi_RCCE_opt_4p0.xyz,Nucleus 34C :,1.40802,-0.66952,-18.64383,53.58,174.84,-58.72,44.63,317.85,212.79,248.19,-67.94,-342.64,-207.51,-58.72,44.63,174.84,0,233.56,-0.11
KLaL_cation_pi_RCCE_opt_4p0.xyz,Nucleus 36C :,2.40209,-0.26185,-18.80495,46.23,164.44,32.66,-58.41,190.38,310.41,260.28,-63.49,-214.04,-344.86,-58.41,32.66,164.44,0,222.85,-0.18
KLaL_cation_pi_RCCE_opt_4p0.xyz,Nucleus 38C :,1.26331,-1.70665,-17.72336,41.37,162.61,-43.08,4.58,219.04,296.87,336.4,-119.54,-278.78,-329.88,-43.08,4.58,162.61,0,205.69,-0.54
KLaL_cation_pi_RCCE_opt_4p0.xyz,Nucleus 39C :,-0.02275,-2.248,-17.50932,153.39,136.77,166.02,157.39,271.45,140.19,198.04,20.13,-113.98,-55.65,136.77,157.39,166.02,0,29.25,0.41
KLaL_cation_pi_RCCE_opt_4p0.xyz,Nucleus 42C :,-3.29932,-2.31449,-15.5209,47.43,155.11,-31.14,18.31,191.46,228.94,276.8,-48.96,-269.61,-236.36,-31.14,18.31,155.11,0,186.25,-0.47
KLaL_cation_pi_RCCE_opt_4p0.xyz,Nucleus 43C :,-0.634,3.46673,-14.92549,48.59,-55.61,45.98,155.41,166.27,217.1,282.71,-295.02,-174.65,-50.63,-55.61,45.98,155.41,0,211.02,-0.04
KLaL_cation_pi_RCCE_opt_4p0.xyz,Nucleus 45C :,-0.61955,2.97925,-14.04083,60.67,174.01,54.62,-46.62,200.41,228.53,279.99,-32.19,-174.02,-320.72,-46.62,54.62,174.01,0,220.63,-0.08
KLaL_cation_pi_RCCE_opt_4p0.xyz,Nucleus 47C :,-0.34639,5.44638,-16.01492,47.36,-57.13,44.19,155.02,188.6,223.98,282.99,-281.96,-199.68,-71.85,-57.13,44.19,155.02,0,212.15,-0.04
KLaL_cation_pi_RCCE_opt_4p0.xyz,Nucleus 49C :,-0.35573,6.45022,-16.04481,46.16,160.67,-26.35,4.16,219.14,261.76,256.41,-94.97,-231.44,-272.42,-26.35,4.16,160.67,0,187.02,-0.67
KLaL_cation_pi_RCCE_opt_4p0.xyz,Nucleus 50C :,-0.07021,4.95851,-16.85674,20.0,-74.01,13.57,120.45,131.01,220.39,262.62,-35.23,-215.8,-302.98,-74.01,13.57,120.45,0,194.46,-0.1
KLaL_cation_pi_RCCE_opt_4p0.xyz,Nucleus 51C :,-0.64706,4.78323,-14.92389,28.37,-58.28,104.06,39.33,155.14,300.32,275.68,-83.31,-226.82,-335.9,-58.28,39.33,104.06,0,162.34,0.2
KLaL_cation_pi_RCCE_opt_4p0.xyz,Nucleus 57C :,-0.16135,2.99658,-15.68304,26.93,124.43,-25.19,-18.44,228.5,266.1,299.89,-111.28,-281.37,-321.04,-25.19,-18.44,124.43,0,149.62,-0.91
KLaL_cation_pi_RCCE_opt_4p0.xyz,Nucleus 52N :,-0.9608,5.43763,-13.83124,175.86,115.64,183.03,228.92,400.42,335.44,318.86,-240.69,-156.5,-129.94,115.64,183.03,228.92,0,113.28,0.19
KLaL_cation_pi_RCCE_opt_4p0.xyz,Nucleus 54N :,-0.9621,6.44135,-13.79599,176.95,229.48,181.91,119.47,197.29,312.53,360.0,-15.57,-193.7,-129.68,119.47,181.91,229.48,0,110.01,0.14
KLaL_cation_pi_RCCE_opt_4p0.xyz,Nucleus 59N :,-1.16151,4.94139,-12.97253,176.7,229.15,182.11,118.83,392.58,319.6,345.79,-204.12,-226.08,-97.68,118.83,182.11,229.15,0,110.32,0.15
