Molecule,Atom,x_coord,y_coord,z_coord,sigma_iso,sigma_xx,sigma_yy,sigma_zz,dia_sigma_xx,dia_sigma_yy,dia_sigma_zz,para_sigma_xx,para_sigma_yy,para_sigma_zz,sigma_11,sigma_22,sigma_33,s_tot_symmetry
benzene_H2O_relaxH_disp_struct_0.xyz,Nucleus 0H :,1.262496,-0.430661,2.134433,23.67,27.05,23.1,20.85,43.22,28.25,21.04,-20.23,-1.2,-0.08,20.85,23.1,27.05,0
benzene_H2O_relaxH_disp_struct_0.xyz,Nucleus 3H :,0.725262,-0.290962,1.201459,23.79,27.01,23.39,20.98,43.09,29.18,22.81,-19.89,-2.33,-1.49,20.98,23.39,27.01,0
benzene_H2O_relaxH_disp_struct_0.xyz,Nucleus 5H :,-0.653711,-0.107857,1.2151,23.88,21.06,23.61,26.97,42.63,23.59,29.92,-19.27,-2.39,-2.85,21.06,23.61,26.97,0
benzene_H2O_relaxH_disp_struct_0.xyz,Nucleus 7H :,-1.192142,-0.111533,2.158714,23.62,27.01,22.98,20.88,43.39,28.25,21.75,-20.56,-1.31,-0.64,20.88,22.98,27.01,0
benzene_H2O_relaxH_disp_struct_0.xyz,Nucleus 9H :,-1.341293,0.087002,0.021568,23.64,27.06,23.03,20.83,42.79,28.7,21.04,-19.88,-1.64,-0.1,20.83,23.03,27.06,0
benzene_H2O_relaxH_disp_struct_0.xyz,Nucleus 11H :,-2.419389,0.226606,0.030513,23.66,20.82,23.09,27.06,42.62,20.8,28.86,-19.63,0.13,-1.8,20.82,23.09,27.06,0
benzene_H2O_relaxH_disp_struct_0.xyz,Nucleus 13H :,-0.650037,0.09882,-1.185612,33.42,49.71,26.21,24.33,47.8,23.86,18.08,6.26,2.9,1.34,24.33,26.21,49.71,0
benzene_H2O_relaxH_disp_struct_0.xyz,Nucleus 14H :,-1.186999,0.262847,-2.114963,32.21,20.08,38.27,38.27,21.32,37.27,34.77,2.27,2.27,-1.28,20.08,38.27,38.27,1
benzene_H2O_relaxH_disp_struct_0.xyz,Nucleus 1C :,0.728912,-0.084334,-1.199225,43.94,-74.73,29.77,176.79,235.34,266.07,256.26,-330.77,-236.28,-58.79,-74.73,29.77,176.79,0
benzene_H2O_relaxH_disp_struct_0.xyz,Nucleus 2C :,1.273612,-0.064112,-2.137882,46.33,-71.31,33.48,176.81,236.88,268.2,255.58,-327.48,-234.4,-59.8,-71.31,33.48,176.81,0
benzene_H2O_relaxH_disp_struct_0.xyz,Nucleus 4C :,1.416524,-0.279186,-0.005713,48.4,-67.83,176.93,36.09,237.55,254.88,269.29,-60.02,-323.47,-233.05,-67.83,36.09,176.93,0
benzene_H2O_relaxH_disp_struct_0.xyz,Nucleus 6C :,2.493447,-0.41546,-0.016421,42.87,-76.34,27.84,177.1,266.32,256.27,236.32,-332.58,-238.41,-59.33,-76.34,27.84,177.1,0
benzene_H2O_relaxH_disp_struct_0.xyz,Nucleus 8C :,0.241925,2.352578,0.154144,43.09,-75.91,28.32,176.87,235.7,266.57,255.81,-331.48,-238.24,-59.09,-75.91,28.32,176.87,0
benzene_H2O_relaxH_disp_struct_0.xyz,Nucleus 10C :,0.541438,3.266614,0.211429,43.46,-75.75,176.66,29.47,235.45,255.61,266.87,-59.04,-331.13,-237.39,-75.75,29.47,176.66,0
benzene_H2O_relaxH_disp_struct_0.xyz,Nucleus 12O :,-0.655044,2.374487,0.496965,318.47,366.3,306.69,282.42,401.28,382.89,360.46,-31.97,-78.62,-78.62,282.42,306.69,366.3,0
benzene_H2O_relaxH_disp_struct_1.xyz,Nucleus 0H :,1.262496,-0.430661,2.134433,23.72,26.99,23.31,20.87,43.46,28.23,21.1,-20.26,-1.23,-0.12,20.87,23.31,26.99,0
benzene_H2O_relaxH_disp_struct_1.xyz,Nucleus 3H :,0.725262,-0.290962,1.201459,23.83,26.94,23.53,21.02,43.3,29.2,22.67,-19.96,-2.39,-1.34,21.02,23.53,26.94,0
benzene_H2O_relaxH_disp_struct_1.xyz,Nucleus 5H :,-0.653711,-0.107857,1.2151,23.89,21.1,23.68,26.89,42.85,23.41,29.98,-19.4,-2.12,-3.05,21.1,23.68,26.89,0
benzene_H2O_relaxH_disp_struct_1.xyz,Nucleus 7H :,-1.192142,-0.111533,2.158714,23.7,26.95,23.23,20.93,43.66,28.21,21.8,-20.58,-1.31,-0.67,20.93,23.23,26.95,0
benzene_H2O_relaxH_disp_struct_1.xyz,Nucleus 9H :,-1.341293,0.087002,0.021568,23.69,26.98,23.23,20.85,42.99,28.66,21.02,-19.87,-1.68,-0.06,20.85,23.23,26.98,0
benzene_H2O_relaxH_disp_struct_1.xyz,Nucleus 11H :,-2.419389,0.226606,0.030513,23.7,20.84,23.26,26.99,42.78,20.8,28.86,-19.62,0.15,-1.88,20.84,23.26,26.99,0
benzene_H2O_relaxH_disp_struct_1.xyz,Nucleus 13H :,-0.650037,0.09882,-1.185612,32.77,48.82,25.69,23.81,47.03,23.91,17.26,6.56,2.53,1.03,23.81,25.69,48.82,0
benzene_H2O_relaxH_disp_struct_1.xyz,Nucleus 14H :,-1.186999,0.262847,-2.114963,32.38,21.35,40.51,35.27,21.03,38.8,32.9,2.07,2.07,0.27,21.35,35.27,40.51,0
benzene_H2O_relaxH_disp_struct_1.xyz,Nucleus 1C :,0.728912,-0.084334,-1.199225,45.14,-72.5,31.11,176.81,235.22,266.29,256.9,-329.29,-235.16,-58.55,-72.5,31.11,176.81,0
benzene_H2O_relaxH_disp_struct_1.xyz,Nucleus 2C :,1.273612,-0.064112,-2.137882,47.21,-69.89,34.73,176.78,236.53,268.35,256.27,-326.59,-233.31,-59.61,-69.89,34.73,176.78,0
benzene_H2O_relaxH_disp_struct_1.xyz,Nucleus 4C :,1.416524,-0.279186,-0.005713,48.77,-67.5,176.79,37.02,237.26,255.81,269.39,-60.15,-323.78,-232.23,-67.5,37.02,176.79,0
benzene_H2O_relaxH_disp_struct_1.xyz,Nucleus 6C :,2.493447,-0.41546,-0.016421,44.54,-73.48,30.02,177.09,266.49,256.93,236.05,-330.43,-236.39,-59.02,-73.48,30.02,177.09,0
benzene_H2O_relaxH_disp_struct_1.xyz,Nucleus 8C :,0.242351,2.601307,0.179317,44.4,-73.48,29.78,176.91,235.53,266.86,256.44,-329.73,-237.06,-58.83,-73.48,29.78,176.91,0
benzene_H2O_relaxH_disp_struct_1.xyz,Nucleus 10C :,0.541863,3.515343,0.236602,44.54,-73.6,176.69,30.54,235.34,256.2,267.21,-58.86,-329.6,-236.66,-73.6,30.54,176.69,0
benzene_H2O_relaxH_disp_struct_1.xyz,Nucleus 12O :,-0.654618,2.623216,0.522137,324.76,367.02,315.55,291.72,399.29,382.83,359.14,-28.93,-70.38,-67.66,291.72,315.55,367.02,0
benzene_H2O_relaxH_disp_struct_10.xyz,Nucleus 0H :,1.262496,-0.430661,2.134433,23.75,27.11,23.27,20.87,43.77,28.42,21.35,-20.51,-1.31,-0.47,20.87,23.27,27.11,0
benzene_H2O_relaxH_disp_struct_10.xyz,Nucleus 3H :,0.725262,-0.290962,1.201459,23.77,27.1,23.28,20.94,43.34,29.1,21.85,-20.06,-2.02,-0.89,20.94,23.28,27.1,0
benzene_H2O_relaxH_disp_struct_10.xyz,Nucleus 5H :,-0.653711,-0.107857,1.2151,23.77,23.27,20.98,27.07,42.89,22.12,29.62,-19.62,-1.15,-2.54,20.98,23.27,27.07,0
benzene_H2O_relaxH_disp_struct_10.xyz,Nucleus 7H :,-1.192142,-0.111533,2.158714,23.76,27.1,23.25,20.92,43.94,28.31,21.84,-20.71,-1.21,-0.92,20.92,23.25,27.1,0
benzene_H2O_relaxH_disp_struct_10.xyz,Nucleus 9H :,-1.341293,0.087002,0.021568,23.73,27.09,23.26,20.85,43.13,28.94,21.43,-19.88,-1.84,-0.57,20.85,23.26,27.09,0
benzene_H2O_relaxH_disp_struct_10.xyz,Nucleus 11H :,-2.419389,0.226606,0.030513,23.73,20.83,23.26,27.1,42.84,21.21,29.23,-19.58,-0.37,-2.13,20.83,23.26,27.1,0
benzene_H2O_relaxH_disp_struct_10.xyz,Nucleus 13H :,-0.650037,0.09882,-1.185612,31.24,45.22,25.07,23.42,44.24,25.04,14.49,8.93,0.07,0.94,23.42,25.07,45.22,0
benzene_H2O_relaxH_disp_struct_10.xyz,Nucleus 14H :,-1.186999,0.262847,-2.114963,31.39,43.59,23.29,27.28,42.62,22.16,27.23,0.52,0.52,1.1,23.29,27.28,43.59,0
benzene_H2O_relaxH_disp_struct_10.xyz,Nucleus 1C :,0.728912,-0.084334,-1.199225,47.0,-69.38,33.82,176.57,267.26,257.72,235.17,-327.1,-233.44,-58.6,-69.38,33.82,176.57,0
benzene_H2O_relaxH_disp_struct_10.xyz,Nucleus 2C :,1.273612,-0.064112,-2.137882,47.39,-68.96,34.76,176.36,268.24,257.11,235.58,-326.16,-233.39,-59.22,-68.96,34.76,176.36,0
benzene_H2O_relaxH_disp_struct_10.xyz,Nucleus 4C :,1.416524,-0.279186,-0.005713,47.46,-68.93,176.24,35.06,235.84,256.72,268.77,-59.61,-325.69,-233.66,-68.93,35.06,176.24,0
benzene_H2O_relaxH_disp_struct_10.xyz,Nucleus 6C :,2.493447,-0.41546,-0.016421,47.09,-69.18,33.82,176.63,267.21,257.85,235.47,-327.05,-233.37,-58.83,-69.18,33.82,176.63,0
benzene_H2O_relaxH_disp_struct_10.xyz,Nucleus 8C :,0.24618,4.83987,0.405868,46.82,-69.54,33.3,176.7,267.97,256.88,235.21,-326.44,-234.64,-58.52,-69.54,33.3,176.7,0
benzene_H2O_relaxH_disp_struct_10.xyz,Nucleus 10C :,0.545692,5.753905,0.463153,46.72,-69.85,176.58,33.43,235.13,256.55,268.32,-58.58,-326.39,-234.87,-69.85,33.43,176.58,0
benzene_H2O_relaxH_disp_struct_10.xyz,Nucleus 12O :,-0.650789,4.861778,0.748688,328.65,360.75,322.21,302.99,359.63,396.29,385.54,-35.46,-63.41,-56.63,302.99,322.21,360.75,0
benzene_H2O_relaxH_disp_struct_11.xyz,Nucleus 0H :,1.262496,-0.430661,2.134433,23.75,27.12,23.28,20.85,43.76,28.43,21.35,-20.49,-1.32,-0.48,20.85,23.28,27.12,0
benzene_H2O_relaxH_disp_struct_11.xyz,Nucleus 3H :,0.725262,-0.290962,1.201459,23.77,27.11,23.28,20.92,43.32,29.09,21.82,-20.03,-2.0,-0.88,20.92,23.28,27.11,0
benzene_H2O_relaxH_disp_struct_11.xyz,Nucleus 5H :,-0.653711,-0.107857,1.2151,23.77,23.28,20.95,27.08,42.88,22.08,29.58,-19.6,-1.14,-2.49,20.95,23.28,27.08,0
benzene_H2O_relaxH_disp_struct_11.xyz,Nucleus 7H :,-1.192142,-0.111533,2.158714,23.75,27.1,23.26,20.9,43.92,28.33,21.83,-20.67,-1.22,-0.94,20.9,23.26,27.1,0
benzene_H2O_relaxH_disp_struct_11.xyz,Nucleus 9H :,-1.341293,0.087002,0.021568,23.74,27.1,23.27,20.84,43.13,28.95,21.43,-19.86,-1.86,-0.59,20.84,23.27,27.1,0
benzene_H2O_relaxH_disp_struct_11.xyz,Nucleus 11H :,-2.419389,0.226606,0.030513,23.73,20.82,23.28,27.1,42.83,21.22,29.24,-19.56,-0.39,-2.14,20.82,23.28,27.1,0
benzene_H2O_relaxH_disp_struct_11.xyz,Nucleus 13H :,-0.650037,0.09882,-1.185612,31.18,45.06,25.07,23.4,44.12,25.07,14.17,9.23,0.05,0.88,23.4,25.07,45.06,0
benzene_H2O_relaxH_disp_struct_11.xyz,Nucleus 14H :,-1.186999,0.262847,-2.114963,31.32,43.64,23.3,27.01,42.71,22.13,27.01,0.47,0.47,1.16,23.3,27.01,43.64,0
benzene_H2O_relaxH_disp_struct_11.xyz,Nucleus 1C :,0.728912,-0.084334,-1.199225,47.03,-69.32,33.87,176.53,267.29,257.69,235.13,-327.01,-233.41,-58.6,-69.32,33.87,176.53,0
benzene_H2O_relaxH_disp_struct_11.xyz,Nucleus 2C :,1.273612,-0.064112,-2.137882,47.34,-68.96,34.67,176.31,268.21,257.09,235.51,-326.13,-233.46,-59.21,-68.96,34.67,176.31,0
benzene_H2O_relaxH_disp_struct_11.xyz,Nucleus 4C :,1.416524,-0.279186,-0.005713,47.37,-68.97,176.18,34.91,235.76,256.7,268.71,-59.59,-325.7,-233.76,-68.97,34.91,176.18,0
benzene_H2O_relaxH_disp_struct_11.xyz,Nucleus 6C :,2.493447,-0.41546,-0.016421,47.11,-69.11,33.86,176.59,267.24,257.81,235.42,-326.93,-233.36,-58.83,-69.11,33.86,176.59,0
benzene_H2O_relaxH_disp_struct_11.xyz,Nucleus 8C :,0.246606,5.088599,0.43104,46.88,-69.44,33.4,176.68,267.99,256.87,235.16,-326.33,-234.56,-58.49,-69.44,33.4,176.68,0
benzene_H2O_relaxH_disp_struct_11.xyz,Nucleus 10C :,0.546118,6.002634,0.488325,46.78,-69.75,176.56,33.53,235.1,256.54,268.33,-58.55,-326.28,-234.79,-69.75,33.53,176.56,0
benzene_H2O_relaxH_disp_struct_11.xyz,Nucleus 12O :,-0.650363,5.110507,0.77386,328.58,360.52,321.93,303.28,359.6,396.26,385.52,-35.69,-63.65,-56.31,303.28,321.93,360.52,0
benzene_H2O_relaxH_disp_struct_12.xyz,Nucleus 0H :,1.262496,-0.430661,2.134433,23.75,27.13,23.28,20.84,43.74,28.44,21.35,-20.47,-1.32,-0.5,20.84,23.28,27.13,0
benzene_H2O_relaxH_disp_struct_12.xyz,Nucleus 3H :,0.725262,-0.290962,1.201459,23.77,27.12,23.28,20.9,43.29,29.08,21.79,-20.01,-1.98,-0.88,20.9,23.28,27.12,0
benzene_H2O_relaxH_disp_struct_12.xyz,Nucleus 5H :,-0.653711,-0.107857,1.2151,23.76,23.27,20.92,27.09,42.86,22.04,29.54,-19.58,-1.13,-2.45,20.92,23.27,27.09,0
benzene_H2O_relaxH_disp_struct_12.xyz,Nucleus 7H :,-1.192142,-0.111533,2.158714,23.75,27.11,23.26,20.88,43.89,28.35,21.82,-20.63,-1.23,-0.95,20.88,23.26,27.11,0
benzene_H2O_relaxH_disp_struct_12.xyz,Nucleus 9H :,-1.341293,0.087002,0.021568,23.74,27.11,23.28,20.83,43.13,28.96,21.45,-19.85,-1.86,-0.61,20.83,23.28,27.11,0
benzene_H2O_relaxH_disp_struct_12.xyz,Nucleus 11H :,-2.419389,0.226606,0.030513,23.73,20.81,23.28,27.11,42.83,21.23,29.25,-19.55,-0.41,-2.14,20.81,23.28,27.11,0
benzene_H2O_relaxH_disp_struct_12.xyz,Nucleus 13H :,-0.650037,0.09882,-1.185612,31.13,44.93,25.07,23.4,44.02,25.1,13.83,9.57,0.03,0.85,23.4,25.07,44.93,0
benzene_H2O_relaxH_disp_struct_12.xyz,Nucleus 14H :,-1.186999,0.262847,-2.114963,31.27,43.69,23.33,26.79,42.79,22.1,26.83,0.43,0.43,1.22,23.33,26.79,43.69,0
benzene_H2O_relaxH_disp_struct_12.xyz,Nucleus 1C :,0.728912,-0.084334,-1.199225,47.04,-69.29,33.89,176.52,267.32,257.65,235.11,-326.94,-233.43,-58.59,-69.29,33.89,176.52,0
benzene_H2O_relaxH_disp_struct_12.xyz,Nucleus 2C :,1.273612,-0.064112,-2.137882,47.3,-68.98,34.58,176.3,268.19,257.06,235.46,-326.11,-233.54,-59.16,-68.98,34.58,176.3,0
benzene_H2O_relaxH_disp_struct_12.xyz,Nucleus 4C :,1.416524,-0.279186,-0.005713,47.32,-69.01,176.18,34.78,235.69,256.68,268.66,-59.52,-325.71,-233.85,-69.01,34.78,176.18,0
benzene_H2O_relaxH_disp_struct_12.xyz,Nucleus 6C :,2.493447,-0.41546,-0.016421,47.12,-69.08,33.87,176.57,267.26,257.76,235.39,-326.85,-233.38,-58.81,-69.08,33.87,176.57,0
benzene_H2O_relaxH_disp_struct_12.xyz,Nucleus 8C :,0.247031,5.337328,0.456212,46.92,-69.37,33.46,176.67,268.0,256.85,235.14,-326.25,-234.51,-58.48,-69.37,33.46,176.67,0
benzene_H2O_relaxH_disp_struct_12.xyz,Nucleus 10C :,0.546543,6.251363,0.513497,46.82,-69.68,176.55,33.59,235.06,256.53,268.34,-58.53,-326.21,-234.74,-69.68,33.59,176.55,0
benzene_H2O_relaxH_disp_struct_12.xyz,Nucleus 12O :,-0.649938,5.359236,0.799033,328.53,360.4,321.78,303.42,359.5,396.23,385.49,-35.79,-63.75,-56.07,303.42,321.78,360.4,0
benzene_H2O_relaxH_disp_struct_13.xyz,Nucleus 0H :,1.262496,-0.430661,2.134433,23.75,27.13,23.28,20.83,43.72,28.45,21.35,-20.45,-1.32,-0.51,20.83,23.28,27.13,0
benzene_H2O_relaxH_disp_struct_13.xyz,Nucleus 3H :,0.725262,-0.290962,1.201459,23.76,27.12,23.28,20.88,43.27,29.07,21.76,-19.99,-1.95,-0.87,20.88,23.28,27.12,0
benzene_H2O_relaxH_disp_struct_13.xyz,Nucleus 5H :,-0.653711,-0.107857,1.2151,23.76,23.28,20.9,27.1,42.85,22.01,29.51,-19.57,-1.12,-2.41,20.9,23.28,27.1,0
benzene_H2O_relaxH_disp_struct_13.xyz,Nucleus 7H :,-1.192142,-0.111533,2.158714,23.75,27.12,23.27,20.86,43.87,28.36,21.82,-20.6,-1.23,-0.96,20.86,23.27,27.12,0
benzene_H2O_relaxH_disp_struct_13.xyz,Nucleus 9H :,-1.341293,0.087002,0.021568,23.74,27.12,23.28,20.82,43.12,28.97,21.45,-19.84,-1.85,-0.63,20.82,23.28,27.12,0
benzene_H2O_relaxH_disp_struct_13.xyz,Nucleus 11H :,-2.419389,0.226606,0.030513,23.73,20.8,23.28,27.12,42.83,21.24,29.25,-19.55,-0.43,-2.13,20.8,23.28,27.12,0
benzene_H2O_relaxH_disp_struct_13.xyz,Nucleus 13H :,-0.650037,0.09882,-1.185612,31.1,44.82,25.06,23.41,43.93,25.13,13.48,9.94,0.01,0.82,23.41,25.06,44.82,0
benzene_H2O_relaxH_disp_struct_13.xyz,Nucleus 14H :,-1.186999,0.262847,-2.114963,31.23,43.73,23.36,26.59,42.86,22.09,26.68,0.39,0.39,1.26,23.36,26.59,43.73,0
benzene_H2O_relaxH_disp_struct_13.xyz,Nucleus 1C :,0.728912,-0.084334,-1.199225,47.05,-69.27,33.9,176.51,267.34,257.62,235.09,-326.89,-233.44,-58.58,-69.27,33.9,176.51,0
benzene_H2O_relaxH_disp_struct_13.xyz,Nucleus 2C :,1.273612,-0.064112,-2.137882,47.26,-69.0,34.49,176.3,268.17,257.03,235.42,-326.1,-233.61,-59.12,-69.0,34.49,176.3,0
benzene_H2O_relaxH_disp_struct_13.xyz,Nucleus 4C :,1.416524,-0.279186,-0.005713,47.27,-69.04,176.18,34.66,235.64,256.66,268.62,-59.47,-325.72,-233.93,-69.04,34.66,176.18,0
benzene_H2O_relaxH_disp_struct_13.xyz,Nucleus 6C :,2.493447,-0.41546,-0.016421,47.13,-69.05,33.88,176.56,267.29,257.72,235.36,-326.78,-233.4,-58.8,-69.05,33.88,176.56,0
benzene_H2O_relaxH_disp_struct_13.xyz,Nucleus 8C :,0.247457,5.586057,0.481385,46.95,-69.33,33.52,176.65,268.01,256.84,235.12,-326.19,-234.47,-58.47,-69.33,33.52,176.65,0
benzene_H2O_relaxH_disp_struct_13.xyz,Nucleus 10C :,0.546969,6.500092,0.53867,46.84,-69.64,176.54,33.63,235.05,256.52,268.34,-58.52,-326.16,-234.7,-69.64,33.63,176.54,0
benzene_H2O_relaxH_disp_struct_13.xyz,Nucleus 12O :,-0.649512,5.607965,0.824205,328.51,360.35,321.67,303.5,359.34,396.2,385.46,-35.83,-63.82,-55.84,303.5,321.67,360.35,0
benzene_H2O_relaxH_disp_struct_14.xyz,Nucleus 0H :,1.262496,-0.430661,2.134433,23.75,27.14,23.28,20.82,43.71,28.46,21.34,-20.43,-1.32,-0.51,20.82,23.28,27.14,0
benzene_H2O_relaxH_disp_struct_14.xyz,Nucleus 3H :,0.725262,-0.290962,1.201459,23.76,27.13,23.28,20.86,43.26,29.05,21.74,-19.97,-1.93,-0.87,20.86,23.28,27.13,0
benzene_H2O_relaxH_disp_struct_14.xyz,Nucleus 5H :,-0.653711,-0.107857,1.2151,23.76,23.28,20.88,27.11,42.85,21.99,29.48,-19.56,-1.12,-2.37,20.88,23.28,27.11,0
benzene_H2O_relaxH_disp_struct_14.xyz,Nucleus 7H :,-1.192142,-0.111533,2.158714,23.75,27.13,23.27,20.85,43.85,28.37,21.81,-20.58,-1.24,-0.97,20.85,23.27,27.13,0
benzene_H2O_relaxH_disp_struct_14.xyz,Nucleus 9H :,-1.341293,0.087002,0.021568,23.74,27.13,23.28,20.81,43.12,28.97,21.45,-19.84,-1.85,-0.64,20.81,23.28,27.13,0
benzene_H2O_relaxH_disp_struct_14.xyz,Nucleus 11H :,-2.419389,0.226606,0.030513,23.74,20.8,23.28,27.13,42.83,21.24,29.25,-19.55,-0.44,-2.13,20.8,23.28,27.13,0
benzene_H2O_relaxH_disp_struct_14.xyz,Nucleus 13H :,-0.650037,0.09882,-1.185612,31.07,44.72,25.06,23.42,43.86,25.15,13.11,10.31,-0.01,0.8,23.42,25.06,44.72,0
benzene_H2O_relaxH_disp_struct_14.xyz,Nucleus 14H :,-1.186999,0.262847,-2.114963,31.19,43.76,23.38,26.43,42.92,22.06,26.55,0.36,0.36,1.31,23.38,26.43,43.76,0
benzene_H2O_relaxH_disp_struct_14.xyz,Nucleus 1C :,0.728912,-0.084334,-1.199225,47.05,-69.25,33.91,176.5,267.36,257.59,235.07,-326.84,-233.45,-58.57,-69.25,33.91,176.5,0
benzene_H2O_relaxH_disp_struct_14.xyz,Nucleus 2C :,1.273612,-0.064112,-2.137882,47.24,-69.01,34.42,176.3,268.15,257.01,235.39,-326.08,-233.67,-59.08,-69.01,34.42,176.3,0
benzene_H2O_relaxH_disp_struct_14.xyz,Nucleus 4C :,1.416524,-0.279186,-0.005713,47.23,-69.07,176.19,34.57,235.6,256.65,268.58,-59.42,-325.73,-233.99,-69.07,34.57,176.19,0
benzene_H2O_relaxH_disp_struct_14.xyz,Nucleus 6C :,2.493447,-0.41546,-0.016421,47.13,-69.03,33.88,176.55,267.31,257.69,235.34,-326.73,-233.42,-58.79,-69.03,33.88,176.55,0
benzene_H2O_relaxH_disp_struct_14.xyz,Nucleus 8C :,0.247882,5.834786,0.506557,46.97,-69.29,33.56,176.64,268.02,256.84,235.1,-326.15,-234.43,-58.47,-69.29,33.56,176.64,0
benzene_H2O_relaxH_disp_struct_14.xyz,Nucleus 10C :,0.547394,6.748821,0.563842,46.87,-69.6,176.53,33.67,235.03,256.52,268.34,-58.51,-326.12,-234.66,-69.6,33.67,176.53,0
benzene_H2O_relaxH_disp_struct_14.xyz,Nucleus 12O :,-0.649087,5.856694,0.849377,328.49,360.33,321.59,303.56,359.18,396.17,385.43,-35.83,-63.87,-55.61,303.56,321.59,360.33,0
benzene_H2O_relaxH_disp_struct_15.xyz,Nucleus 0H :,1.262496,-0.430661,2.134433,23.75,27.15,23.28,20.81,43.69,28.47,21.34,-20.41,-1.32,-0.52,20.81,23.28,27.15,0
benzene_H2O_relaxH_disp_struct_15.xyz,Nucleus 3H :,0.725262,-0.290962,1.201459,23.76,27.13,23.29,20.85,43.24,29.04,21.72,-19.95,-1.91,-0.87,20.85,23.29,27.13,0
benzene_H2O_relaxH_disp_struct_15.xyz,Nucleus 5H :,-0.653711,-0.107857,1.2151,23.75,23.28,20.86,27.11,42.84,21.96,29.45,-19.55,-1.11,-2.33,20.86,23.28,27.11,0
benzene_H2O_relaxH_disp_struct_15.xyz,Nucleus 7H :,-1.192142,-0.111533,2.158714,23.75,27.13,23.27,20.84,43.82,28.38,21.81,-20.55,-1.24,-0.97,20.84,23.27,27.13,0
benzene_H2O_relaxH_disp_struct_15.xyz,Nucleus 9H :,-1.341293,0.087002,0.021568,23.74,27.13,23.28,20.8,43.12,28.97,21.45,-19.83,-1.84,-0.65,20.8,23.28,27.13,0
benzene_H2O_relaxH_disp_struct_15.xyz,Nucleus 11H :,-2.419389,0.226606,0.030513,23.74,20.79,23.28,27.14,42.83,21.24,29.25,-19.55,-0.45,-2.12,20.79,23.28,27.14,0
benzene_H2O_relaxH_disp_struct_15.xyz,Nucleus 13H :,-0.650037,0.09882,-1.185612,31.04,44.64,25.06,23.43,43.79,25.17,12.74,10.69,-0.03,0.78,23.43,25.06,44.64,0
benzene_H2O_relaxH_disp_struct_15.xyz,Nucleus 14H :,-1.186999,0.262847,-2.114963,31.16,43.79,23.4,26.29,42.98,22.03,26.44,0.23,0.44,1.36,23.4,26.29,43.79,0
benzene_H2O_relaxH_disp_struct_15.xyz,Nucleus 1C :,0.728912,-0.084334,-1.199225,47.06,-69.24,33.91,176.5,267.38,257.56,235.06,-326.8,-233.46,-58.56,-69.24,33.91,176.5,0
benzene_H2O_relaxH_disp_struct_15.xyz,Nucleus 2C :,1.273612,-0.064112,-2.137882,47.21,-69.02,34.36,176.3,268.13,256.99,235.36,-326.07,-233.71,-59.06,-69.02,34.36,176.3,0
benzene_H2O_relaxH_disp_struct_15.xyz,Nucleus 4C :,1.416524,-0.279186,-0.005713,47.2,-69.09,176.19,34.49,235.56,256.63,268.55,-59.38,-325.74,-234.03,-69.09,34.49,176.19,0
benzene_H2O_relaxH_disp_struct_15.xyz,Nucleus 6C :,2.493447,-0.41546,-0.016421,47.14,-69.01,33.88,176.54,267.33,257.65,235.32,-326.68,-233.44,-58.78,-69.01,33.88,176.54,0
benzene_H2O_relaxH_disp_struct_15.xyz,Nucleus 8C :,0.248308,6.083515,0.531729,46.99,-69.26,33.6,176.62,268.02,256.83,235.09,-326.11,-234.4,-58.47,-69.26,33.6,176.62,0
benzene_H2O_relaxH_disp_struct_15.xyz,Nucleus 10C :,0.54782,6.997551,0.589014,46.89,-69.57,176.52,33.71,235.02,256.52,268.34,-58.51,-326.09,-234.62,-69.57,33.71,176.52,0
benzene_H2O_relaxH_disp_struct_15.xyz,Nucleus 12O :,-0.648661,6.105423,0.87455,328.48,360.32,321.51,303.61,358.98,396.15,385.4,-35.82,-63.91,-55.36,303.61,321.51,360.32,0
benzene_H2O_relaxH_disp_struct_16.xyz,Nucleus 0H :,1.262496,-0.430661,2.134433,23.74,27.15,23.28,20.8,43.68,28.47,21.33,-20.4,-1.32,-0.52,20.8,23.28,27.15,0
benzene_H2O_relaxH_disp_struct_16.xyz,Nucleus 3H :,0.725262,-0.290962,1.201459,23.75,27.14,23.29,20.83,43.23,29.03,21.7,-19.93,-1.9,-0.86,20.83,23.29,27.14,0
benzene_H2O_relaxH_disp_struct_16.xyz,Nucleus 5H :,-0.653711,-0.107857,1.2151,23.75,23.28,20.84,27.12,42.83,21.94,29.42,-19.55,-1.11,-2.3,20.84,23.28,27.12,0
benzene_H2O_relaxH_disp_struct_16.xyz,Nucleus 7H :,-1.192142,-0.111533,2.158714,23.75,27.14,23.28,20.82,43.8,28.39,21.8,-20.52,-1.24,-0.98,20.82,23.28,27.14,0
benzene_H2O_relaxH_disp_struct_16.xyz,Nucleus 9H :,-1.341293,0.087002,0.021568,23.74,27.14,23.28,20.79,43.12,28.97,21.45,-19.83,-1.84,-0.66,20.79,23.28,27.14,0
benzene_H2O_relaxH_disp_struct_16.xyz,Nucleus 11H :,-2.419389,0.226606,0.030513,23.74,20.78,23.28,27.15,42.83,21.24,29.25,-19.55,-0.45,-2.11,20.78,23.28,27.15,0
benzene_H2O_relaxH_disp_struct_16.xyz,Nucleus 13H :,-0.650037,0.09882,-1.185612,31.02,44.57,25.06,23.43,43.73,25.18,12.37,11.07,-0.05,0.76,23.43,25.06,44.57,0
benzene_H2O_relaxH_disp_struct_16.xyz,Nucleus 14H :,-1.186999,0.262847,-2.114963,31.13,43.82,23.42,26.16,43.02,22.01,26.34,0.14,0.49,1.4,23.42,26.16,43.82,0
benzene_H2O_relaxH_disp_struct_16.xyz,Nucleus 1C :,0.728912,-0.084334,-1.199225,47.06,-69.22,33.92,176.49,267.4,257.53,235.04,-326.76,-233.48,-58.56,-69.22,33.92,176.49,0
benzene_H2O_relaxH_disp_struct_16.xyz,Nucleus 2C :,1.273612,-0.064112,-2.137882,47.2,-69.03,34.31,176.31,268.12,256.98,235.34,-326.06,-233.75,-59.03,-69.03,34.31,176.31,0
benzene_H2O_relaxH_disp_struct_16.xyz,Nucleus 4C :,1.416524,-0.279186,-0.005713,47.17,-69.11,176.2,34.42,235.53,256.62,268.52,-59.35,-325.74,-234.07,-69.11,34.42,176.2,0
benzene_H2O_relaxH_disp_struct_16.xyz,Nucleus 6C :,2.493447,-0.41546,-0.016421,47.14,-69.0,33.89,176.53,267.35,257.62,235.31,-326.63,-233.45,-58.78,-69.0,33.89,176.53,0
benzene_H2O_relaxH_disp_struct_16.xyz,Nucleus 8C :,0.248733,6.332244,0.556902,47.0,-69.23,33.63,176.61,268.02,256.83,235.08,-326.08,-234.36,-58.47,-69.23,33.63,176.61,0
benzene_H2O_relaxH_disp_struct_16.xyz,Nucleus 10C :,0.548245,7.24628,0.614187,46.9,-69.55,176.51,33.74,235.01,256.52,268.33,-58.51,-326.07,-234.59,-69.55,33.74,176.51,0
benzene_H2O_relaxH_disp_struct_16.xyz,Nucleus 12O :,-0.648236,6.354152,0.899722,328.47,360.32,321.44,303.65,358.76,396.13,385.38,-35.81,-63.95,-55.11,303.65,321.44,360.32,0
benzene_H2O_relaxH_disp_struct_17.xyz,Nucleus 0H :,1.262496,-0.430661,2.134433,23.75,27.16,23.28,20.8,43.66,28.47,21.33,-20.38,-1.32,-0.53,20.8,23.28,27.16,0
benzene_H2O_relaxH_disp_struct_17.xyz,Nucleus 3H :,0.725262,-0.290962,1.201459,23.75,27.14,23.29,20.82,43.21,29.01,21.69,-19.92,-1.88,-0.86,20.82,23.29,27.14,0
benzene_H2O_relaxH_disp_struct_17.xyz,Nucleus 5H :,-0.653711,-0.107857,1.2151,23.74,23.28,20.82,27.12,42.83,21.92,29.39,-19.54,-1.11,-2.27,20.82,23.28,27.12,0
benzene_H2O_relaxH_disp_struct_17.xyz,Nucleus 7H :,-1.192142,-0.111533,2.158714,23.75,27.15,23.28,20.81,43.78,28.4,21.79,-20.5,-1.25,-0.98,20.81,23.28,27.15,0
benzene_H2O_relaxH_disp_struct_17.xyz,Nucleus 9H :,-1.341293,0.087002,0.021568,23.74,27.15,23.29,20.79,43.11,28.97,21.45,-19.82,-1.83,-0.67,20.79,23.29,27.15,0
benzene_H2O_relaxH_disp_struct_17.xyz,Nucleus 11H :,-2.419389,0.226606,0.030513,23.74,20.78,23.28,27.15,42.83,21.24,29.24,-19.55,-0.46,-2.1,20.78,23.28,27.15,0
benzene_H2O_relaxH_disp_struct_17.xyz,Nucleus 13H :,-0.650037,0.09882,-1.185612,31.0,44.5,25.06,23.44,43.68,25.2,11.98,11.46,-0.06,0.75,23.44,25.06,44.5,0
benzene_H2O_relaxH_disp_struct_17.xyz,Nucleus 14H :,-1.186999,0.262847,-2.114963,31.11,43.84,23.43,26.06,43.06,21.98,26.25,0.08,0.51,1.45,23.43,26.06,43.84,0
benzene_H2O_relaxH_disp_struct_17.xyz,Nucleus 1C :,0.728912,-0.084334,-1.199225,47.06,-69.21,33.92,176.48,267.41,257.51,235.03,-326.72,-233.48,-58.55,-69.21,33.92,176.48,0
benzene_H2O_relaxH_disp_struct_17.xyz,Nucleus 2C :,1.273612,-0.064112,-2.137882,47.18,-69.04,34.27,176.31,268.1,256.96,235.32,-326.04,-233.78,-59.01,-69.04,34.27,176.31,0
benzene_H2O_relaxH_disp_struct_17.xyz,Nucleus 4C :,1.416524,-0.279186,-0.005713,47.15,-69.12,176.2,34.37,235.5,256.61,268.49,-59.32,-325.74,-234.1,-69.12,34.37,176.2,0
benzene_H2O_relaxH_disp_struct_17.xyz,Nucleus 6C :,2.493447,-0.41546,-0.016421,47.14,-68.99,33.89,176.52,267.36,257.59,235.3,-326.58,-233.47,-58.77,-68.99,33.89,176.52,0
benzene_H2O_relaxH_disp_struct_17.xyz,Nucleus 8C :,0.249159,6.580973,0.582074,47.02,-69.21,33.66,176.6,268.02,256.82,235.07,-326.05,-234.33,-58.47,-69.21,33.66,176.6,0
benzene_H2O_relaxH_disp_struct_17.xyz,Nucleus 10C :,0.548671,7.495009,0.639359,46.92,-69.52,176.5,33.77,235.0,256.52,268.33,-58.51,-326.05,-234.55,-69.52,33.77,176.5,0
benzene_H2O_relaxH_disp_struct_17.xyz,Nucleus 12O :,-0.64781,6.602882,0.924895,328.46,360.31,321.39,303.68,358.53,396.12,385.36,-35.8,-63.98,-54.84,303.68,321.39,360.31,0
benzene_H2O_relaxH_disp_struct_18.xyz,Nucleus 0H :,1.262496,-0.430661,2.134433,23.75,27.16,23.29,20.79,43.65,28.48,21.32,-20.36,-1.32,-0.53,20.79,23.29,27.16,0
benzene_H2O_relaxH_disp_struct_18.xyz,Nucleus 3H :,0.725262,-0.290962,1.201459,23.75,27.15,23.29,20.81,43.2,29.0,21.68,-19.9,-1.86,-0.86,20.81,23.29,27.15,0
benzene_H2O_relaxH_disp_struct_18.xyz,Nucleus 5H :,-0.653711,-0.107857,1.2151,23.74,23.29,20.81,27.13,42.82,21.91,29.37,-19.53,-1.1,-2.24,20.81,23.29,27.13,0
benzene_H2O_relaxH_disp_struct_18.xyz,Nucleus 7H :,-1.192142,-0.111533,2.158714,23.74,27.15,23.28,20.8,43.76,28.4,21.79,-20.47,-1.25,-0.99,20.8,23.28,27.15,0
benzene_H2O_relaxH_disp_struct_18.xyz,Nucleus 9H :,-1.341293,0.087002,0.021568,23.74,27.15,23.29,20.78,43.11,28.97,21.45,-19.82,-1.82,-0.67,20.78,23.29,27.15,0
benzene_H2O_relaxH_disp_struct_18.xyz,Nucleus 11H :,-2.419389,0.226606,0.030513,23.74,20.77,23.28,27.16,42.83,21.24,29.23,-19.54,-0.46,-2.08,20.77,23.28,27.16,0
benzene_H2O_relaxH_disp_struct_18.xyz,Nucleus 13H :,-0.650037,0.09882,-1.185612,30.99,44.45,25.06,23.45,43.63,25.21,11.6,11.85,-0.07,0.74,23.45,25.06,44.45,0
benzene_H2O_relaxH_disp_struct_18.xyz,Nucleus 14H :,-1.186999,0.262847,-2.114963,31.09,43.86,23.45,25.96,43.09,21.95,26.18,0.03,0.53,1.5,23.45,25.96,43.86,0
benzene_H2O_relaxH_disp_struct_18.xyz,Nucleus 1C :,0.728912,-0.084334,-1.199225,47.06,-69.21,33.92,176.48,267.42,257.48,235.02,-326.69,-233.49,-58.55,-69.21,33.92,176.48,0
benzene_H2O_relaxH_disp_struct_18.xyz,Nucleus 2C :,1.273612,-0.064112,-2.137882,47.16,-69.05,34.23,176.31,268.09,256.94,235.3,-326.03,-233.81,-58.99,-69.05,34.23,176.31,0
benzene_H2O_relaxH_disp_struct_18.xyz,Nucleus 4C :,1.416524,-0.279186,-0.005713,47.13,-69.13,176.2,34.32,235.49,256.6,268.46,-59.3,-325.74,-234.12,-69.13,34.32,176.2,0
benzene_H2O_relaxH_disp_struct_18.xyz,Nucleus 6C :,2.493447,-0.41546,-0.016421,47.14,-68.98,33.89,176.52,267.37,257.56,235.29,-326.54,-233.48,-58.77,-68.98,33.89,176.52,0
benzene_H2O_relaxH_disp_struct_18.xyz,Nucleus 8C :,0.249584,6.829702,0.607246,47.03,-69.19,33.69,176.59,268.02,256.82,235.07,-326.03,-234.31,-58.48,-69.19,33.69,176.59,0
benzene_H2O_relaxH_disp_struct_18.xyz,Nucleus 10C :,0.549096,7.743738,0.664531,46.92,-69.51,176.49,33.79,234.99,256.52,268.32,-58.51,-326.03,-234.52,-69.51,33.79,176.49,0
benzene_H2O_relaxH_disp_struct_18.xyz,Nucleus 12O :,-0.647385,6.851611,0.950067,328.45,360.31,321.34,303.71,358.28,396.11,385.34,-35.8,-64.01,-54.57,303.71,321.34,360.31,0
benzene_H2O_relaxH_disp_struct_19.xyz,Nucleus 0H :,1.262496,-0.430661,2.134433,23.75,27.17,23.29,20.78,43.63,28.48,21.32,-20.35,-1.32,-0.54,20.78,23.29,27.17,0
benzene_H2O_relaxH_disp_struct_19.xyz,Nucleus 3H :,0.725262,-0.290962,1.201459,23.75,27.15,23.29,20.8,43.19,28.99,21.66,-19.89,-1.85,-0.86,20.8,23.29,27.15,0
benzene_H2O_relaxH_disp_struct_19.xyz,Nucleus 5H :,-0.653711,-0.107857,1.2151,23.74,23.29,20.8,27.13,42.82,21.89,29.34,-19.53,-1.1,-2.21,20.8,23.29,27.13,0
benzene_H2O_relaxH_disp_struct_19.xyz,Nucleus 7H :,-1.192142,-0.111533,2.158714,23.75,27.15,23.29,20.8,43.73,28.41,21.78,-20.45,-1.25,-0.99,20.8,23.29,27.15,0
benzene_H2O_relaxH_disp_struct_19.xyz,Nucleus 9H :,-1.341293,0.087002,0.021568,23.74,27.16,23.29,20.77,43.11,28.96,21.45,-19.81,-1.81,-0.68,20.77,23.29,27.16,0
benzene_H2O_relaxH_disp_struct_19.xyz,Nucleus 11H :,-2.419389,0.226606,0.030513,23.74,20.77,23.28,27.16,42.83,21.24,29.23,-19.54,-0.47,-2.07,20.77,23.28,27.16,0
benzene_H2O_relaxH_disp_struct_19.xyz,Nucleus 13H :,-0.650037,0.09882,-1.185612,30.97,44.4,25.06,23.45,43.59,25.22,11.21,12.24,-0.08,0.72,23.45,25.06,44.4,0
benzene_H2O_relaxH_disp_struct_19.xyz,Nucleus 14H :,-1.186999,0.262847,-2.114963,31.07,43.88,23.46,25.88,43.12,21.91,26.11,-0.0,0.53,1.55,23.46,25.88,43.88,0
benzene_H2O_relaxH_disp_struct_19.xyz,Nucleus 1C :,0.728912,-0.084334,-1.199225,47.07,-69.2,33.93,176.47,267.43,257.46,235.02,-326.66,-233.5,-58.55,-69.2,33.93,176.47,0
benzene_H2O_relaxH_disp_struct_19.xyz,Nucleus 2C :,1.273612,-0.064112,-2.137882,47.15,-69.05,34.2,176.31,268.08,256.93,235.3,-326.02,-233.83,-58.98,-69.05,34.2,176.31,0
benzene_H2O_relaxH_disp_struct_19.xyz,Nucleus 4C :,1.416524,-0.279186,-0.005713,47.12,-69.14,176.21,34.28,235.47,256.6,268.44,-59.28,-325.74,-234.14,-69.14,34.28,176.21,0
benzene_H2O_relaxH_disp_struct_19.xyz,Nucleus 6C :,2.493447,-0.41546,-0.016421,47.14,-68.97,33.89,176.51,267.38,257.53,235.28,-326.51,-233.49,-58.77,-68.97,33.89,176.51,0
benzene_H2O_relaxH_disp_struct_19.xyz,Nucleus 8C :,0.25001,7.078432,0.632419,47.04,-69.17,33.71,176.58,268.01,256.81,235.06,-326.0,-234.28,-58.48,-69.17,33.71,176.58,0
benzene_H2O_relaxH_disp_struct_19.xyz,Nucleus 10C :,0.549522,7.992467,0.689704,46.93,-69.49,176.48,33.81,234.99,256.52,268.31,-58.51,-326.01,-234.49,-69.49,33.81,176.48,0
benzene_H2O_relaxH_disp_struct_19.xyz,Nucleus 12O :,-0.646959,7.10034,0.975239,328.44,360.3,321.29,303.73,358.03,396.1,385.32,-35.79,-64.03,-54.3,303.73,321.29,360.3,0
benzene_H2O_relaxH_disp_struct_2.xyz,Nucleus 0H :,1.262496,-0.430661,2.134433,23.75,26.97,23.38,20.9,43.63,28.22,21.16,-20.34,-1.25,-0.18,20.9,23.38,26.97,0
benzene_H2O_relaxH_disp_struct_2.xyz,Nucleus 3H :,0.725262,-0.290962,1.201459,23.84,26.93,23.55,21.04,43.43,29.2,22.48,-20.03,-2.37,-1.19,21.04,23.55,26.93,0
benzene_H2O_relaxH_disp_struct_2.xyz,Nucleus 5H :,-0.653711,-0.107857,1.2151,23.89,21.13,23.65,26.88,42.98,23.15,29.97,-19.51,-1.86,-3.08,21.13,23.65,26.88,0
benzene_H2O_relaxH_disp_struct_2.xyz,Nucleus 7H :,-1.192142,-0.111533,2.158714,23.74,26.93,23.33,20.97,43.85,28.17,21.84,-20.64,-1.28,-0.7,20.97,23.33,26.93,0
benzene_H2O_relaxH_disp_struct_2.xyz,Nucleus 9H :,-1.341293,0.087002,0.021568,23.72,26.95,23.31,20.89,43.09,28.66,21.07,-19.86,-1.71,-0.1,20.89,23.31,26.95,0
benzene_H2O_relaxH_disp_struct_2.xyz,Nucleus 11H :,-2.419389,0.226606,0.030513,23.72,20.87,23.33,26.96,42.86,20.86,28.89,-19.61,0.08,-1.93,20.87,23.33,26.96,0
benzene_H2O_relaxH_disp_struct_2.xyz,Nucleus 13H :,-0.650037,0.09882,-1.185612,32.32,48.04,25.41,23.52,46.44,24.14,16.67,6.86,2.16,0.7,23.52,25.41,48.04,0
benzene_H2O_relaxH_disp_struct_2.xyz,Nucleus 14H :,-1.186999,0.262847,-2.114963,32.32,41.84,22.06,33.06,21.14,39.73,31.61,1.81,1.81,0.86,22.06,33.06,41.84,0
benzene_H2O_relaxH_disp_struct_2.xyz,Nucleus 1C :,0.728912,-0.084334,-1.199225,45.89,-71.21,32.13,176.75,235.26,266.46,257.35,-328.5,-234.32,-58.58,-71.21,32.13,176.75,0
benzene_H2O_relaxH_disp_struct_2.xyz,Nucleus 2C :,1.273612,-0.064112,-2.137882,47.64,-69.16,35.44,176.65,268.41,256.75,236.33,-326.24,-232.7,-59.61,-69.16,35.44,176.65,0
benzene_H2O_relaxH_disp_struct_2.xyz,Nucleus 4C :,1.416524,-0.279186,-0.005713,48.79,-67.56,176.59,37.33,237.01,256.41,269.38,-60.25,-324.26,-231.92,-67.56,37.33,176.59,0
benzene_H2O_relaxH_disp_struct_2.xyz,Nucleus 6C :,2.493447,-0.41546,-0.016421,45.61,-71.72,31.56,176.99,266.58,257.39,235.84,-329.17,-234.93,-58.88,-71.72,31.56,176.99,0
benzene_H2O_relaxH_disp_struct_2.xyz,Nucleus 8C :,0.242776,2.850037,0.204489,45.26,-72.02,30.93,176.86,235.51,267.12,256.75,-328.65,-236.16,-58.8,-72.02,30.93,176.86,0
benzene_H2O_relaxH_disp_struct_2.xyz,Nucleus 10C :,0.542289,3.764072,0.261774,45.28,-72.26,176.66,31.45,235.38,256.51,267.5,-58.9,-328.61,-236.04,-72.26,31.45,176.66,0
benzene_H2O_relaxH_disp_struct_2.xyz,Nucleus 12O :,-0.654193,2.871945,0.547309,327.62,366.25,319.69,296.91,358.39,383.32,398.16,-28.94,-66.5,-61.58,296.91,319.69,366.25,0
benzene_H2O_relaxH_disp_struct_3.xyz,Nucleus 0H :,1.262496,-0.430661,2.134433,23.76,26.98,23.38,20.91,43.73,28.24,21.22,-20.42,-1.25,-0.24,20.91,23.38,26.98,0
benzene_H2O_relaxH_disp_struct_3.xyz,Nucleus 3H :,0.725262,-0.290962,1.201459,23.83,26.95,23.49,21.06,43.48,29.18,22.32,-20.09,-2.32,-1.07,21.06,23.49,26.95,0
benzene_H2O_relaxH_disp_struct_3.xyz,Nucleus 5H :,-0.653711,-0.107857,1.2151,23.87,21.15,23.56,26.9,43.02,22.91,29.93,-19.6,-1.64,-3.02,21.15,23.56,26.9,0
benzene_H2O_relaxH_disp_struct_3.xyz,Nucleus 7H :,-1.192142,-0.111533,2.158714,23.76,26.94,23.34,20.99,43.96,28.15,21.85,-20.71,-1.25,-0.73,20.99,23.34,26.94,0
benzene_H2O_relaxH_disp_struct_3.xyz,Nucleus 9H :,-1.341293,0.087002,0.021568,23.72,26.95,23.32,20.9,43.13,28.69,21.16,-19.87,-1.74,-0.2,20.9,23.32,26.95,0
benzene_H2O_relaxH_disp_struct_3.xyz,Nucleus 11H :,-2.419389,0.226606,0.030513,23.72,20.87,23.33,26.96,42.88,20.96,28.95,-19.61,-0.03,-1.99,20.87,23.33,26.96,0
benzene_H2O_relaxH_disp_struct_3.xyz,Nucleus 13H :,-0.650037,0.09882,-1.185612,32.03,47.42,25.26,23.41,45.97,24.4,16.29,7.13,1.84,0.47,23.41,25.26,47.42,0
benzene_H2O_relaxH_disp_struct_3.xyz,Nucleus 14H :,-1.186999,0.262847,-2.114963,32.19,42.47,22.48,31.62,40.5,21.43,30.59,1.52,1.52,1.0,22.48,31.62,42.47,0
benzene_H2O_relaxH_disp_struct_3.xyz,Nucleus 1C :,0.728912,-0.084334,-1.199225,46.33,-70.5,32.77,176.73,235.28,266.62,257.62,-328.1,-233.85,-58.58,-70.5,32.77,176.73,0
benzene_H2O_relaxH_disp_struct_3.xyz,Nucleus 2C :,1.273612,-0.064112,-2.137882,47.79,-68.88,35.68,176.57,268.43,257.01,236.17,-326.15,-232.51,-59.58,-68.88,35.68,176.57,0
benzene_H2O_relaxH_disp_struct_3.xyz,Nucleus 4C :,1.416524,-0.279186,-0.005713,48.63,-67.78,176.47,37.2,236.77,256.7,269.31,-60.22,-324.68,-231.99,-67.78,37.2,176.47,0
benzene_H2O_relaxH_disp_struct_3.xyz,Nucleus 6C :,2.493447,-0.41546,-0.016421,46.23,-70.72,32.49,176.92,266.66,257.69,235.7,-328.48,-234.1,-58.78,-70.72,32.49,176.92,0
benzene_H2O_relaxH_disp_struct_3.xyz,Nucleus 8C :,0.243202,3.098766,0.229661,45.79,-71.18,31.68,176.86,235.44,267.33,256.87,-327.97,-235.61,-58.69,-71.18,31.68,176.86,0
benzene_H2O_relaxH_disp_struct_3.xyz,Nucleus 10C :,0.542714,4.012801,0.286946,45.75,-71.48,176.67,32.05,235.35,256.62,267.71,-58.82,-327.98,-235.64,-71.48,32.05,176.67,0
benzene_H2O_relaxH_disp_struct_3.xyz,Nucleus 12O :,-0.653767,3.120674,0.572482,328.96,365.29,321.86,299.72,358.25,384.11,397.44,-30.02,-64.33,-58.58,299.72,321.86,365.29,0
benzene_H2O_relaxH_disp_struct_4.xyz,Nucleus 0H :,1.262496,-0.430661,2.134433,23.76,27.0,23.36,20.92,43.79,28.26,21.26,-20.48,-1.26,-0.29,20.92,23.36,27.0,0
benzene_H2O_relaxH_disp_struct_4.xyz,Nucleus 3H :,0.725262,-0.290962,1.201459,23.82,26.97,23.44,21.06,43.49,29.17,22.19,-20.12,-2.26,-1.0,21.06,23.44,26.97,0
benzene_H2O_relaxH_disp_struct_4.xyz,Nucleus 5H :,-0.653711,-0.107857,1.2151,23.85,21.15,23.48,26.93,43.03,22.68,29.88,-19.64,-1.46,-2.95,21.15,23.48,26.93,0
benzene_H2O_relaxH_disp_struct_4.xyz,Nucleus 7H :,-1.192142,-0.111533,2.158714,23.76,26.97,23.32,21.0,44.02,28.16,21.85,-20.76,-1.22,-0.76,21.0,23.32,26.97,0
benzene_H2O_relaxH_disp_struct_4.xyz,Nucleus 9H :,-1.341293,0.087002,0.021568,23.73,26.97,23.31,20.9,43.15,28.73,21.24,-19.88,-1.77,-0.3,20.9,23.31,26.97,0
benzene_H2O_relaxH_disp_struct_4.xyz,Nucleus 11H :,-2.419389,0.226606,0.030513,23.73,20.88,23.32,26.98,42.89,21.04,29.01,-19.61,-0.12,-2.04,20.88,23.32,26.98,0
benzene_H2O_relaxH_disp_struct_4.xyz,Nucleus 13H :,-0.650037,0.09882,-1.185612,31.81,46.9,25.18,23.36,45.57,24.59,15.99,7.37,1.59,0.32,23.36,25.18,46.9,0
benzene_H2O_relaxH_disp_struct_4.xyz,Nucleus 14H :,-1.186999,0.262847,-2.114963,32.03,42.83,22.74,30.53,41.11,21.73,29.76,1.26,1.26,0.96,22.74,30.53,42.83,0
benzene_H2O_relaxH_disp_struct_4.xyz,Nucleus 1C :,0.728912,-0.084334,-1.199225,46.6,-70.08,33.19,176.69,235.34,266.79,257.75,-327.83,-233.59,-58.66,-70.08,33.19,176.69,0
benzene_H2O_relaxH_disp_struct_4.xyz,Nucleus 2C :,1.273612,-0.064112,-2.137882,47.8,-68.77,35.69,176.49,268.42,257.15,236.09,-326.14,-232.52,-59.58,-68.77,35.69,176.49,0
benzene_H2O_relaxH_disp_struct_4.xyz,Nucleus 4C :,1.416524,-0.279186,-0.005713,48.41,-68.04,176.38,36.89,236.58,256.82,269.22,-60.17,-325.0,-232.22,-68.04,36.89,176.38,0
benzene_H2O_relaxH_disp_struct_4.xyz,Nucleus 6C :,2.493447,-0.41546,-0.016421,46.59,-70.13,33.06,176.85,266.78,257.87,235.7,-328.05,-233.65,-58.84,-70.13,33.06,176.85,0
benzene_H2O_relaxH_disp_struct_4.xyz,Nucleus 8C :,0.243627,3.347495,0.254834,46.13,-70.64,32.2,176.82,235.43,267.51,256.91,-327.52,-235.27,-58.69,-70.64,32.2,176.82,0
benzene_H2O_relaxH_disp_struct_4.xyz,Nucleus 10C :,0.54314,4.26153,0.312119,46.06,-70.95,176.65,32.49,235.35,256.65,267.89,-58.8,-327.51,-235.38,-70.95,32.49,176.65,0
benzene_H2O_relaxH_disp_struct_4.xyz,Nucleus 12O :,-0.653342,3.369403,0.597654,329.31,364.1,322.6,301.23,358.43,384.84,397.05,-31.59,-63.56,-57.22,301.23,322.6,364.1,0
benzene_H2O_relaxH_disp_struct_5.xyz,Nucleus 0H :,1.262496,-0.430661,2.134433,23.76,27.02,23.34,20.91,43.81,28.29,21.29,-20.51,-1.28,-0.34,20.91,23.34,27.02,0
benzene_H2O_relaxH_disp_struct_5.xyz,Nucleus 3H :,0.725262,-0.290962,1.201459,23.82,26.99,23.4,21.06,43.48,29.16,22.11,-20.13,-2.22,-0.95,21.06,23.4,26.99,0
benzene_H2O_relaxH_disp_struct_5.xyz,Nucleus 5H :,-0.653711,-0.107857,1.2151,23.83,23.42,21.13,26.95,43.01,22.53,29.84,-19.64,-1.35,-2.88,21.13,23.42,26.95,0
benzene_H2O_relaxH_disp_struct_5.xyz,Nucleus 7H :,-1.192142,-0.111533,2.158714,23.76,26.99,23.3,20.99,44.04,28.19,21.86,-20.78,-1.22,-0.8,20.99,23.3,26.99,0
benzene_H2O_relaxH_disp_struct_5.xyz,Nucleus 9H :,-1.341293,0.087002,0.021568,23.73,26.99,23.29,20.9,43.15,28.78,21.3,-19.89,-1.79,-0.37,20.9,23.29,26.99,0
benzene_H2O_relaxH_disp_struct_5.xyz,Nucleus 11H :,-2.419389,0.226606,0.030513,23.72,20.87,23.3,27.0,42.88,21.09,29.06,-19.61,-0.18,-2.06,20.87,23.3,27.0,0
benzene_H2O_relaxH_disp_struct_5.xyz,Nucleus 13H :,-0.650037,0.09882,-1.185612,31.65,46.47,25.14,23.34,45.24,24.72,15.75,7.59,0.24,1.41,23.34,25.14,46.47,0
benzene_H2O_relaxH_disp_struct_5.xyz,Nucleus 14H :,-1.186999,0.262847,-2.114963,31.88,43.06,22.9,29.68,41.57,21.96,29.1,1.05,1.05,0.92,22.9,29.68,43.06,0
benzene_H2O_relaxH_disp_struct_5.xyz,Nucleus 1C :,0.728912,-0.084334,-1.199225,46.76,-69.82,33.45,176.65,235.36,266.92,257.81,-327.63,-233.46,-58.71,-69.82,33.45,176.65,0
benzene_H2O_relaxH_disp_struct_5.xyz,Nucleus 2C :,1.273612,-0.064112,-2.137882,47.76,-68.75,35.59,176.45,268.4,257.19,235.99,-326.13,-232.62,-59.54,-68.75,35.59,176.45,0
benzene_H2O_relaxH_disp_struct_5.xyz,Nucleus 4C :,1.416524,-0.279186,-0.005713,48.2,-68.25,176.32,36.54,236.43,256.85,269.14,-60.09,-325.21,-232.51,-68.25,36.54,176.32,0
benzene_H2O_relaxH_disp_struct_5.xyz,Nucleus 6C :,2.493447,-0.41546,-0.016421,46.82,-69.75,33.41,176.79,266.9,257.94,235.7,-327.75,-233.44,-58.91,-69.75,33.41,176.79,0
benzene_H2O_relaxH_disp_struct_5.xyz,Nucleus 8C :,0.244053,3.596224,0.280006,46.35,-70.3,32.56,176.78,235.4,267.65,256.92,-327.21,-235.05,-58.68,-70.3,32.56,176.78,0
benzene_H2O_relaxH_disp_struct_5.xyz,Nucleus 10C :,0.543565,4.510259,0.337291,46.26,-70.62,176.61,32.79,235.33,256.65,268.02,-58.79,-327.2,-235.21,-70.62,32.79,176.61,0
benzene_H2O_relaxH_disp_struct_5.xyz,Nucleus 12O :,-0.652916,3.618132,0.622826,329.29,363.11,322.75,302.02,358.78,385.28,396.8,-32.87,-63.34,-56.77,302.02,322.75,363.11,0
benzene_H2O_relaxH_disp_struct_6.xyz,Nucleus 0H :,1.262496,-0.430661,2.134433,23.75,27.04,23.31,20.91,43.82,28.33,21.32,-20.53,-1.29,-0.37,20.91,23.31,27.04,0
benzene_H2O_relaxH_disp_struct_6.xyz,Nucleus 3H :,0.725262,-0.290962,1.201459,23.81,27.02,23.36,21.04,43.46,29.16,22.03,-20.12,-2.17,-0.93,21.04,23.36,27.02,0
benzene_H2O_relaxH_disp_struct_6.xyz,Nucleus 5H :,-0.653711,-0.107857,1.2151,23.82,23.37,21.1,26.98,42.99,22.4,29.79,-19.65,-1.27,-2.8,21.1,23.37,26.98,0
benzene_H2O_relaxH_disp_struct_6.xyz,Nucleus 7H :,-1.192142,-0.111533,2.158714,23.76,27.02,23.28,20.98,44.03,28.22,21.85,-20.78,-1.21,-0.83,20.98,23.28,27.02,0
benzene_H2O_relaxH_disp_struct_6.xyz,Nucleus 9H :,-1.341293,0.087002,0.021568,23.73,27.02,23.28,20.89,43.15,28.82,21.34,-19.9,-1.81,-0.43,20.89,23.28,27.02,0
benzene_H2O_relaxH_disp_struct_6.xyz,Nucleus 11H :,-2.419389,0.226606,0.030513,23.73,20.87,23.29,27.03,42.87,21.14,29.11,-19.61,-0.24,-2.09,20.87,23.29,27.03,0
benzene_H2O_relaxH_disp_struct_6.xyz,Nucleus 13H :,-0.650037,0.09882,-1.185612,31.52,46.12,25.11,23.34,44.96,24.82,15.51,7.83,0.18,1.27,23.34,25.11,46.12,0
benzene_H2O_relaxH_disp_struct_6.xyz,Nucleus 14H :,-1.186999,0.262847,-2.114963,31.75,43.23,23.02,28.99,41.9,22.11,28.56,0.89,0.89,0.87,23.02,28.99,43.23,0
benzene_H2O_relaxH_disp_struct_6.xyz,Nucleus 1C :,0.728912,-0.084334,-1.199225,46.86,-69.65,33.61,176.62,235.34,267.03,257.82,-327.48,-233.41,-58.71,-69.65,33.61,176.62,0
benzene_H2O_relaxH_disp_struct_6.xyz,Nucleus 2C :,1.273612,-0.064112,-2.137882,47.69,-68.77,35.42,176.41,268.37,257.21,235.9,-326.14,-232.79,-59.48,-68.77,35.42,176.41,0
benzene_H2O_relaxH_disp_struct_6.xyz,Nucleus 4C :,1.416524,-0.279186,-0.005713,47.99,-68.46,176.28,36.16,236.28,256.84,269.06,-60.0,-325.38,-232.82,-68.46,36.16,176.28,0
benzene_H2O_relaxH_disp_struct_6.xyz,Nucleus 6C :,2.493447,-0.41546,-0.016421,46.94,-69.53,33.61,176.74,266.99,257.97,235.67,-327.54,-233.35,-58.93,-69.53,33.61,176.74,0
benzene_H2O_relaxH_disp_struct_6.xyz,Nucleus 8C :,0.244478,3.844953,0.305178,46.5,-70.05,32.81,176.75,267.76,256.92,235.37,-326.97,-234.91,-58.66,-70.05,32.81,176.75,0
benzene_H2O_relaxH_disp_struct_6.xyz,Nucleus 10C :,0.543991,4.758989,0.362463,46.41,-70.36,176.59,33.01,235.29,256.62,268.12,-58.75,-326.94,-235.1,-70.36,33.01,176.59,0
benzene_H2O_relaxH_disp_struct_6.xyz,Nucleus 12O :,-0.652491,3.866861,0.647999,329.15,362.34,322.65,302.45,359.05,385.5,396.63,-33.79,-63.35,-56.61,302.45,322.65,362.34,0
benzene_H2O_relaxH_disp_struct_7.xyz,Nucleus 0H :,1.262496,-0.430661,2.134433,23.75,27.06,23.3,20.9,43.81,28.36,21.33,-20.54,-1.29,-0.4,20.9,23.3,27.06,0
benzene_H2O_relaxH_disp_struct_7.xyz,Nucleus 3H :,0.725262,-0.290962,1.201459,23.8,27.04,23.34,21.02,43.43,29.15,21.98,-20.11,-2.13,-0.91,21.02,23.34,27.04,0
benzene_H2O_relaxH_disp_struct_7.xyz,Nucleus 5H :,-0.653711,-0.107857,1.2151,23.81,23.34,21.07,27.01,42.96,22.31,29.75,-19.64,-1.22,-2.73,21.07,23.34,27.01,0
benzene_H2O_relaxH_disp_struct_7.xyz,Nucleus 7H :,-1.192142,-0.111533,2.158714,23.76,27.04,23.27,20.97,44.02,28.25,21.86,-20.77,-1.21,-0.86,20.97,23.27,27.04,0
benzene_H2O_relaxH_disp_struct_7.xyz,Nucleus 9H :,-1.341293,0.087002,0.021568,23.73,27.04,23.27,20.88,43.15,28.86,21.38,-19.89,-1.82,-0.48,20.88,23.27,27.04,0
benzene_H2O_relaxH_disp_struct_7.xyz,Nucleus 11H :,-2.419389,0.226606,0.030513,23.73,20.86,23.28,27.05,42.86,21.17,29.15,-19.6,-0.29,-2.11,20.86,23.28,27.05,0
benzene_H2O_relaxH_disp_struct_7.xyz,Nucleus 13H :,-0.650037,0.09882,-1.185612,31.42,45.83,25.09,23.35,44.73,24.89,15.28,8.07,0.14,1.16,23.35,25.09,45.83,0
benzene_H2O_relaxH_disp_struct_7.xyz,Nucleus 14H :,-1.186999,0.262847,-2.114963,31.63,43.35,23.1,28.43,42.15,22.18,28.13,0.77,0.77,0.89,23.1,28.43,43.35,0
benzene_H2O_relaxH_disp_struct_7.xyz,Nucleus 1C :,0.728912,-0.084334,-1.199225,46.92,-69.55,33.72,176.6,235.29,267.11,257.81,-327.36,-233.39,-58.69,-69.55,33.72,176.6,0
benzene_H2O_relaxH_disp_struct_7.xyz,Nucleus 2C :,1.273612,-0.064112,-2.137882,47.6,-68.82,35.24,176.39,268.34,257.19,235.8,-326.15,-232.96,-59.42,-68.82,35.24,176.39,0
benzene_H2O_relaxH_disp_struct_7.xyz,Nucleus 4C :,1.416524,-0.279186,-0.005713,47.83,-68.61,176.26,35.83,236.15,256.81,268.98,-59.9,-325.48,-233.08,-68.61,35.83,176.26,0
benzene_H2O_relaxH_disp_struct_7.xyz,Nucleus 6C :,2.493447,-0.41546,-0.016421,47.01,-69.38,33.72,176.7,267.07,257.95,235.62,-327.37,-233.31,-58.92,-69.38,33.72,176.7,0
benzene_H2O_relaxH_disp_struct_7.xyz,Nucleus 8C :,0.244904,4.093682,0.330351,46.62,-69.87,32.99,176.73,267.84,256.91,235.32,-326.79,-234.81,-58.62,-69.87,32.99,176.73,0
benzene_H2O_relaxH_disp_struct_7.xyz,Nucleus 10C :,0.544416,5.007718,0.387636,46.53,-70.17,176.58,33.17,235.24,256.6,268.2,-58.7,-326.75,-235.02,-70.17,33.17,176.58,0
benzene_H2O_relaxH_disp_struct_7.xyz,Nucleus 12O :,-0.652065,4.11559,0.673171,328.98,361.76,322.48,302.71,359.31,396.51,385.58,-34.43,-63.41,-56.6,302.71,322.48,361.76,0
benzene_H2O_relaxH_disp_struct_8.xyz,Nucleus 0H :,1.262496,-0.430661,2.134433,23.75,27.08,23.29,20.89,43.8,28.38,21.34,-20.53,-1.3,-0.43,20.89,23.29,27.08,0
benzene_H2O_relaxH_disp_struct_8.xyz,Nucleus 3H :,0.725262,-0.290962,1.201459,23.79,27.06,23.32,20.99,43.4,29.13,21.93,-20.09,-2.09,-0.9,20.99,23.32,27.06,0
benzene_H2O_relaxH_disp_struct_8.xyz,Nucleus 5H :,-0.653711,-0.107857,1.2151,23.79,23.31,21.04,27.03,42.93,22.23,29.7,-19.63,-1.19,-2.66,21.04,23.31,27.03,0
benzene_H2O_relaxH_disp_struct_8.xyz,Nucleus 7H :,-1.192142,-0.111533,2.158714,23.76,27.06,23.26,20.95,44.0,28.27,21.85,-20.75,-1.21,-0.89,20.95,23.26,27.06,0
benzene_H2O_relaxH_disp_struct_8.xyz,Nucleus 9H :,-1.341293,0.087002,0.021568,23.73,27.06,23.27,20.87,43.14,28.89,21.4,-19.89,-1.84,-0.52,20.87,23.27,27.06,0
benzene_H2O_relaxH_disp_struct_8.xyz,Nucleus 11H :,-2.419389,0.226606,0.030513,23.73,20.85,23.27,27.07,42.85,21.19,29.19,-19.59,-0.32,-2.12,20.85,23.27,27.07,0
benzene_H2O_relaxH_disp_struct_8.xyz,Nucleus 13H :,-0.650037,0.09882,-1.185612,31.34,45.59,25.08,23.36,44.54,24.95,15.04,8.32,0.11,1.07,23.36,25.08,45.59,0
benzene_H2O_relaxH_disp_struct_8.xyz,Nucleus 14H :,-1.186999,0.262847,-2.114963,31.53,43.45,23.17,27.98,42.34,22.2,27.77,0.67,0.67,0.93,23.17,27.98,43.45,0
benzene_H2O_relaxH_disp_struct_8.xyz,Nucleus 1C :,0.728912,-0.084334,-1.199225,46.97,-69.46,33.78,176.58,235.24,267.17,257.78,-327.25,-233.39,-58.67,-69.46,33.78,176.58,0
benzene_H2O_relaxH_disp_struct_8.xyz,Nucleus 2C :,1.273612,-0.064112,-2.137882,47.53,-68.86,35.07,176.37,268.3,257.17,235.71,-326.15,-233.11,-59.35,-68.86,35.07,176.37,0
benzene_H2O_relaxH_disp_struct_8.xyz,Nucleus 4C :,1.416524,-0.279186,-0.005713,47.68,-68.74,176.24,35.54,236.03,256.78,268.9,-59.8,-325.57,-233.3,-68.74,35.54,176.24,0
benzene_H2O_relaxH_disp_struct_8.xyz,Nucleus 6C :,2.493447,-0.41546,-0.016421,47.06,-69.28,33.79,176.66,267.12,257.92,235.56,-327.23,-233.31,-58.9,-69.28,33.79,176.66,0
benzene_H2O_relaxH_disp_struct_8.xyz,Nucleus 8C :,0.245329,4.342411,0.355523,46.71,-69.72,33.13,176.71,267.9,256.9,235.28,-326.64,-234.73,-58.59,-69.72,33.13,176.71,0
benzene_H2O_relaxH_disp_struct_8.xyz,Nucleus 10C :,0.544841,5.256447,0.412808,46.61,-70.03,176.57,33.29,235.2,256.58,268.25,-58.66,-326.59,-234.95,-70.03,33.29,176.57,0
benzene_H2O_relaxH_disp_struct_8.xyz,Nucleus 12O :,-0.65164,4.364319,0.698343,328.84,361.31,322.3,302.9,359.52,396.42,385.6,-34.91,-63.5,-56.61,302.9,322.3,361.31,0
benzene_H2O_relaxH_disp_struct_9.xyz,Nucleus 0H :,1.262496,-0.430661,2.134433,23.75,27.1,23.28,20.88,43.79,28.4,21.35,-20.52,-1.31,-0.45,20.88,23.28,27.1,0
benzene_H2O_relaxH_disp_struct_9.xyz,Nucleus 3H :,0.725262,-0.290962,1.201459,23.78,27.08,23.3,20.97,43.37,29.12,21.88,-20.07,-2.06,-0.89,20.97,23.3,27.08,0
benzene_H2O_relaxH_disp_struct_9.xyz,Nucleus 5H :,-0.653711,-0.107857,1.2151,23.79,23.3,21.01,27.05,42.91,22.17,29.66,-19.62,-1.16,-2.6,21.01,23.3,27.05,0
benzene_H2O_relaxH_disp_struct_9.xyz,Nucleus 7H :,-1.192142,-0.111533,2.158714,23.76,27.08,23.26,20.93,43.97,28.29,21.85,-20.72,-1.21,-0.91,20.93,23.26,27.08,0
benzene_H2O_relaxH_disp_struct_9.xyz,Nucleus 9H :,-1.341293,0.087002,0.021568,23.73,27.08,23.26,20.86,43.14,28.92,21.42,-19.88,-1.84,-0.55,20.86,23.26,27.08,0
benzene_H2O_relaxH_disp_struct_9.xyz,Nucleus 11H :,-2.419389,0.226606,0.030513,23.73,20.84,23.27,27.08,42.84,21.21,29.21,-19.58,-0.35,-2.13,20.84,23.27,27.08,0
benzene_H2O_relaxH_disp_struct_9.xyz,Nucleus 13H :,-0.650037,0.09882,-1.185612,31.28,45.38,25.08,23.37,44.38,25.0,14.77,8.6,0.09,1.0,23.37,25.08,45.38,0
benzene_H2O_relaxH_disp_struct_9.xyz,Nucleus 14H :,-1.186999,0.262847,-2.114963,31.45,43.52,23.22,27.6,42.49,22.19,27.47,0.59,0.59,1.01,23.22,27.6,43.52,0
benzene_H2O_relaxH_disp_struct_9.xyz,Nucleus 1C :,0.728912,-0.084334,-1.199225,46.99,-69.4,33.82,176.56,267.22,257.75,235.2,-327.16,-233.39,-58.65,-69.4,33.82,176.56,0
benzene_H2O_relaxH_disp_struct_9.xyz,Nucleus 2C :,1.273612,-0.064112,-2.137882,47.46,-68.9,34.92,176.35,268.27,257.14,235.64,-326.14,-233.25,-59.29,-68.9,34.92,176.35,0
benzene_H2O_relaxH_disp_struct_9.xyz,Nucleus 4C :,1.416524,-0.279186,-0.005713,47.56,-68.83,176.23,35.29,235.92,256.75,268.83,-59.71,-325.62,-233.49,-68.83,35.29,176.23,0
benzene_H2O_relaxH_disp_struct_9.xyz,Nucleus 6C :,2.493447,-0.41546,-0.016421,47.08,-69.21,33.83,176.63,267.17,257.88,235.51,-327.12,-233.32,-58.87,-69.21,33.83,176.63,0
benzene_H2O_relaxH_disp_struct_9.xyz,Nucleus 8C :,0.245755,4.59114,0.380695,46.77,-69.61,33.24,176.69,267.94,256.89,235.24,-326.52,-234.67,-58.56,-69.61,33.24,176.69,0
benzene_H2O_relaxH_disp_struct_9.xyz,Nucleus 10C :,0.545267,5.505176,0.43798,46.67,-69.92,176.56,33.38,235.16,256.57,268.29,-58.63,-326.47,-234.9,-69.92,33.38,176.56,0
benzene_H2O_relaxH_disp_struct_9.xyz,Nucleus 12O :,-0.651214,4.613049,0.723516,328.72,360.96,322.14,303.07,359.61,396.36,385.58,-35.27,-63.58,-56.54,303.07,322.14,360.96,0
